"N","Time","avg(GlobalElementId)","avg(ObjectId)","avg(PedigreeElementId)","avg(alpha)","avg(strain_x (0))","avg(strain_x (1))","avg(strain_x (2))","avg(strain_x (Magnitude))","avg(strain_yy)","avg(stress_x (0))","avg(stress_x (1))","avg(stress_x (2))","avg(stress_x (Magnitude))","avg(stress_yy)","avg(vtkOriginalCellIds)","max(GlobalElementId)","max(ObjectId)","max(PedigreeElementId)","max(alpha)","max(strain_x (0))","max(strain_x (1))","max(strain_x (2))","max(strain_x (Magnitude))","max(strain_yy)","max(stress_x (0))","max(stress_x (1))","max(stress_x (2))","max(stress_x (Magnitude))","max(stress_yy)","max(vtkOriginalCellIds)","med(GlobalElementId)","med(ObjectId)","med(PedigreeElementId)","med(alpha)","med(strain_x (0))","med(strain_x (1))","med(strain_x (2))","med(strain_x (Magnitude))","med(strain_yy)","med(stress_x (0))","med(stress_x (1))","med(stress_x (2))","med(stress_x (Magnitude))","med(stress_yy)","med(vtkOriginalCellIds)","min(GlobalElementId)","min(ObjectId)","min(PedigreeElementId)","min(alpha)","min(strain_x (0))","min(strain_x (1))","min(strain_x (2))","min(strain_x (Magnitude))","min(strain_yy)","min(stress_x (0))","min(stress_x (1))","min(stress_x (2))","min(stress_x (Magnitude))","min(stress_yy)","min(vtkOriginalCellIds)","q1(GlobalElementId)","q1(ObjectId)","q1(PedigreeElementId)","q1(alpha)","q1(strain_x (0))","q1(strain_x (1))","q1(strain_x (2))","q1(strain_x (Magnitude))","q1(strain_yy)","q1(stress_x (0))","q1(stress_x (1))","q1(stress_x (2))","q1(stress_x (Magnitude))","q1(stress_yy)","q1(vtkOriginalCellIds)","q3(GlobalElementId)","q3(ObjectId)","q3(PedigreeElementId)","q3(alpha)","q3(strain_x (0))","q3(strain_x (1))","q3(strain_x (2))","q3(strain_x (Magnitude))","q3(strain_yy)","q3(stress_x (0))","q3(stress_x (1))","q3(stress_x (2))","q3(stress_x (Magnitude))","q3(stress_yy)","q3(vtkOriginalCellIds)","std(GlobalElementId)","std(ObjectId)","std(PedigreeElementId)","std(alpha)","std(strain_x (0))","std(strain_x (1))","std(strain_x (2))","std(strain_x (Magnitude))","std(strain_yy)","std(stress_x (0))","std(stress_x (1))","std(stress_x (2))","std(stress_x (Magnitude))","std(stress_yy)","std(vtkOriginalCellIds)","vtkValidPointMask"
2137,0,12073,1,12073,1,0,0,0,0,0,0,0,0,0,0,12072,13208,1,13208,1,0,0,0,0,0,0,0,0,0,0,13207,12073,1,12073,1,0,0,0,0,0,0,0,0,0,0,12072,10979,1,10979,1,0,0,0,0,0,0,0,0,0,0,10978,11538,1,11538,1,0,0,0,0,0,0,0,0,0,0,11537,12607,1,12607,1,0,0,0,0,0,0,0,0,0,0,12606,618.61,0,618.61,0,0,0,0,0,0,0,0,0,0,0,618.61,1
2137,0.01,12073,1,12073,1,-3.4167e-09,1.5085e-09,0,1.4116e-06,6.2917e-10,-8686.6,511.91,0,5.6685e+05,-46.518,12072,13208,1,13208,1,2.7863e-06,1.9715e-08,0,2.7863e-06,5.1359e-07,1.1025e+06,6569.9,0,1.1138e+06,1922.3,13207,12073,1,12073,1,-8.4935e-08,1.3682e-09,0,1.4963e-06,1.4875e-08,-34403,461.73,0,5.9434e+05,-11.334,12072,10979,1,10979,1,-2.7384e-06,-1.4955e-08,0,8.3812e-08,-5.2379e-07,-1.1138e+06,-4983.4,0,34023,-2257.4,10978,11538,1,11538,1,-1.4966e-06,-1.7568e-10,0,7.0331e-07,-2.5193e-07,-6.0872e+05,-59.361,0,2.8458e+05,-257.51,11537,12607,1,12607,1,1.3381e-06,3.1641e-09,0,2.1101e-06,2.8074e-07,5.3129e+05,1070.4,0,8.5471e+05,217.59,12606,618.61,0,618.61,0,1.6286e-06,2.312e-09,0,8.1164e-07,3.0536e-07,6.5376e+05,779.47,0,3.2559e+05,726.21,618.61,1
2137,0.02,12073,1,12073,1,2.0354e-08,-1.405e-10,0,2.8424e-06,-3.9945e-09,-6558.3,-47.713,0,1.1413e+06,-158.85,12072,13208,1,13208,1,5.5155e-06,3.2191e-09,0,5.5155e-06,1.0206e-06,2.1826e+06,1082.1,0,2.2137e+06,96.95,13207,12073,1,12073,1,-1.6627e-07,-6.124e-11,0,3.0023e-06,3.0836e-08,-67671,-20.579,0,1.2196e+06,-81.569,12072,10979,1,10979,1,-5.4426e-06,-1.9011e-09,0,1.6618e-07,-1.034e-06,-2.2137e+06,-639.07,0,67628,-871.18,10978,11538,1,11538,1,-3.0023e-06,-6.7136e-10,0,1.4547e-06,-5.0243e-07,-1.2212e+06,-227.74,0,5.7881e+05,-265.91,11537,12607,1,12607,1,2.6746e-06,2.2497e-10,0,4.291e-06,5.629e-07,1.0613e+06,76.218,0,1.7155e+06,-6.8983,12606,618.61,0,618.61,0,3.2793e-06,7.7558e-10,0,1.6344e-06,6.1492e-07,1.3163e+06,261.77,0,6.554e+05,205.42,618.61,1
2137,0.03,12073,1,12073,1,3.0757e-08,-1.3803e-09,0,4.2639e-06,-5.73e-09,-9724.8,-467.47,0,1.7121e+06,-111.98,12072,13208,1,13208,1,8.2871e-06,2.1237e-09,0,8.2871e-06,1.5335e-06,3.2794e+06,713.91,0,3.3261e+06,183.83,13207,12073,1,12073,1,-2.4867e-07,-1.1495e-09,0,4.5001e-06,4.619e-08,-1.0121e+05,-389.32,0,1.8283e+06,-39.413,12072,10979,1,10979,1,-8.1774e-06,-5.0399e-09,0,2.4842e-07,-1.5536e-06,-3.3261e+06,-1699.6,0,1.0111e+05,-820.48,10978,11538,1,11538,1,-4.5002e-06,-2.5402e-09,0,2.1811e-06,-7.5328e-07,-1.8304e+06,-857.16,0,8.6792e+05,-191.09,11537,12607,1,12607,1,4.0179e-06,-7.7343e-11,0,6.4325e-06,8.438e-07,1.5945e+06,-25.877,0,2.5714e+06,18.543,12606,618.61,0,618.61,0,4.9194e-06,1.5028e-09,0,2.4519e-06,9.2237e-07,1.9746e+06,508.49,0,9.8318e+05,198.69,618.61,1
2137,0.04,12073,1,12073,1,4.0568e-08,1.6406e-09,0,5.6863e-06,-7.3463e-09,-13133,555.38,0,2.2832e+06,-62.088,12072,13208,1,13208,1,1.1047e-05,5.3511e-09,0,1.1047e-05,2.0444e-06,4.3716e+06,1804.5,0,4.4341e+06,116.84,13207,12073,1,12073,1,-3.3222e-07,1.6613e-09,0,6.0025e-06,6.1833e-08,-1.3523e+05,562.95,0,2.4382e+06,-18.384,12072,10979,1,10979,1,-1.0902e-05,-1.1748e-09,0,3.322e-07,-2.071e-06,-4.4341e+06,-396.2,0,1.3522e+05,-820.82,10978,11538,1,11538,1,-6.0026e-06,4.3399e-10,0,2.9083e-06,-1.0039e-06,-2.4415e+06,147.26,0,1.1574e+06,-66.294,11537,12607,1,12607,1,5.3558e-06,2.7967e-09,0,8.5784e-06,1.1258e-06,2.1254e+06,951.87,0,3.4298e+06,19.815,12606,618.61,0,618.61,0,6.5605e-06,1.3321e-09,0,3.2698e-06,1.23e-06,2.6334e+06,450.6,0,1.3112e+06,144.75,618.61,1
2137,0.05,12073,1,12073,1,5.0755e-08,3.4823e-10,0,7.1179e-06,-9.1316e-09,-16445,117.93,0,2.8581e+06,-53.891,12072,13208,1,13208,1,1.3802e-05,1.9967e-09,0,1.3802e-05,2.554e-06,5.4618e+06,673.33,0,5.5396e+06,20.514,13207,12073,1,12073,1,-4.1632e-07,2.8232e-10,0,7.5232e-06,7.7473e-08,-1.6936e+05,95.567,0,3.0558e+06,-10.412,12072,10979,1,10979,1,-1.3619e-05,-1.1925e-09,0,4.1632e-07,-2.5874e-06,-5.5396e+06,-402.17,0,1.6936e+05,-704.72,10978,11538,1,11538,1,-7.5232e-06,1.213e-10,0,3.6448e-06,-1.2544e-06,-3.06e+06,41.207,0,1.4506e+06,-34.462,11537,12607,1,12607,1,6.6927e-06,5.5915e-10,0,1.0752e-05,1.4109e-06,2.656e+06,189.01,0,4.2988e+06,2.9459,12606,618.61,0,618.61,0,8.2121e-06,3.14e-10,0,4.093e-06,1.5397e-06,3.2963e+06,106.15,0,1.6413e+06,117.45,618.61,1
2137,0.06,12073,1,12073,1,6.0922e-08,1.9548e-09,0,8.5358e-06,-1.0894e-08,-19693,661.77,0,3.4274e+06,-36.741,12072,13208,1,13208,1,1.6573e-05,5.3149e-09,0,1.6573e-05,3.0668e-06,6.5581e+06,1792.4,0,6.6516e+06,120.04,13207,12073,1,12073,1,-4.9878e-07,1.8064e-09,0,9.0145e-06,9.3415e-08,-2.0296e+05,611.72,0,3.6617e+06,-11.969,12072,10979,1,10979,1,-1.6353e-05,-7.6276e-10,0,4.9876e-07,-3.1067e-06,-6.6516e+06,-257.25,0,2.0296e+05,-663.28,10978,11538,1,11538,1,-9.0146e-06,5.2391e-10,0,4.3676e-06,-1.5059e-06,-3.6666e+06,178.6,0,1.7383e+06,-60.78,11537,12607,1,12607,1,8.0354e-06,3.4053e-09,0,1.2883e-05,1.6907e-06,3.1888e+06,1152.1,0,5.1509e+06,27.991,12606,618.61,0,618.61,0,9.8479e-06,1.5699e-09,0,4.9083e-06,1.8464e-06,3.9529e+06,531.39,0,1.9682e+06,109.61,618.61,1
2137,0.07,12073,1,12073,1,7.133e-08,5.6496e-10,0,9.9656e-06,-1.2743e-08,-22909,191.29,0,4.0015e+06,-37.574,12072,13208,1,13208,1,1.9328e-05,3.3815e-09,0,1.9328e-05,3.5765e-06,7.6485e+06,1140.3,0,7.7572e+06,65.69,13207,12073,1,12073,1,-5.8258e-07,3.0305e-10,0,1.0532e-05,1.093e-07,-2.3699e+05,102.44,0,4.2783e+06,-12.183,12072,10979,1,10979,1,-1.9072e-05,-7.5201e-10,0,5.8257e-07,-3.6232e-06,-7.7572e+06,-253.56,0,2.3699e+05,-475.7,10978,11538,1,11538,1,-1.0532e-05,-2.9073e-11,0,5.1031e-06,-1.7565e-06,-4.2839e+06,-9.9579,0,2.031e+06,-40.982,11537,12607,1,12607,1,9.3721e-06,1.059e-09,0,1.5053e-05,1.9754e-06,3.7193e+06,358.07,0,6.0183e+06,6.1541,12606,618.61,0,618.61,0,1.1498e-05,7.5684e-10,0,5.7305e-06,2.1557e-06,4.6151e+06,256.23,0,2.2979e+06,86.822,618.61,1
2137,0.08,12073,1,12073,1,8.1483e-08,-8.6325e-10,0,1.1386e-05,-1.4511e-08,-26178,-292.25,0,4.572e+06,-23.873,12072,13208,1,13208,1,2.2093e-05,1.7676e-09,0,2.2093e-05,4.0882e-06,8.7425e+06,596.1,0,8.8672e+06,173.64,13207,12073,1,12073,1,-6.6544e-07,-5.1739e-10,0,1.203e-05,1.2517e-07,-2.707e+05,-172.71,0,4.8869e+06,-19.125,12072,10979,1,10979,1,-2.1801e-05,-4.1858e-09,0,6.6541e-07,-4.1416e-06,-8.8672e+06,-1412,0,2.7068e+05,-413.58,10978,11538,1,11538,1,-1.2031e-05,-1.8837e-09,0,5.829e-06,-2.0075e-06,-4.8933e+06,-640.75,0,2.3199e+06,-58.834,11537,12607,1,12607,1,1.0713e-05,2.9784e-10,0,1.7194e-05,2.2564e-06,4.2513e+06,100.98,0,6.8743e+06,31.029,12606,618.61,0,618.61,0,1.3137e-05,1.4548e-09,0,6.5476e-06,2.463e-06,5.2731e+06,492.66,0,2.6255e+06,92.019,618.61,1
2137,0.09,12073,1,12073,1,9.1782e-08,2.2938e-09,0,1.28e-05,-1.6448e-08,-29361,776.52,0,5.1395e+06,-69.004,12072,13208,1,13208,1,2.4848e-05,8.4419e-09,0,2.4848e-05,4.5979e-06,9.8328e+06,2846.7,0,9.9726e+06,250.37,13207,12073,1,12073,1,-7.4758e-07,1.6657e-09,0,1.3521e-05,1.4012e-07,-3.0418e+05,562.66,0,5.4926e+06,-35.893,12072,10979,1,10979,1,-2.4518e-05,-1.5026e-09,0,7.4756e-07,-4.658e-06,-9.9726e+06,-506.71,0,3.0417e+05,-798.65,10978,11538,1,11538,1,-1.3521e-05,1.3965e-10,0,6.5519e-06,-2.2578e-06,-5.4996e+06,47.591,0,2.6076e+06,-115.96,11537,12607,1,12607,1,1.2047e-05,4.0787e-09,0,1.9325e-05,2.536e-06,4.781e+06,1375.6,0,7.7262e+06,18.839,12606,618.61,0,618.61,0,1.4767e-05,2.4807e-09,0,7.3602e-06,2.7687e-06,5.9276e+06,839.79,0,2.9514e+06,129.86,618.61,1
2137,0.1,12073,1,12073,1,1.0239e-07,1.7348e-09,0,1.4226e-05,-1.8263e-08,-32472,587.12,0,5.7121e+06,-39.101,12072,13208,1,13208,1,2.761e-05,7.3365e-09,0,2.761e-05,5.1084e-06,1.0926e+07,2474.1,0,1.108e+07,146.42,13207,12073,1,12073,1,-8.3085e-07,1.4942e-09,0,1.5029e-05,1.5568e-07,-3.3802e+05,505.14,0,6.1051e+06,-17.708,12072,10979,1,10979,1,-2.7241e-05,-1.2874e-09,0,8.308e-07,-5.1757e-06,-1.108e+07,-434.17,0,3.3801e+05,-805.49,10978,11538,1,11538,1,-1.5029e-05,9.2249e-11,0,7.2824e-06,-2.5092e-06,-6.1127e+06,31.401,0,2.8984e+06,-53.489,11537,12607,1,12607,1,1.3388e-05,3.2095e-09,0,2.148e-05,2.8188e-06,5.3128e+06,1090.4,0,8.5875e+06,26.119,12606,618.61,0,618.61,0,1.6413e-05,1.8288e-09,0,8.1803e-06,3.0772e-06,6.5881e+06,618.72,0,3.2802e+06,126.31,618.61,1
2137,0.11,12073,1,12073,1,1.1257e-07,2.1458e-10,0,1.5649e-05,-2.0048e-08,-35744,72.621,0,6.2836e+06,-30.804,12072,13208,1,13208,1,3.0345e-05,3.0902e-09,0,3.0345e-05,5.6148e-06,1.2008e+07,1042.1,0,1.2178e+07,114.81,13207,12073,1,12073,1,-9.1415e-07,2.3578e-10,0,1.6538e-05,1.7196e-07,-3.7187e+05,80.396,0,6.7185e+06,-21.391,12072,10979,1,10979,1,-2.9942e-05,-3.0307e-09,0,9.1412e-07,-5.6884e-06,-1.2178e+07,-1022,0,3.7186e+05,-577.88,10978,11538,1,11538,1,-1.6538e-05,-6.2299e-10,0,8.0141e-06,-2.7577e-06,-6.7268e+06,-211.56,0,3.1896e+06,-55.942,11537,12607,1,12607,1,1.4715e-05,1.2987e-09,0,2.3638e-05,3.1019e-06,5.8397e+06,439.31,0,9.4502e+06,9.3523,12606,618.61,0,618.61,0,1.8055e-05,1.3866e-09,0,8.9987e-06,3.3851e-06,7.2471e+06,469.55,0,3.6084e+06,82.456,618.61,1
2137,0.12,12073,1,12073,1,1.2227e-07,4.2915e-10,0,1.7083e-05,-2.1718e-08,-39259,145.31,0,6.8591e+06,-11.861,12072,13208,1,13208,1,3.3121e-05,9.607e-10,0,3.3121e-05,6.1287e-06,1.3107e+07,323.97,0,1.3293e+07,51.729,13207,12073,1,12073,1,-9.985e-07,4.6192e-10,0,1.8054e-05,1.8818e-07,-4.0624e+05,156.45,0,7.3339e+06,-4.0198,12072,10979,1,10979,1,-3.2682e-05,-1.6399e-10,0,9.9848e-07,-6.2088e-06,-1.3293e+07,-56.165,0,4.0623e+05,-450.41,10978,11538,1,11538,1,-1.8055e-05,1.5376e-10,0,8.7479e-06,-3.0099e-06,-7.3435e+06,52.243,0,3.4816e+06,-12.527,11537,12607,1,12607,1,1.6061e-05,7.0409e-10,0,2.5804e-05,3.3861e-06,6.3738e+06,238.67,0,1.0317e+07,4.2966,12606,618.61,0,618.61,0,1.9709e-05,3.0857e-10,0,9.8231e-06,3.6951e-06,7.911e+06,104.55,0,3.939e+06,49.057,618.61,1
2137,0.13,12073,1,12073,1,1.3249e-07,2.0851e-09,0,1.8501e-05,-2.3537e-08,-42494,705.87,0,7.4287e+06,-14.257,12072,13208,1,13208,1,3.5888e-05,4.7677e-09,0,3.5888e-05,6.6408e-06,1.4202e+07,1607.8,0,1.4404e+07,582.81,13207,12073,1,12073,1,-1.0811e-06,2.1208e-09,0,1.9546e-05,2.0341e-07,-4.3986e+05,714.27,0,7.9399e+06,-4.9888,12072,10979,1,10979,1,-3.5412e-05,-4.8325e-10,0,1.0811e-06,-6.7275e-06,-1.4404e+07,-165.52,0,4.3984e+05,-652.87,10978,11538,1,11538,1,-1.9547e-05,8.0946e-10,0,9.4707e-06,-3.2616e-06,-7.9504e+06,274.52,0,3.7693e+06,-51.478,11537,12607,1,12607,1,1.7403e-05,3.2488e-09,0,2.7936e-05,3.666e-06,6.9062e+06,1101.8,0,1.1169e+07,35.541,12606,618.61,0,618.61,0,2.1345e-05,1.4636e-09,0,1.0639e-05,4.0019e-06,8.5678e+06,495.56,0,4.266e+06,90.131,618.61,1
2137,0.14,12073,1,12073,1,1.4235e-07,-2.3901e-09,0,1.9917e-05,-2.5264e-08,-45856,-809.14,0,7.9973e+06,-6.147,12072,13208,1,13208,1,3.8644e-05,2.2768e-09,0,3.8644e-05,7.1508e-06,1.5292e+07,767.65,0,1.551e+07,246.59,13207,12073,1,12073,1,-1.164e-06,-2.2798e-09,0,2.1041e-05,2.1946e-07,-4.7356e+05,-768.36,0,8.5464e+06,-4.255,12072,10979,1,10979,1,-3.8131e-05,-7.2025e-09,0,1.1639e-06,-7.2441e-06,-1.551e+07,-2424.4,0,4.7354e+05,-535.71,10978,11538,1,11538,1,-2.1041e-05,-4.2908e-09,0,1.0194e-05,-3.5114e-06,-8.5581e+06,-1450.8,0,4.0573e+06,-78.378,11537,12607,1,12607,1,1.8738e-05,-1.5687e-10,0,3.007e-05,3.9463e-06,7.4362e+06,-53.4,0,1.2023e+07,69.89,12606,618.61,0,618.61,0,2.2979e-05,2.4218e-09,0,1.1453e-05,4.3083e-06,9.2236e+06,819.83,0,4.5925e+06,114.23,618.61,1
2137,0.15,12073,1,12073,1,1.526e-07,-3.7413e-10,0,2.1347e-05,-2.7063e-08,-49136,-126.63,0,8.5714e+06,1.5624,12072,13208,1,13208,1,4.1398e-05,4.1851e-09,0,4.1398e-05,7.6605e-06,1.6382e+07,1411.3,0,1.6615e+07,174.77,13207,12073,1,12073,1,-1.2479e-06,-2.6648e-10,0,2.256e-05,2.353e-07,-5.0764e+05,-88.956,0,9.1639e+06,-7.1573,12072,10979,1,10979,1,-4.085e-05,-3.5773e-09,0,1.2478e-06,-7.7605e-06,-1.6615e+07,-1206.4,0,5.076e+05,-485.52,10978,11538,1,11538,1,-2.256e-05,-1.7407e-09,0,1.0931e-05,-3.7617e-06,-9.176e+06,-590.44,0,4.3504e+06,-40.942,11537,12607,1,12607,1,2.0074e-05,6.3876e-10,0,3.2242e-05,4.2314e-06,7.9663e+06,214.21,0,1.2891e+07,46.133,12606,618.61,0,618.61,0,2.4628e-05,1.7737e-09,0,1.2275e-05,4.6175e-06,9.8858e+06,600.59,0,4.9222e+06,79.412,618.61,1
2137,0.16,12073,1,12073,1,1.6315e-07,-1.366e-10,0,2.2774e-05,-2.8986e-08,-52283,-46.265,0,9.1444e+06,-18.221,12072,13208,1,13208,1,4.4157e-05,1.8063e-09,0,4.4157e-05,8.1708e-06,1.7474e+07,607.16,0,1.7722e+07,189.18,13207,12073,1,12073,1,-1.3311e-06,-1.8979e-11,0,2.4071e-05,2.5154e-07,-5.4148e+05,-6.4914,0,9.7777e+06,-14.516,12072,10979,1,10979,1,-4.3571e-05,-1.7599e-09,0,1.331e-06,-8.2776e-06,-1.7722e+07,-600.38,0,5.4147e+05,-370.13,10978,11538,1,11538,1,-2.4071e-05,-8.5279e-10,0,1.1663e-05,-4.0128e-06,-9.7905e+06,-288.4,0,4.6418e+06,-52.737,11537,12607,1,12607,1,2.1413e-05,3.7555e-10,0,3.4402e-05,4.5143e-06,8.4976e+06,126.57,0,1.3754e+07,13.646,12606,618.61,0,618.61,0,2.6275e-05,8.2904e-10,0,1.3096e-05,4.9262e-06,1.0547e+07,280.75,0,5.2513e+06,52.287,618.61,1
2137,0.17,12073,1,12073,1,1.7368e-07,2.0432e-09,0,2.4189e-05,-3.0876e-08,-55374,691.88,0,9.7125e+06,-25.797,12072,13208,1,13208,1,4.6917e-05,4.9905e-09,0,4.6917e-05,8.6811e-06,1.8566e+07,1702.5,0,1.8829e+07,316.76,13207,12073,1,12073,1,-1.4132e-06,2.051e-09,0,2.556e-05,2.667e-07,-5.749e+05,696.14,0,1.0383e+07,-27.215,12072,10979,1,10979,1,-4.6293e-05,-4.7356e-10,0,1.4132e-06,-8.7952e-06,-1.8829e+07,-158.67,0,5.7489e+05,-574.17,10978,11538,1,11538,1,-2.556e-05,5.7695e-10,0,1.2385e-05,-4.2637e-06,-1.0396e+07,195.06,0,4.9291e+06,-58.046,11537,12607,1,12607,1,2.2751e-05,3.516e-09,0,3.6531e-05,4.7938e-06,9.0286e+06,1194.7,0,1.4605e+07,11.22,12606,618.61,0,618.61,0,2.7907e-05,1.5624e-09,0,1.3909e-05,5.2322e-06,1.1202e+07,529.5,0,5.5775e+06,72.943,618.61,1
2137,0.18,12073,1,12073,1,1.8324e-07,1.4803e-09,0,2.562e-05,-3.2438e-08,-58929,501.16,0,1.0287e+07,27.166,12072,13208,1,13208,1,4.9687e-05,4.0486e-09,0,4.9687e-05,9.194e-06,1.9662e+07,1365.3,0,1.9941e+07,1237.6,13207,12073,1,12073,1,-1.4976e-06,1.4661e-09,0,2.7075e-05,2.8253e-07,-6.0925e+05,493.86,0,1.0998e+07,10.443,12072,10979,1,10979,1,-4.9027e-05,-6.0143e-10,0,1.4976e-06,-9.3144e-06,-1.9941e+07,-200.43,0,6.0925e+05,-599.33,10978,11538,1,11538,1,-2.7075e-05,3.927e-10,0,1.3118e-05,-4.5153e-06,-1.1012e+07,133.82,0,5.2209e+06,-29.332,11537,12607,1,12607,1,2.4093e-05,2.5828e-09,0,3.8695e-05,5.0779e-06,9.5615e+06,872.24,0,1.5471e+07,54.418,12606,618.61,0,618.61,0,2.9559e-05,1.1752e-09,0,1.4732e-05,5.5418e-06,1.1865e+07,397.96,0,5.9076e+06,131.3,618.61,1
2137,0.19,12073,1,12073,1,1.9368e-07,1.6856e-09,0,2.704e-05,-3.4388e-08,-62092,570.72,0,1.0857e+07,-12.868,12072,13208,1,13208,1,5.2437e-05,4.8015e-09,0,5.2437e-05,9.7028e-06,2.075e+07,1637.9,0,2.1045e+07,1320.1,13207,12073,1,12073,1,-1.5804e-06,1.6074e-09,0,2.8577e-05,2.9835e-07,-6.4287e+05,544.18,0,1.1608e+07,-13.439,12072,10979,1,10979,1,-5.1741e-05,-2.2101e-10,0,1.5803e-06,-9.8301e-06,-2.1045e+07,-73.643,0,6.4285e+05,-504.32,10978,11538,1,11538,1,-2.8577e-05,7.4522e-10,0,1.3846e-05,-4.7654e-06,-1.1623e+07,252.25,0,5.5106e+06,-104.85,11537,12607,1,12607,1,2.5427e-05,2.5038e-09,0,4.0842e-05,5.3594e-06,1.0091e+07,847.82,0,1.6329e+07,38.858,12606,618.61,0,618.61,0,3.1197e-05,1.1353e-09,0,1.5549e-05,5.8491e-06,1.2522e+07,384.68,0,6.235e+06,168.92,618.61,1
2137,0.2,12073,1,12073,1,2.0342e-07,-8.3017e-10,0,2.8461e-05,-3.6081e-08,-65527,-281.08,0,1.1428e+07,0.058741,12072,13208,1,13208,1,5.5197e-05,3.0263e-09,0,5.5197e-05,1.0214e-05,2.1842e+07,1017.3,0,2.2154e+07,369.73,13207,12073,1,12073,1,-1.6638e-06,-5.7093e-10,0,3.0079e-05,3.1457e-07,-6.7682e+05,-195.11,0,1.2218e+07,-9.4809,12072,10979,1,10979,1,-5.4466e-05,-4.7527e-09,0,1.6638e-06,-1.0347e-05,-2.2154e+07,-1602.7,0,6.7681e+05,-375.62,10978,11538,1,11538,1,-3.0079e-05,-2.504e-09,0,1.4574e-05,-5.0156e-06,-1.2234e+07,-850.14,0,5.8002e+06,-61.456,11537,12607,1,12607,1,2.6765e-05,5.3511e-10,0,4.2988e-05,5.6414e-06,1.0622e+07,180.43,0,1.7187e+07,54.187,12606,618.61,0,618.61,0,3.2836e-05,1.9001e-09,0,1.6366e-05,6.1564e-06,1.318e+07,643.37,0,6.5627e+06,94.075,618.61,1
2137,0.21,12073,1,12073,1,2.138e-07,-1.0021e-09,0,2.9892e-05,-3.7771e-08,-68750,-339.18,0,1.2003e+07,63.449,12072,13208,1,13208,1,5.797e-05,1.792e-09,0,5.797e-05,1.0727e-05,2.294e+07,601.44,0,2.3267e+07,801.49,13207,12073,1,12073,1,-1.7473e-06,-8.0431e-10,0,3.1591e-05,3.297e-07,-7.1075e+05,-269.75,0,1.2832e+07,27.373,12072,10979,1,10979,1,-5.7202e-05,-3.9794e-09,0,1.7472e-06,-1.0868e-05,-2.3267e+07,-1357.5,0,7.1073e+05,-628.97,10978,11538,1,11538,1,-3.1591e-05,-2.0617e-09,0,1.5306e-05,-5.2672e-06,-1.2849e+07,-698.73,0,6.0918e+06,-57.643,11537,12607,1,12607,1,2.811e-05,1.6527e-10,0,4.5148e-05,5.9248e-06,1.1156e+07,56.526,0,1.8051e+07,137.03,12606,618.61,0,618.61,0,3.4487e-05,1.3239e-09,0,1.7189e-05,6.4658e-06,1.3843e+07,447.91,0,6.8926e+06,193.23,618.61,1
2137,0.22,12073,1,12073,1,2.2363e-07,-2.0837e-09,0,3.132e-05,-3.9553e-08,-72187,-705.29,0,1.2576e+07,46.158,12072,13208,1,13208,1,6.0745e-05,1.1445e-09,0,6.0745e-05,1.1241e-05,2.4038e+07,391.99,0,2.4381e+07,1138,13207,12073,1,12073,1,-1.8305e-06,-2.0671e-09,0,3.3094e-05,3.4673e-07,-7.4456e+05,-700,0,1.3443e+07,10.455,12072,10979,1,10979,1,-5.9942e-05,-5.3316e-09,0,1.8304e-06,-1.1387e-05,-2.4381e+07,-1818.7,0,7.4446e+05,-1337.4,10978,11538,1,11538,1,-3.3094e-05,-3.3156e-09,0,1.6034e-05,-5.5198e-06,-1.3461e+07,-1126.9,0,6.3815e+06,-100.2,11537,12607,1,12607,1,2.9454e-05,-8.1288e-10,0,4.7296e-05,6.2064e-06,1.1689e+07,-276.69,0,1.891e+07,133.6,12606,618.61,0,618.61,0,3.6134e-05,1.6524e-09,0,1.801e-05,6.7747e-06,1.4504e+07,559.41,0,7.2218e+06,254.56,618.61,1
2137,0.23,12073,1,12073,1,2.3388e-07,-8.7003e-11,0,3.274e-05,-4.1075e-08,-75400,-29.306,0,1.3146e+07,169.67,12072,13208,1,13208,1,6.3481e-05,4.2236e-09,0,6.3481e-05,1.1747e-05,2.5121e+07,1445.7,0,2.5478e+07,939.89,13207,12073,1,12073,1,-1.9142e-06,1.3613e-11,0,3.4606e-05,3.6108e-07,-7.787e+05,4.5411,0,1.4057e+07,140.55,12072,10979,1,10979,1,-6.2639e-05,-2.2476e-09,0,1.914e-06,-1.1901e-05,-2.5478e+07,-754.41,0,7.7868e+05,-834.52,10978,11538,1,11538,1,-3.4606e-05,-8.7643e-10,0,1.6766e-05,-5.7681e-06,-1.4075e+07,-297.02,0,6.673e+06,43.408,11537,12607,1,12607,1,3.0782e-05,5.6477e-10,0,4.9457e-05,6.4903e-06,1.2216e+07,191.6,0,1.9774e+07,266.83,12606,618.61,0,618.61,0,3.7773e-05,1.0763e-09,0,1.8827e-05,7.0819e-06,1.5162e+07,364.68,0,7.5494e+06,220.68,618.61,1
2137,0.24,12073,1,12073,1,2.4393e-07,-6.6153e-10,0,3.4163e-05,-4.324e-08,-78751,-223.96,0,1.3718e+07,10.364,12072,13208,1,13208,1,6.6245e-05,2.8771e-09,0,6.6245e-05,1.2258e-05,2.6214e+07,970.04,0,2.6588e+07,923.69,13207,12073,1,12073,1,-1.9975e-06,-4.3404e-10,0,3.6108e-05,3.7744e-07,-8.1255e+05,-147.92,0,1.4667e+07,8.2909,12072,10979,1,10979,1,-6.5368e-05,-3.5694e-09,0,1.9974e-06,-1.2418e-05,-2.6588e+07,-1199.9,0,8.1254e+05,-484.11,10978,11538,1,11538,1,-3.6108e-05,-1.8254e-09,0,1.7494e-05,-6.0194e-06,-1.4687e+07,-616.55,0,6.9626e+06,-65.837,11537,12607,1,12607,1,3.2123e-05,3.598e-10,0,5.1604e-05,6.7721e-06,1.2748e+07,121.81,0,2.0633e+07,76.489,12606,618.61,0,618.61,0,3.9415e-05,1.4027e-09,0,1.9645e-05,7.3898e-06,1.5821e+07,474.74,0,7.8775e+06,121.51,618.61,1
2137,0.25,12073,1,12073,1,2.5454e-07,9.8808e-10,0,3.5586e-05,-4.4853e-08,-81830,334.65,0,1.4289e+07,124.26,12072,13208,1,13208,1,6.9001e-05,6.089e-09,0,6.9001e-05,1.2769e-05,2.7305e+07,2077.5,0,2.7693e+07,1622.8,13207,12073,1,12073,1,-2.0803e-06,6.0016e-10,0,3.7613e-05,3.9292e-07,-8.4624e+05,203.58,0,1.5279e+07,98.84,12072,10979,1,10979,1,-6.8085e-05,-4.1925e-10,0,2.08e-06,-1.2934e-05,-2.7693e+07,-143.6,0,8.4618e+05,-1133.2,10978,11538,1,11538,1,-3.7613e-05,1.8074e-10,0,1.8224e-05,-6.2707e-06,-1.5299e+07,61.597,0,7.2531e+06,12.423,11537,12607,1,12607,1,3.346e-05,1.6116e-09,0,5.3757e-05,7.0543e-06,1.3278e+07,547.67,0,2.1493e+07,234.04,12606,618.61,0,618.61,0,4.1057e-05,1.0661e-09,0,2.0463e-05,7.6975e-06,1.648e+07,361.4,0,8.2056e+06,201.14,618.61,1
2137,0.26,12073,1,12073,1,2.6471e-07,2.4984e-10,0,3.702e-05,-4.6719e-08,-85168,84.618,0,1.4865e+07,97.652,12072,13208,1,13208,1,7.177e-05,1.307e-09,0,7.177e-05,1.3281e-05,2.8401e+07,440.76,0,2.8805e+07,1140.7,13207,12073,1,12073,1,-2.1643e-06,2.2331e-10,0,3.9131e-05,4.0936e-07,-8.8044e+05,75.541,0,1.5895e+07,54.163,12072,10979,1,10979,1,-7.0818e-05,-3.4294e-10,0,2.1642e-06,-1.3455e-05,-2.8805e+07,-114.28,0,8.8033e+05,-506.02,10978,11538,1,11538,1,-3.9131e-05,9.7183e-11,0,1.8959e-05,-6.523e-06,-1.5916e+07,32.98,0,7.5457e+06,-24.206,11537,12607,1,12607,1,3.4803e-05,3.85e-10,0,5.5925e-05,7.3389e-06,1.3811e+07,129.86,0,2.236e+07,176.73,12606,618.61,0,618.61,0,4.2711e-05,2.0421e-10,0,2.1288e-05,8.0077e-06,1.7144e+07,68.946,0,8.5363e+06,205.41,618.61,1
2137,0.27,12073,1,12073,1,2.7481e-07,-1.2709e-09,0,3.8428e-05,-4.8716e-08,-88412,-430.44,0,1.543e+07,11.791,12072,13208,1,13208,1,7.452e-05,1.96e-09,0,7.452e-05,1.3789e-05,2.9489e+07,660.93,0,2.9909e+07,674.92,13207,12073,1,12073,1,-2.246e-06,-9.9285e-10,0,4.0614e-05,4.2431e-07,-9.1365e+05,-335.43,0,1.6498e+07,8.5352,12072,10979,1,10979,1,-7.3532e-05,-4.9489e-09,0,2.2457e-06,-1.397e-05,-2.9909e+07,-1667.8,0,9.1348e+05,-534.16,10978,11538,1,11538,1,-4.0614e-05,-2.5534e-09,0,1.9678e-05,-6.771e-06,-1.6519e+07,-864.46,0,7.8318e+06,-82.128,11537,12607,1,12607,1,3.6135e-05,4.6512e-11,0,5.8045e-05,7.6167e-06,1.434e+07,15.774,0,2.3207e+07,98.56,12606,618.61,0,618.61,0,4.4336e-05,1.517e-09,0,2.2098e-05,8.3123e-06,1.7796e+07,513.43,0,8.8609e+06,188.3,618.61,1
2137,0.28,12073,1,12073,1,2.8502e-07,1.0468e-09,0,3.9836e-05,-5.0498e-08,-91589,354.7,0,1.5995e+07,25.412,12072,13208,1,13208,1,7.725e-05,9.5537e-09,0,7.725e-05,1.4294e-05,3.0569e+07,3222.1,0,3.1004e+07,699.95,13207,12073,1,12073,1,-2.3286e-06,5.3775e-10,0,4.2102e-05,4.4049e-07,-9.4728e+05,179.2,0,1.7102e+07,11.176,12072,10979,1,10979,1,-7.6225e-05,-6.2302e-09,0,2.3285e-06,-1.4481e-05,-3.1004e+07,-2101.1,0,9.4726e+05,-806.51,10978,11538,1,11538,1,-4.2102e-05,-1.1211e-09,0,2.0399e-05,-7.0216e-06,-1.7125e+07,-378.68,0,8.1189e+06,-105.89,11537,12607,1,12607,1,3.746e-05,3.3483e-09,0,6.0173e-05,7.8966e-06,1.4866e+07,1133,0,2.4058e+07,162.08,12606,618.61,0,618.61,0,4.596e-05,3.338e-09,0,2.2907e-05,8.617e-06,1.8448e+07,1130.4,0,9.1855e+06,203.28,618.61,1
2137,0.29,12073,1,12073,1,2.9556e-07,1.3334e-09,0,4.1292e-05,-5.2406e-08,-94892,451.64,0,1.658e+07,9.4249,12072,13208,1,13208,1,8.0063e-05,3.4263e-09,0,8.0063e-05,1.4815e-05,3.1683e+07,1151.8,0,3.2133e+07,1402.7,13207,12073,1,12073,1,-2.4136e-06,1.281e-09,0,4.3639e-05,4.5449e-07,-9.8181e+05,434.16,0,1.7726e+07,-7.9872,12072,10979,1,10979,1,-7.9001e-05,-1.1725e-09,0,2.4135e-06,-1.5009e-05,-3.2133e+07,-392.29,0,9.8175e+05,-1959.1,10978,11538,1,11538,1,-4.364e-05,5.2026e-10,0,2.1144e-05,-7.277e-06,-1.775e+07,175.89,0,8.4153e+06,-111.8,11537,12607,1,12607,1,3.8825e-05,2.1694e-09,0,6.2369e-05,8.1847e-06,1.5407e+07,733.4,0,2.4936e+07,117.79,12606,618.61,0,618.61,0,4.764e-05,1.0177e-09,0,2.3744e-05,8.9318e-06,1.9122e+07,344.72,0,9.5213e+06,245.22,618.61,1
2137,0.3,12073,1,12073,1,3.0569e-07,1.2759e-09,0,4.2716e-05,-5.411e-08,-98183,431.98,0,1.7152e+07,47.653,12072,13208,1,13208,1,8.2823e-05,3.1612e-09,0,8.2823e-05,1.5326e-05,3.2775e+07,1066.1,0,3.3241e+07,911.87,13207,12073,1,12073,1,-2.4969e-06,1.2455e-09,0,4.5144e-05,4.7262e-07,-1.0157e+06,421.96,0,1.8338e+07,23.973,12072,10979,1,10979,1,-8.1725e-05,-4.8457e-10,0,2.4967e-06,-1.5527e-05,-3.3241e+07,-161.48,0,1.0156e+06,-445.26,10978,11538,1,11538,1,-4.5144e-05,5.46e-10,0,2.1873e-05,-7.5274e-06,-1.8362e+07,183.34,0,8.7054e+06,-49.835,11537,12607,1,12607,1,4.0162e-05,2.0288e-09,0,6.452e-05,8.4669e-06,1.5938e+07,688.3,0,2.5796e+07,110.85,12606,618.61,0,618.61,0,4.9282e-05,9.3055e-10,0,2.4563e-05,9.2397e-06,1.9782e+07,314.98,0,9.8496e+06,166.01,618.61,1
2137,0.31,12073,1,12073,1,3.1573e-07,5.3165e-10,0,4.4137e-05,-5.5799e-08,-1.015e+05,179.95,0,1.7722e+07,85.159,12072,13208,1,13208,1,8.5569e-05,3.8669e-09,0,8.5569e-05,1.5834e-05,3.3861e+07,1303.7,0,3.4342e+07,1415.2,13207,12073,1,12073,1,-2.5803e-06,5.1115e-10,0,4.6652e-05,4.8782e-07,-1.0496e+06,173.17,0,1.895e+07,47.134,12072,10979,1,10979,1,-8.4433e-05,-4.9618e-10,0,2.5802e-06,-1.6041e-05,-3.4342e+07,-169.31,0,1.0495e+06,-671.99,10978,11538,1,11538,1,-4.6652e-05,2.8028e-10,0,2.2603e-05,-7.7762e-06,-1.8975e+07,94.941,0,8.9961e+06,-23.736,11537,12607,1,12607,1,4.1494e-05,7.2385e-10,0,6.6675e-05,8.7492e-06,1.6467e+07,245.66,0,2.6658e+07,162.7,12606,618.61,0,618.61,0,5.0922e-05,3.4647e-10,0,2.538e-05,9.547e-06,2.044e+07,116.97,0,1.0177e+07,221.54,618.61,1
2137,0.32,12073,1,12073,1,3.26e-07,1.0045e-09,0,4.5561e-05,-5.7737e-08,-1.0475e+05,340.17,0,1.8294e+07,37.372,12072,13208,1,13208,1,8.8335e-05,3.6948e-09,0,8.8335e-05,1.6345e-05,3.4956e+07,1245.8,0,3.5453e+07,1148.5,13207,12073,1,12073,1,-2.6635e-06,9.0028e-10,0,4.8156e-05,5.0404e-07,-1.0835e+06,303.98,0,1.9561e+07,1.6307,12072,10979,1,10979,1,-8.7163e-05,-3.3474e-10,0,2.6634e-06,-1.6561e-05,-3.5453e+07,-111.55,0,1.0834e+06,-860.34,10978,11538,1,11538,1,-4.8156e-05,5.3405e-10,0,2.3332e-05,-8.0281e-06,-1.9587e+07,180.23,0,9.2861e+06,-78.886,11537,12607,1,12607,1,4.2836e-05,1.338e-09,0,6.8825e-05,9.0316e-06,1.6999e+07,453.94,0,2.7517e+07,90.154,12606,618.61,0,618.61,0,5.2565e-05,6.7388e-10,0,2.6199e-05,9.8552e-06,2.11e+07,228.33,0,1.0506e+07,218.45,618.61,1
2137,0.33,12073,1,12073,1,3.3609e-07,1.6428e-09,0,4.6972e-05,-5.9407e-08,-1.0799e+05,556.28,0,1.8861e+07,86.973,12072,13208,1,13208,1,9.1079e-05,5.8912e-09,0,9.1079e-05,1.6853e-05,3.6041e+07,1987.3,0,3.6554e+07,1289.5,13207,12073,1,12073,1,-2.7459e-06,1.5048e-09,0,4.9646e-05,5.1892e-07,-1.117e+06,508.83,0,2.0166e+07,61.593,12072,10979,1,10979,1,-8.987e-05,-5.2091e-10,0,2.7459e-06,-1.7074e-05,-3.6554e+07,-174.42,0,1.117e+06,-716.22,10978,11538,1,11538,1,-4.9646e-05,5.5163e-10,0,2.4054e-05,-8.2771e-06,-2.0193e+07,185.4,0,9.5735e+06,-29.895,11537,12607,1,12607,1,4.4165e-05,2.5777e-09,0,7.0954e-05,9.3111e-06,1.7527e+07,869.63,0,2.8368e+07,160.44,12606,618.61,0,618.61,0,5.4193e-05,1.2732e-09,0,2.7011e-05,1.016e-05,2.1753e+07,431.22,0,1.0831e+07,237.7,618.61,1
2137,0.34,12073,1,12073,1,3.4603e-07,6.9089e-10,0,4.8411e-05,-6.1141e-08,-1.1144e+05,233.93,0,1.9439e+07,97.678,12072,13208,1,13208,1,9.3858e-05,1.7684e-09,0,9.3858e-05,1.7368e-05,3.7141e+07,596.33,0,3.7669e+07,1310.1,13207,12073,1,12073,1,-2.8304e-06,6.3056e-10,0,5.1169e-05,5.3577e-07,-1.1514e+06,213.73,0,2.0785e+07,37.497,12072,10979,1,10979,1,-9.2613e-05,-4.3338e-10,0,2.8303e-06,-1.7596e-05,-3.7669e+07,-144.43,0,1.1514e+06,-615.93,10978,11538,1,11538,1,-5.1169e-05,2.9235e-10,0,2.4792e-05,-8.53e-06,-2.0812e+07,99.381,0,9.867e+06,-20.812,11537,12607,1,12607,1,4.5513e-05,1.0823e-09,0,7.313e-05,9.5967e-06,1.8062e+07,364.31,0,2.9239e+07,142.51,12606,618.61,0,618.61,0,5.5853e-05,4.8808e-10,0,2.7838e-05,1.0472e-05,2.2419e+07,165.12,0,1.1163e+07,233.48,618.61,1
2137,0.35,12073,1,12073,1,3.5672e-07,3.2765e-09,0,4.9829e-05,-6.314e-08,-1.1448e+05,1109.5,0,2.0008e+07,57.327,12072,13208,1,13208,1,9.6637e-05,8.4496e-09,0,9.6637e-05,1.7882e-05,3.8241e+07,2882.3,0,3.8785e+07,949.21,13207,12073,1,12073,1,-2.9119e-06,3.3132e-09,0,5.2653e-05,5.5115e-07,-1.1845e+06,1128.9,0,2.1388e+07,49.325,12072,10979,1,10979,1,-9.5356e-05,-1.029e-09,0,2.9117e-06,-1.8116e-05,-3.8785e+07,-352.28,0,1.1845e+06,-983.68,10978,11538,1,11538,1,-5.2654e-05,1.1951e-09,0,2.5512e-05,-8.7821e-06,-2.1416e+07,404.5,0,1.0154e+07,-54.019,11537,12607,1,12607,1,4.686e-05,5.1683e-09,0,7.5252e-05,9.8751e-06,1.8596e+07,1743.4,0,3.0087e+07,174.63,12606,618.61,0,618.61,0,5.7489e-05,2.4199e-09,0,2.8653e-05,1.0778e-05,2.3076e+07,819.99,0,1.149e+07,195,618.61,1
2137,0.36,12073,1,12073,1,3.6652e-07,2.6363e-09,0,5.1238e-05,-6.5146e-08,-1.1786e+05,892.78,0,2.0574e+07,-55.695,12072,13208,1,13208,1,9.9368e-05,7.0926e-09,0,9.9368e-05,1.8388e-05,3.9322e+07,2392,0,3.9881e+07,890.26,13207,12073,1,12073,1,-2.9949e-06,2.8048e-09,0,5.4147e-05,5.6667e-07,-1.2183e+06,941.93,0,2.1995e+07,-30.508,12072,10979,1,10979,1,-9.8051e-05,-1.9043e-09,0,2.9948e-06,-1.8628e-05,-3.9881e+07,-649.67,0,1.2183e+06,-1237.1,10978,11538,1,11538,1,-5.4148e-05,5.2749e-10,0,2.6235e-05,-9.0302e-06,-2.2024e+07,180.64,0,1.0442e+07,-184.22,11537,12607,1,12607,1,4.8184e-05,4.6904e-09,0,7.7387e-05,1.0156e-05,1.9122e+07,1584,0,3.094e+07,91.747,12606,618.61,0,618.61,0,5.9115e-05,2.2668e-09,0,2.9464e-05,1.1083e-05,2.3729e+07,768.07,0,1.1815e+07,253.32,618.61,1
2137,0.37,12073,1,12073,1,3.7688e-07,-1.2828e-09,0,5.2682e-05,-6.6666e-08,-1.2114e+05,-434.21,0,2.1153e+07,77.163,12072,13208,1,13208,1,0.00010215,1.4579e-09,0,0.00010215,1.8902e-05,4.0423e+07,491.61,0,4.0998e+07,730.16,13207,12073,1,12073,1,-3.0793e-06,-9.0328e-10,0,5.5679e-05,5.8267e-07,-1.2526e+06,-305.55,0,2.2617e+07,39.836,12072,10979,1,10979,1,-0.0001008,-4.558e-09,0,3.0789e-06,-1.9149e-05,-4.0998e+07,-1537.1,0,1.2524e+06,-442.13,10978,11538,1,11538,1,-5.5679e-05,-2.4308e-09,0,2.6977e-05,-9.282e-06,-2.2647e+07,-818.23,0,1.0737e+07,-55.955,11537,12607,1,12607,1,4.9534e-05,-1.9062e-11,0,7.9576e-05,1.0442e-05,1.9657e+07,-6.3895,0,3.1816e+07,192.08,12606,618.61,0,618.61,0,6.0781e-05,1.4569e-09,0,3.0294e-05,1.1395e-05,2.4397e+07,493.21,0,1.2148e+07,188.93,618.61,1
2137,0.38,12073,1,12073,1,3.8728e-07,3.5444e-11,0,5.4092e-05,-6.8567e-08,-1.2426e+05,12.063,0,2.172e+07,55.296,12072,13208,1,13208,1,0.00010488,4.7395e-09,0,0.00010488,1.9406e-05,4.1501e+07,1593.2,0,4.2091e+07,690.05,13207,12073,1,12073,1,-3.1616e-06,-6.391e-11,0,5.7173e-05,5.9768e-07,-1.2862e+06,-21.731,0,2.3224e+07,36.552,12072,10979,1,10979,1,-0.00010348,-2.242e-09,0,3.1615e-06,-1.966e-05,-4.2091e+07,-752.48,0,1.2861e+06,-574.17,10978,11538,1,11538,1,-5.7173e-05,-1.2029e-09,0,2.7702e-05,-9.5305e-06,-2.3254e+07,-408.95,0,1.1025e+07,-35.204,11537,12607,1,12607,1,5.0856e-05,6.6148e-10,0,8.1712e-05,1.0723e-05,2.0182e+07,225.71,0,3.2669e+07,122.84,12606,618.61,0,618.61,0,6.2407e-05,1.5374e-09,0,3.1105e-05,1.17e-05,2.505e+07,520.31,0,1.2473e+07,176.62,618.61,1
2137,0.39,12073,1,12073,1,3.97e-07,1.0999e-09,0,5.5522e-05,-7.0486e-08,-1.2777e+05,372.39,0,2.2294e+07,-28.134,12072,13208,1,13208,1,0.00010765,4.4805e-09,0,0.00010765,1.9919e-05,4.2598e+07,1506.3,0,4.3204e+07,1396.2,13207,12073,1,12073,1,-3.2461e-06,5.7184e-10,0,5.8686e-05,6.1446e-07,-1.3205e+06,194.42,0,2.3838e+07,16.799,12072,10979,1,10979,1,-0.00010622,-1.6229e-10,0,3.2461e-06,-2.0179e-05,-4.3204e+07,-55.588,0,1.3204e+06,-1211.3,10978,11538,1,11538,1,-5.8686e-05,3.0899e-10,0,2.8434e-05,-9.7845e-06,-2.387e+07,104.95,0,1.1317e+07,-134.3,11537,12607,1,12607,1,5.22e-05,1.7026e-09,0,8.3874e-05,1.1006e-05,2.0716e+07,576.96,0,3.3534e+07,134.81,12606,618.61,0,618.61,0,6.4057e-05,1.0655e-09,0,3.1927e-05,1.201e-05,2.5712e+07,360.56,0,1.2802e+07,287,618.61,1
2137,0.4,12073,1,12073,1,4.0723e-07,1.3569e-09,0,5.6952e-05,-7.2215e-08,-1.3106e+05,459.39,0,2.2868e+07,7.5765,12072,13208,1,13208,1,0.00011042,3.2301e-09,0,0.00011042,2.0433e-05,4.3697e+07,1089.3,0,4.4319e+07,653.79,13207,12073,1,12073,1,-3.3295e-06,1.2415e-09,0,6.0195e-05,6.3046e-07,-1.3544e+06,421.65,0,2.4451e+07,-1.6121,12072,10979,1,10979,1,-0.00010896,-4.7053e-10,0,3.3295e-06,-2.07e-05,-4.4319e+07,-156.8,0,1.3544e+06,-754.62,10978,11538,1,11538,1,-6.0195e-05,5.5619e-10,0,2.9165e-05,-1.0036e-05,-2.4484e+07,187.35,0,1.1608e+07,-51.452,11537,12607,1,12607,1,5.3547e-05,2.1751e-09,0,8.603e-05,1.1289e-05,2.125e+07,734.44,0,3.4396e+07,53.479,12606,618.61,0,618.61,0,6.5707e-05,9.3971e-10,0,3.275e-05,1.2319e-05,2.6375e+07,318.24,0,1.3132e+07,133.44,618.61,1
2137,0.41,12073,1,12073,1,4.176e-07,2.5796e-09,0,5.8357e-05,-7.3766e-08,-1.3414e+05,873.24,0,2.3432e+07,128.88,12072,13208,1,13208,1,0.00011316,9.9247e-09,0,0.00011316,2.094e-05,4.4781e+07,3346.8,0,4.5418e+07,2152.1,13207,12073,1,12073,1,-3.4114e-06,2.2851e-09,0,6.1675e-05,6.4573e-07,-1.3877e+06,772.57,0,2.5053e+07,70.473,12072,10979,1,10979,1,-0.00011166,-1.0121e-09,0,3.4113e-06,-2.1217e-05,-4.5418e+07,-337.26,0,1.3877e+06,-1990.6,10978,11538,1,11538,1,-6.1675e-05,6.0781e-10,0,2.9882e-05,-1.0282e-05,-2.5086e+07,204.85,0,1.1893e+07,-13.533,11537,12607,1,12607,1,5.4875e-05,4.1911e-09,0,8.8146e-05,1.1567e-05,2.1777e+07,1416.6,0,3.5242e+07,206.57,12606,618.61,0,618.61,0,6.7328e-05,2.2945e-09,0,3.3557e-05,1.2623e-05,2.7025e+07,776.79,0,1.3456e+07,310.76,618.61,1
2137,0.42,12073,1,12073,1,4.2786e-07,2.0374e-09,0,5.9793e-05,-7.5887e-08,-1.3747e+05,689.94,0,2.4009e+07,3.5522,12072,13208,1,13208,1,0.00011595,6.2934e-09,0,0.00011595,2.1456e-05,4.5884e+07,2112.3,0,4.6536e+07,1171.4,13207,12073,1,12073,1,-3.4952e-06,1.8961e-09,0,6.3193e-05,6.5997e-07,-1.4218e+06,638.45,0,2.5669e+07,16.755,12072,10979,1,10979,1,-0.00011441,-1.285e-09,0,3.4951e-06,-2.1735e-05,-4.6536e+07,-440.1,0,1.4218e+06,-1368.3,10978,11538,1,11538,1,-6.3193e-05,2.2761e-10,0,3.0618e-05,-1.0537e-05,-2.5703e+07,77.102,0,1.2186e+07,-79.369,11537,12607,1,12607,1,5.6224e-05,3.7593e-09,0,9.0316e-05,1.1852e-05,2.2312e+07,1267.7,0,3.6109e+07,111.25,12606,618.61,0,618.61,0,6.8985e-05,1.9291e-09,0,3.4383e-05,1.2934e-05,2.769e+07,653.59,0,1.3787e+07,242.55,618.61,1
2137,0.43,12073,1,12073,1,4.3801e-07,1.8211e-10,0,6.1222e-05,-7.7415e-08,-1.4076e+05,61.756,0,2.4582e+07,116.37,12072,13208,1,13208,1,0.00011869,3.0884e-09,0,0.00011869,2.1963e-05,4.6969e+07,1053.4,0,4.7636e+07,2353.7,13207,12073,1,12073,1,-3.5786e-06,1.2206e-10,0,6.4712e-05,6.7268e-07,-1.456e+06,41.639,0,2.6286e+07,82.738,12072,10979,1,10979,1,-0.00011712,-1.6015e-09,0,3.5782e-06,-2.2252e-05,-4.7636e+07,-546.31,0,1.4558e+06,-2351.5,10978,11538,1,11538,1,-6.4712e-05,-1.4677e-10,0,3.1353e-05,-1.0786e-05,-2.6321e+07,-49.788,0,1.2479e+07,-48.839,11537,12607,1,12607,1,5.7556e-05,3.8957e-10,0,9.2486e-05,1.2136e-05,2.2841e+07,132.9,0,3.6977e+07,290.04,12606,618.61,0,618.61,0,7.0634e-05,4.9381e-10,0,3.5205e-05,1.3243e-05,2.8352e+07,167.03,0,1.4117e+07,451.35,618.61,1
2137,0.44,12073,1,12073,1,4.4826e-07,2.6669e-09,0,6.2635e-05,-7.9523e-08,-1.4398e+05,902.8,0,2.515e+07,-3.9714,12072,13208,1,13208,1,0.00012146,6.4225e-09,0,0.00012146,2.2476e-05,4.8063e+07,2161.1,0,4.8746e+07,1715.4,13207,12073,1,12073,1,-3.661e-06,2.7355e-09,0,6.6194e-05,6.914e-07,-1.4893e+06,921.79,0,2.6888e+07,-29.541,12072,10979,1,10979,1,-0.00011985,-8.3122e-10,0,3.6609e-06,-2.2767e-05,-4.8746e+07,-277.01,0,1.4893e+06,-1962.3,10978,11538,1,11538,1,-6.6194e-05,7.8791e-10,0,3.2072e-05,-1.1038e-05,-2.6924e+07,266.39,0,1.2765e+07,-140.03,11537,12607,1,12607,1,5.8896e-05,4.4254e-09,0,9.4604e-05,1.2415e-05,2.3373e+07,1498.5,0,3.7824e+07,82.835,12606,618.61,0,618.61,0,7.2263e-05,2.0194e-09,0,3.6017e-05,1.3548e-05,2.9006e+07,683.77,0,1.4443e+07,300.3,618.61,1
2137,0.45,12073,1,12073,1,4.5834e-07,2.7029e-09,0,6.4068e-05,-8.1035e-08,-1.4732e+05,915.11,0,2.5725e+07,111.12,12072,13208,1,13208,1,0.00012423,6.1531e-09,0,0.00012423,2.2988e-05,4.9161e+07,2075.1,0,4.986e+07,2277.7,13207,12073,1,12073,1,-3.7449e-06,2.8434e-09,0,6.7708e-05,7.0884e-07,-1.5234e+06,960.63,0,2.7503e+07,34.59,12072,10979,1,10979,1,-0.00012259,-8.7919e-10,0,3.7447e-06,-2.329e-05,-4.986e+07,-293.01,0,1.5234e+06,-925.75,10978,11538,1,11538,1,-6.7709e-05,1.0412e-09,0,3.2806e-05,-1.1289e-05,-2.754e+07,352.87,0,1.3057e+07,-55.997,11537,12607,1,12607,1,6.0242e-05,4.442e-09,0,9.6768e-05,1.2699e-05,2.3907e+07,1502,0,3.8689e+07,198.45,12606,618.61,0,618.61,0,7.3916e-05,1.876e-09,0,3.6841e-05,1.3858e-05,2.967e+07,635.31,0,1.4773e+07,361.01,618.61,1
2137,0.46,12073,1,12073,1,4.6867e-07,1.2206e-09,0,6.5499e-05,-8.3029e-08,-1.5059e+05,413.37,0,2.63e+07,44.113,12072,13208,1,13208,1,0.00012699,2.7419e-09,0,0.00012699,2.3498e-05,5.0253e+07,924.9,0,5.0968e+07,1366,13207,12073,1,12073,1,-3.829e-06,1.3031e-09,0,6.9228e-05,7.2459e-07,-1.5576e+06,442.32,0,2.812e+07,9.5483,12072,10979,1,10979,1,-0.00012531,-9.5598e-10,0,3.8289e-06,-2.3807e-05,-5.0968e+07,-318.58,0,1.5576e+06,-946.72,10978,11538,1,11538,1,-6.9228e-05,5.9583e-10,0,3.3542e-05,-1.154e-05,-2.8158e+07,200.96,0,1.3349e+07,-76.3,11537,12607,1,12607,1,6.1581e-05,1.9108e-09,0,9.8941e-05,1.2983e-05,2.4438e+07,649.4,0,3.9558e+07,133.51,12606,618.61,0,618.61,0,7.5568e-05,7.8674e-10,0,3.7664e-05,1.4168e-05,3.0333e+07,266.65,0,1.5103e+07,225.78,618.61,1
2137,0.47,12073,1,12073,1,4.7884e-07,2.7684e-10,0,6.6924e-05,-8.4792e-08,-1.5387e+05,93.753,0,2.6872e+07,60.92,12072,13208,1,13208,1,0.00012975,1.6153e-09,0,0.00012975,2.4008e-05,5.1343e+07,550.93,0,5.2072e+07,1282.9,13207,12073,1,12073,1,-3.9122e-06,2.7067e-10,0,7.0738e-05,7.3827e-07,-1.5916e+06,90.904,0,2.8734e+07,45.509,12072,10979,1,10979,1,-0.00012802,-1.8191e-09,0,3.9117e-06,-2.4326e-05,-5.2072e+07,-620.19,0,1.5914e+06,-1762.5,10978,11538,1,11538,1,-7.0738e-05,8.1546e-11,0,3.4274e-05,-1.1791e-05,-2.8772e+07,27.93,0,1.3641e+07,-78.138,11537,12607,1,12607,1,6.2916e-05,5.2394e-10,0,0.0001011,1.3266e-05,2.4968e+07,176.56,0,4.0421e+07,200.19,12606,618.61,0,618.61,0,7.7212e-05,3.8955e-10,0,3.8484e-05,1.4476e-05,3.0993e+07,132.1,0,1.5432e+07,272.83,618.61,1
2137,0.48,12073,1,12073,1,4.8848e-07,-1.1236e-09,0,6.8342e-05,-8.6564e-08,-1.5734e+05,-380.31,0,2.7441e+07,32.872,12072,13208,1,13208,1,0.00013251,1.6327e-09,0,0.00013251,2.452e-05,5.2436e+07,549.9,0,5.3182e+07,1227.8,13207,12073,1,12073,1,-3.9956e-06,-8.7136e-10,0,7.2234e-05,7.5534e-07,-1.6255e+06,-295.97,0,2.9341e+07,19.504,12072,10979,1,10979,1,-0.00013075,-4.2531e-09,0,3.9955e-06,-2.484e-05,-5.3182e+07,-1434.3,0,1.6254e+06,-1758.7,10978,11538,1,11538,1,-7.2234e-05,-2.2876e-09,0,3.4997e-05,-1.2041e-05,-2.938e+07,-773.68,0,1.3929e+07,-38.268,11537,12607,1,12607,1,6.4255e-05,1.0101e-10,0,0.00010323,1.3547e-05,2.55e+07,34.559,0,4.1275e+07,94.786,12606,618.61,0,618.61,0,7.8848e-05,1.4181e-09,0,3.9299e-05,1.4783e-05,3.1649e+07,479.96,0,1.5758e+07,193.92,618.61,1
2137,0.49,12073,1,12073,1,4.9881e-07,-2.6679e-10,0,6.9758e-05,-8.8353e-08,-1.6052e+05,-90.133,0,2.801e+07,51.925,12072,13208,1,13208,1,0.00013525,2.2959e-09,0,0.00013525,2.5026e-05,5.352e+07,786.37,0,5.4282e+07,1080.7,13207,12073,1,12073,1,-4.0782e-06,-5.86e-11,0,7.3733e-05,7.7109e-07,-1.6589e+06,-19.752,0,2.9951e+07,25.653,12072,10979,1,10979,1,-0.00013346,-2.9806e-09,0,4.0781e-06,-2.5354e-05,-5.4282e+07,-1005.3,0,1.6589e+06,-962.7,10978,11538,1,11538,1,-7.3733e-05,-1.0558e-09,0,3.5725e-05,-1.229e-05,-2.999e+07,-358.69,0,1.4218e+07,-85.879,11537,12607,1,12607,1,6.5584e-05,4.8781e-10,0,0.00010538,1.3828e-05,2.6027e+07,165.03,0,4.2132e+07,167.77,12606,618.61,0,618.61,0,8.0482e-05,1.0647e-09,0,4.0113e-05,1.5089e-05,3.2305e+07,359.96,0,1.6085e+07,274.72,618.61,1
2137,0.5,12073,1,12073,1,5.0912e-07,-2.41e-10,0,7.1189e-05,-9.0292e-08,-1.6379e+05,-81.562,0,2.8584e+07,5.7381,12072,13208,1,13208,1,0.00013802,2.4473e-09,0,0.00013802,2.5539e-05,5.4617e+07,825.5,0,5.5394e+07,703.3,13207,12073,1,12073,1,-4.1617e-06,-9.7535e-11,0,7.5245e-05,7.876e-07,-1.693e+06,-32.955,0,3.0564e+07,4.6912,12072,10979,1,10979,1,-0.00013619,-2.2098e-09,0,4.1616e-06,-2.5873e-05,-5.5394e+07,-745.21,0,1.6929e+06,-999.2,10978,11538,1,11538,1,-7.5245e-05,-9.7328e-10,0,3.6457e-05,-1.2543e-05,-3.0605e+07,-328.46,0,1.451e+07,-45.206,11537,12607,1,12607,1,6.6928e-05,4.8388e-10,0,0.00010754,1.4112e-05,2.656e+07,163.93,0,4.2996e+07,65.587,12606,618.61,0,618.61,0,8.2132e-05,9.7461e-10,0,4.0936e-05,1.5399e-05,3.2968e+07,330.06,0,1.6415e+07,171.18,618.61,1
2137,0.51,12073,1,12073,1,5.1961e-07,7.4248e-10,0,7.2601e-05,-9.2304e-08,-1.6689e+05,251.49,0,2.9151e+07,-55.234,12072,13208,1,13208,1,0.00014076,6.0921e-09,0,0.00014076,2.6046e-05,5.5702e+07,2047.9,0,5.6494e+07,921.22,13207,12073,1,12073,1,-4.2441e-06,2.7176e-10,0,7.6737e-05,8.0266e-07,-1.7265e+06,90.687,0,3.1171e+07,-34.036,12072,10979,1,10979,1,-0.00013889,-2.4438e-09,0,4.2441e-06,-2.6389e-05,-5.6494e+07,-833.56,0,1.7265e+06,-1429.4,10978,11538,1,11538,1,-7.6737e-05,-7.3087e-10,0,3.718e-05,-1.2793e-05,-3.1212e+07,-248.02,0,1.4798e+07,-118.59,11537,12607,1,12607,1,6.8258e-05,2.0819e-09,0,0.00010967,1.4392e-05,2.7088e+07,708.86,0,4.3848e+07,18.857,12606,618.61,0,618.61,0,8.3761e-05,2.0782e-09,0,4.1748e-05,1.5704e-05,3.3622e+07,703.62,0,1.6741e+07,129.66,618.61,1
2137,0.52,12073,1,12073,1,5.2972e-07,5.2469e-10,0,7.4022e-05,-9.4208e-08,-1.7019e+05,177.74,0,2.9722e+07,-102.14,12072,13208,1,13208,1,0.00014351,6.3152e-09,0,0.00014351,2.6555e-05,5.6791e+07,2161.7,0,5.7598e+07,2796.9,13207,12073,1,12073,1,-4.3271e-06,5.6253e-11,0,7.824e-05,8.1932e-07,-1.7602e+06,18.974,0,3.1781e+07,-39.23,12072,10979,1,10979,1,-0.00014161,-2.4722e-09,0,4.327e-06,-2.6909e-05,-5.7598e+07,-833.84,0,1.7601e+06,-2626.3,10978,11538,1,11538,1,-7.824e-05,-5.1605e-10,0,3.7909e-05,-1.3046e-05,-3.1823e+07,-175.13,0,1.5087e+07,-163.49,11537,12607,1,12607,1,6.9593e-05,1.2274e-09,0,0.00011182,1.4673e-05,2.7617e+07,419.04,0,4.4708e+07,40.992,12606,618.61,0,618.61,0,8.5401e-05,1.6899e-09,0,4.2565e-05,1.6012e-05,3.428e+07,572.42,0,1.7068e+07,385.51,618.61,1
2137,0.53,12073,1,12073,1,5.399e-07,3.7027e-10,0,7.5464e-05,-9.5907e-08,-1.7355e+05,125.43,0,3.0301e+07,-57.983,12072,13208,1,13208,1,0.0001463,2.0776e-09,0,0.0001463,2.7072e-05,5.7893e+07,711.5,0,5.8716e+07,1540.9,13207,12073,1,12073,1,-4.4116e-06,2.6606e-10,0,7.9766e-05,8.3318e-07,-1.7947e+06,89.277,0,3.2401e+07,-25.602,12072,10979,1,10979,1,-0.00014436,-2.1117e-09,0,4.4115e-06,-2.7427e-05,-5.8716e+07,-720.05,0,1.7947e+06,-1658.3,10978,11538,1,11538,1,-7.9766e-05,9.6009e-11,0,3.8648e-05,-1.3297e-05,-3.2444e+07,32.552,0,1.5382e+07,-128.71,11537,12607,1,12607,1,7.0944e-05,5.3945e-10,0,0.000114,1.4959e-05,2.8154e+07,181.65,0,4.558e+07,46.305,12606,618.61,0,618.61,0,8.7065e-05,3.9409e-10,0,4.3395e-05,1.6324e-05,3.4948e+07,133.62,0,1.7401e+07,265.98,618.61,1
2137,0.54,12073,1,12073,1,5.5007e-07,1.3542e-09,0,7.6879e-05,-9.7816e-08,-1.768e+05,458.58,0,3.0869e+07,-102.2,12072,13208,1,13208,1,0.00014906,5.4797e-09,0,0.00014906,2.7583e-05,5.8988e+07,1848.3,0,5.9826e+07,1170.9,13207,12073,1,12073,1,-4.4943e-06,1.1285e-09,0,8.1256e-05,8.4729e-07,-1.8283e+06,384.43,0,3.3006e+07,-38.671,12072,10979,1,10979,1,-0.00014709,-1.5417e-09,0,4.4941e-06,-2.7946e-05,-5.9826e+07,-518.27,0,1.8283e+06,-1910.3,10978,11538,1,11538,1,-8.1256e-05,-9.0113e-11,0,3.937e-05,-1.3547e-05,-3.305e+07,-30.62,0,1.5669e+07,-191.67,11537,12607,1,12607,1,7.2284e-05,2.8224e-09,0,0.00011613,1.5239e-05,2.8685e+07,959.73,0,4.6431e+07,43.885,12606,618.61,0,618.61,0,8.8698e-05,1.6333e-09,0,4.4208e-05,1.663e-05,3.5603e+07,553.24,0,1.7727e+07,321.2,618.61,1
2137,0.55,12073,1,12073,1,5.6039e-07,3.0615e-09,0,7.8303e-05,-9.9689e-08,-1.8003e+05,1036.6,0,3.1441e+07,-119.06,12072,13208,1,13208,1,0.00015183,7.0361e-09,0,0.00015183,2.8095e-05,6.0084e+07,2372.8,0,6.0938e+07,1279.8,13207,12073,1,12073,1,-4.577e-06,3.2033e-09,0,8.2754e-05,8.6415e-07,-1.8619e+06,1089.8,0,3.3615e+07,-89.116,12072,10979,1,10979,1,-0.00014982,-8.0408e-10,0,4.5769e-06,-2.8464e-05,-6.0938e+07,-267.97,0,1.8619e+06,-1508.7,10978,11538,1,11538,1,-8.2754e-05,1.0986e-09,0,4.0096e-05,-1.3799e-05,-3.3659e+07,375.57,0,1.5958e+07,-218.3,11537,12607,1,12607,1,7.3626e-05,4.9621e-09,0,0.00011827,1.552e-05,2.9218e+07,1686.5,0,4.7287e+07,23.401,12606,618.61,0,618.61,0,9.034e-05,2.179e-09,0,4.5027e-05,1.6938e-05,3.6262e+07,738.09,0,1.8055e+07,259.25,618.61,1
2137,0.56,12073,1,12073,1,5.7038e-07,-1.2603e-09,0,7.9723e-05,-1.0127e-07,-1.8334e+05,-426.55,0,3.2011e+07,-38.722,12072,13208,1,13208,1,0.00015458,3.0208e-09,0,0.00015458,2.8603e-05,6.1169e+07,1030.4,0,6.2039e+07,672.22,13207,12073,1,12073,1,-4.6604e-06,-1.0978e-09,0,8.4262e-05,8.8221e-07,-1.8958e+06,-373.4,0,3.4228e+07,-21.88,12072,10979,1,10979,1,-0.00015253,-4.8609e-09,0,4.6602e-06,-2.8977e-05,-6.2039e+07,-1637.2,0,1.8958e+06,-1061.1,10978,11538,1,11538,1,-8.4262e-05,-2.8205e-09,0,4.0826e-05,-1.4047e-05,-3.4273e+07,-950.57,0,1.6249e+07,-78.744,11537,12607,1,12607,1,7.4956e-05,1.5091e-10,0,0.00012043,1.5803e-05,2.9746e+07,50.586,0,4.8148e+07,40.325,12606,618.61,0,618.61,0,9.1979e-05,1.9647e-09,0,4.5844e-05,1.7245e-05,3.692e+07,665.1,0,1.8383e+07,153.99,618.61,1
2137,0.57,12073,1,12073,1,5.8108e-07,-8.2938e-10,0,8.1138e-05,-1.0313e-07,-1.8636e+05,-280.65,0,3.2579e+07,-21.51,12072,13208,1,13208,1,0.00015732,6.1436e-09,0,0.00015732,2.9111e-05,6.2256e+07,2071.7,0,6.3141e+07,328.41,13207,12073,1,12073,1,-4.7425e-06,-4.3414e-10,0,8.5757e-05,8.9772e-07,-1.9292e+06,-144.78,0,3.4835e+07,-19.955,12072,10979,1,10979,1,-0.00015524,-6.9491e-09,0,4.7425e-06,-2.9493e-05,-6.3141e+07,-2343.5,0,1.9292e+06,-573.51,10978,11538,1,11538,1,-8.5757e-05,-3.4501e-09,0,4.1552e-05,-1.4297e-05,-3.4881e+07,-1160.6,0,1.6537e+07,-83.587,11537,12607,1,12607,1,7.6289e-05,1.1098e-09,0,0.00012257,1.6084e-05,3.0275e+07,379.57,0,4.9003e+07,50.158,12606,618.61,0,618.61,0,9.3611e-05,3.1564e-09,0,4.6657e-05,1.7551e-05,3.7575e+07,1068.4,0,1.8709e+07,109.32,618.61,1
2137,0.58,12073,1,12073,1,5.9103e-07,2.3492e-09,0,8.2575e-05,-1.0504e-07,-1.8981e+05,795.44,0,3.3156e+07,-83.214,12072,13208,1,13208,1,0.00016012,6.3997e-09,0,0.00016012,2.9627e-05,6.3361e+07,2151.4,0,6.4261e+07,1364.2,13207,12073,1,12073,1,-4.8269e-06,2.2767e-09,0,8.7272e-05,9.132e-07,-1.9636e+06,766.73,0,3.545e+07,-43.841,12072,10979,1,10979,1,-0.00015799,-1.0778e-09,0,4.8269e-06,-3.0018e-05,-6.4261e+07,-359.14,0,1.9635e+06,-1932.2,10978,11538,1,11538,1,-8.7273e-05,3.765e-10,0,4.2285e-05,-1.4551e-05,-3.5497e+07,128.59,0,1.6829e+07,-138.37,11537,12607,1,12607,1,7.7642e-05,4.262e-09,0,0.00012473,1.6368e-05,3.0812e+07,1433.1,0,4.9869e+07,29.801,12606,618.61,0,618.61,0,9.5268e-05,2.0166e-09,0,4.7483e-05,1.7862e-05,3.8241e+07,683.15,0,1.904e+07,199.25,618.61,1
2137,0.59,12073,1,12073,1,6.012e-07,-4.083e-11,0,8.4009e-05,-1.0668e-07,-1.9314e+05,-13.823,0,3.3732e+07,-15.461,12072,13208,1,13208,1,0.00016286,5.3218e-10,0,0.00016286,3.0136e-05,6.4449e+07,177.29,0,6.5365e+07,585.05,13207,12073,1,12073,1,-4.911e-06,-2.4645e-11,0,8.8797e-05,9.2977e-07,-1.9978e+06,-8.231,0,3.607e+07,-2.6544,12072,10979,1,10979,1,-0.0001607,-5.7258e-10,0,4.9108e-06,-3.0532e-05,-6.5365e+07,-193.23,0,1.9977e+06,-1121.6,10978,11538,1,11538,1,-8.8798e-05,-1.7336e-10,0,4.3024e-05,-1.4801e-05,-3.6117e+07,-58.607,0,1.7123e+07,-18.752,11537,12607,1,12607,1,7.8976e-05,5.9982e-11,0,0.00012691,1.6654e-05,3.1341e+07,20.113,0,5.074e+07,5.3433,12606,618.61,0,618.61,0,9.6923e-05,1.5947e-10,0,4.8308e-05,1.8172e-05,3.8905e+07,53.973,0,1.9371e+07,59.464,618.61,1
2137,0.6,12073,1,12073,1,6.1114e-07,1.0814e-10,0,8.542e-05,-1.0845e-07,-1.9645e+05,36.624,0,3.4299e+07,-20.4,12072,13208,1,13208,1,0.00016561,3.5418e-09,0,0.00016561,3.0643e-05,6.5533e+07,1194.5,0,6.6465e+07,1953.6,13207,12073,1,12073,1,-4.9938e-06,1.1918e-11,0,9.0289e-05,9.4437e-07,-2.0315e+06,4.0822,0,3.6675e+07,-9.073,12072,10979,1,10979,1,-0.00016341,-1.8867e-09,0,4.9934e-06,-3.1048e-05,-6.6465e+07,-643.61,0,2.0315e+06,-1894.1,10978,11538,1,11538,1,-9.0289e-05,-7.8463e-10,0,4.3746e-05,-1.505e-05,-3.6724e+07,-265.4,0,1.7411e+07,-53.39,11537,12607,1,12607,1,8.0305e-05,7.654e-10,0,0.00012904,1.6933e-05,3.1869e+07,258.38,0,5.1592e+07,20.384,12606,618.61,0,618.61,0,9.8552e-05,1.1885e-09,0,4.912e-05,1.8477e-05,3.9558e+07,402.41,0,1.9697e+07,161.82,618.61,1
2137,0.61,12073,1,12073,1,6.2135e-07,8.8038e-10,0,8.6832e-05,-1.1027e-07,-1.9965e+05,298.2,0,3.4865e+07,-20.698,12072,13208,1,13208,1,0.00016835,8.7736e-09,0,0.00016835,3.1152e-05,6.662e+07,2958.7,0,6.7567e+07,371.41,13207,12073,1,12073,1,-5.076e-06,3.2177e-10,0,9.1778e-05,9.6112e-07,-2.0649e+06,110.11,0,3.7281e+07,-4.7682,12072,10979,1,10979,1,-0.00016612,-4.4907e-09,0,5.076e-06,-3.1559e-05,-6.7567e+07,-1531.8,0,2.0649e+06,-606.04,10978,11538,1,11538,1,-9.1778e-05,-1.1419e-09,0,4.4468e-05,-1.53e-05,-3.733e+07,-388.69,0,1.7698e+07,-89.928,11537,12607,1,12607,1,8.1636e-05,2.5448e-09,0,0.00013117,1.7213e-05,3.2397e+07,863.62,0,5.2443e+07,72.358,12606,618.61,0,618.61,0,0.00010018,2.9168e-09,0,4.9931e-05,1.8782e-05,4.0212e+07,987.53,0,2.0022e+07,123.35,618.61,1
2137,0.62,12073,1,12073,1,6.3152e-07,-3.0711e-10,0,8.8264e-05,-1.1221e-07,-2.0299e+05,-103.87,0,3.5441e+07,-79.475,12072,13208,1,13208,1,0.00017112,3.5694e-09,0,0.00017112,3.1665e-05,6.7717e+07,1198,0,6.868e+07,1012.7,13207,12073,1,12073,1,-5.1599e-06,-2.2591e-10,0,9.3294e-05,9.7554e-07,-2.0991e+06,-75.31,0,3.7896e+07,-60.698,12072,10979,1,10979,1,-0.00016885,-2.9424e-09,0,5.1597e-06,-3.2081e-05,-6.868e+07,-992.26,0,2.0991e+06,-2175.2,10978,11538,1,11538,1,-9.3294e-05,-1.4991e-09,0,4.5202e-05,-1.5552e-05,-3.7946e+07,-509.24,0,1.799e+07,-132.67,11537,12607,1,12607,1,8.2981e-05,5.0564e-10,0,0.00013334,1.7497e-05,3.2931e+07,169.48,0,5.3309e+07,-5.1298,12606,618.61,0,618.61,0,0.00010183,1.4632e-09,0,5.0755e-05,1.9092e-05,4.0876e+07,495.21,0,2.0352e+07,164.27,618.61,1
2137,0.63,12073,1,12073,1,6.4142e-07,-1.0687e-09,0,8.9692e-05,-1.1394e-07,-2.064e+05,-361.74,0,3.6014e+07,-70.111,12072,13208,1,13208,1,0.0001739,2.9846e-09,0,0.0001739,3.2178e-05,6.8816e+07,1006.5,0,6.9794e+07,558.4,13207,12073,1,12073,1,-5.2436e-06,-8.1889e-10,0,9.4801e-05,9.9241e-07,-2.1331e+06,-278.17,0,3.8508e+07,-42.607,12072,10979,1,10979,1,-0.00017159,-4.7884e-09,0,5.2436e-06,-3.2599e-05,-6.9794e+07,-1614.7,0,2.1331e+06,-793.55,10978,11538,1,11538,1,-9.4801e-05,-2.5958e-09,0,4.5932e-05,-1.5804e-05,-3.8559e+07,-880.7,0,1.8281e+07,-123.26,11537,12607,1,12607,1,8.4328e-05,2.4973e-10,0,0.00013549,1.778e-05,3.3465e+07,83.636,0,5.4171e+07,5.6153,12606,618.61,0,618.61,0,0.00010348,1.805e-09,0,5.1576e-05,1.9401e-05,4.1537e+07,611.01,0,2.0682e+07,130.31,618.61,1
2137,0.64,12073,1,12073,1,6.5194e-07,1.0863e-09,0,9.1119e-05,-1.1582e-07,-2.0956e+05,367.91,0,3.6587e+07,-74.902,12072,13208,1,13208,1,0.00017666,4.6413e-09,0,0.00017666,3.2691e-05,6.9908e+07,1565.3,0,7.0902e+07,1463.8,13207,12073,1,12073,1,-5.3269e-06,8.3007e-10,0,9.6311e-05,1.0064e-06,-2.167e+06,281.45,0,3.9122e+07,-15.568,12072,10979,1,10979,1,-0.00017432,-6.398e-10,0,5.3269e-06,-3.3118e-05,-7.0902e+07,-213.16,0,2.167e+06,-1406.4,10978,11538,1,11538,1,-9.6311e-05,1.9174e-10,0,4.6664e-05,-1.6056e-05,-3.9174e+07,64.184,0,1.8572e+07,-102.33,11537,12607,1,12607,1,8.5666e-05,1.8535e-09,0,0.00013765,1.8063e-05,3.3996e+07,627.61,0,5.5034e+07,17.053,12606,618.61,0,618.61,0,0.00010513,1.0246e-09,0,5.2397e-05,1.971e-05,4.2198e+07,347.34,0,2.1011e+07,227.61,618.61,1
2137,0.65,12073,1,12073,1,6.6202e-07,3.2559e-10,0,9.2542e-05,-1.1752e-07,-2.1286e+05,110.35,0,3.7158e+07,-36.926,12072,13208,1,13208,1,0.00017941,3.4616e-09,0,0.00017941,3.3199e-05,7.0996e+07,1167.6,0,7.2006e+07,871.4,13207,12073,1,12073,1,-5.4103e-06,1.3216e-10,0,9.7817e-05,1.023e-06,-2.2009e+06,45.265,0,3.9733e+07,-7.1263,12072,10979,1,10979,1,-0.00017703,-1.2948e-09,0,5.4103e-06,-3.3633e-05,-7.2006e+07,-441.71,0,2.2009e+06,-804.6,10978,11538,1,11538,1,-9.7817e-05,-2.9312e-10,0,4.7394e-05,-1.6305e-05,-3.9786e+07,-99.394,0,1.8862e+07,-46.438,11537,12607,1,12607,1,8.6999e-05,7.9473e-10,0,0.0001398,1.8345e-05,3.4525e+07,270.28,0,5.5894e+07,12.765,12606,618.61,0,618.61,0,0.00010677,9.3226e-10,0,5.3215e-05,2.0018e-05,4.2856e+07,315.85,0,2.1339e+07,116.73,618.61,1
2137,0.66,12073,1,12073,1,6.7206e-07,1.044e-09,0,9.3957e-05,-1.1919e-07,-2.1614e+05,353.61,0,3.7726e+07,7.4685,12072,13208,1,13208,1,0.00018216,4.8126e-09,0,0.00018216,3.3707e-05,7.2085e+07,1640.5,0,7.311e+07,426.93,13207,12073,1,12073,1,-5.4929e-06,5.831e-10,0,9.9311e-05,1.0403e-06,-2.2345e+06,196.53,0,4.034e+07,15.545,12072,10979,1,10979,1,-0.00017975,-2.027e-09,0,5.4929e-06,-3.4149e-05,-7.311e+07,-683.64,0,2.2345e+06,-547.31,10978,11538,1,11538,1,-9.9311e-05,-2.6486e-10,0,4.8117e-05,-1.6554e-05,-4.0394e+07,-88.397,0,1.9151e+07,-23.443,11537,12607,1,12607,1,8.8334e-05,2.5028e-09,0,0.00014194,1.8626e-05,3.5055e+07,851.04,0,5.6748e+07,45.575,12606,618.61,0,618.61,0,0.0001084,1.7748e-09,0,5.4029e-05,2.0324e-05,4.3512e+07,600.91,0,2.1665e+07,70.269,618.61,1
2137,0.67,12073,1,12073,1,6.8248e-07,4.1669e-10,0,9.5386e-05,-1.2109e-07,-2.1936e+05,141.05,0,3.83e+07,-13.518,12072,13208,1,13208,1,0.00018493,4.0169e-09,0,0.00018493,3.4218e-05,7.3179e+07,1354.8,0,7.4219e+07,2960.1,13207,12073,1,12073,1,-5.5764e-06,1.1641e-10,0,0.00010082,1.0553e-06,-2.2685e+06,39.658,0,4.0955e+07,-15.228,12072,10979,1,10979,1,-0.00018247,-9.5304e-10,0,5.5763e-06,-3.4667e-05,-7.4219e+07,-317.63,0,2.2685e+06,-760.15,10978,11538,1,11538,1,-0.00010082,-2.7091e-10,0,4.885e-05,-1.6806e-05,-4.1009e+07,-92.319,0,1.9442e+07,-47.329,11537,12607,1,12607,1,8.9674e-05,8.4731e-10,0,0.0001441,1.8909e-05,3.5587e+07,285.19,0,5.7612e+07,16.36,12606,618.61,0,618.61,0,0.00011005,9.9966e-10,0,5.4851e-05,2.0633e-05,4.4174e+07,338.39,0,2.1995e+07,199.16,618.61,1
2137,0.68,12073,1,12073,1,6.9284e-07,2.4518e-10,0,9.6823e-05,-1.2292e-07,-2.2263e+05,82.955,0,3.8877e+07,-11.329,12072,13208,1,13208,1,0.00018771,1.0572e-09,0,0.00018771,3.4734e-05,7.4281e+07,356.52,0,7.5336e+07,114.05,13207,12073,1,12073,1,-5.6603e-06,1.7979e-10,0,0.00010234,1.0714e-06,-2.3026e+06,61.395,0,4.1571e+07,-6.3721,12072,10979,1,10979,1,-0.00018522,-4.6823e-10,0,5.6603e-06,-3.5188e-05,-7.5336e+07,-160.37,0,2.3026e+06,-485.95,10978,11538,1,11538,1,-0.00010234,-7.1849e-11,0,4.9586e-05,-1.7059e-05,-4.1626e+07,-24.262,0,1.9735e+07,-27.894,11537,12607,1,12607,1,9.1025e-05,5.5654e-10,0,0.00014627,1.9194e-05,3.6122e+07,188.4,0,5.8479e+07,12.714,12606,618.61,0,618.61,0,0.00011171,3.7463e-10,0,5.5677e-05,2.0944e-05,4.4839e+07,126.82,0,2.2326e+07,39.741,618.61,1
2137,0.69,12073,1,12073,1,7.032e-07,4.5857e-10,0,9.8241e-05,-1.2482e-07,-2.2581e+05,155.3,0,3.9446e+07,-34.629,12072,13208,1,13208,1,0.00019046,3.6651e-09,0,0.00019046,3.5242e-05,7.5369e+07,1236,0,7.644e+07,1110.3,13207,12073,1,12073,1,-5.7431e-06,1.8429e-10,0,0.00010384,1.0865e-06,-2.3363e+06,62.294,0,4.218e+07,-19.647,12072,10979,1,10979,1,-0.00018793,-1.2915e-09,0,5.7429e-06,-3.5705e-05,-7.644e+07,-438.31,0,2.3363e+06,-958.46,10978,11538,1,11538,1,-0.00010384,-3.4711e-10,0,5.0312e-05,-1.731e-05,-4.2236e+07,-118.39,0,2.0024e+07,-82.097,11537,12607,1,12607,1,9.2359e-05,1.1531e-09,0,0.00014841,1.9475e-05,3.6652e+07,388.16,0,5.9336e+07,31.424,12606,618.61,0,618.61,0,0.00011334,1.0858e-09,0,5.6492e-05,2.125e-05,4.5496e+07,367.62,0,2.2653e+07,153.25,618.61,1
2137,0.7,12073,1,12073,1,7.1312e-07,-4.5384e-10,0,9.9652e-05,-1.266e-07,-2.2913e+05,-153.52,0,4.0013e+07,-43.078,12072,13208,1,13208,1,0.00019321,6.9802e-09,0,0.00019321,3.5751e-05,7.6457e+07,2388.8,0,7.7543e+07,576.5,13207,12073,1,12073,1,-5.8255e-06,-3.6257e-10,0,0.00010533,1.103e-06,-2.3698e+06,-122.86,0,4.2785e+07,-39.257,12072,10979,1,10979,1,-0.00019065,-5.8703e-09,0,5.8255e-06,-3.6219e-05,-7.7543e+07,-1979.6,0,2.3698e+06,-414.52,10978,11538,1,11538,1,-0.00010533,-2.8793e-09,0,5.1033e-05,-1.7558e-05,-4.2841e+07,-971.59,0,2.0311e+07,-119.23,11537,12607,1,12607,1,9.3691e-05,1.1169e-09,0,0.00015053,1.9754e-05,3.7181e+07,378.05,0,6.0186e+07,30.609,12606,618.61,0,618.61,0,0.00011497,2.9809e-09,0,5.7303e-05,2.1556e-05,4.6149e+07,1009.9,0,2.2978e+07,116.72,618.61,1
2137,0.71,12073,1,12073,1,7.232e-07,-1.4571e-10,0,0.00010108,-1.2844e-07,-2.3247e+05,-49.225,0,4.0585e+07,-64.935,12072,13208,1,13208,1,0.00019597,6.4265e-09,0,0.00019597,3.6261e-05,7.7548e+07,2192.3,0,7.865e+07,951.89,13207,12073,1,12073,1,-5.909e-06,-1.6793e-10,0,0.00010684,1.1188e-06,-2.4038e+06,-56.017,0,4.3397e+07,-8.3962,12072,10979,1,10979,1,-0.00019337,-4.2045e-09,0,5.9089e-06,-3.6735e-05,-7.865e+07,-1417.9,0,2.4037e+06,-691.24,10978,11538,1,11538,1,-0.00010684,-2.0161e-09,0,5.1764e-05,-1.781e-05,-4.3455e+07,-680.79,0,2.0602e+07,-180.83,11537,12607,1,12607,1,9.5028e-05,1.0257e-09,0,0.00015269,2.0037e-05,3.7711e+07,344.32,0,6.1048e+07,67.874,12606,618.61,0,618.61,0,0.00011662,2.3308e-09,0,5.8123e-05,2.1864e-05,4.6809e+07,789.62,0,2.3307e+07,234.39,618.61,1
2137,0.72,12073,1,12073,1,7.3355e-07,-4.5856e-10,0,0.00010251,-1.3002e-07,-2.3573e+05,-155.21,0,4.1162e+07,43.024,12072,13208,1,13208,1,0.00019875,2.7715e-09,0,0.00019875,3.6777e-05,7.8649e+07,936.49,0,7.9767e+07,729.09,13207,12073,1,12073,1,-5.993e-06,-2.64e-10,0,0.00010836,1.1349e-06,-2.4379e+06,-90.363,0,4.4014e+07,31.025,12072,10979,1,10979,1,-0.00019611,-3.5587e-09,0,5.9929e-06,-3.7257e-05,-7.9767e+07,-1202.5,0,2.4379e+06,-380.52,10978,11538,1,11538,1,-0.00010836,-1.6559e-09,0,5.25e-05,-1.8062e-05,-4.4072e+07,-560.64,0,2.0895e+07,-21.774,11537,12607,1,12607,1,9.6378e-05,5.1073e-10,0,0.00015486,2.0322e-05,3.8247e+07,174.93,0,6.1916e+07,93.762,12606,618.61,0,618.61,0,0.00011827,1.4532e-09,0,5.8949e-05,2.2175e-05,4.7474e+07,492.28,0,2.3638e+07,112.02,618.61,1
2137,0.73,12073,1,12073,1,7.4377e-07,-1.3701e-09,0,0.00010394,-1.3186e-07,-2.3899e+05,-463.86,0,4.1733e+07,29.22,12072,13208,1,13208,1,0.00020152,2.5398e-09,0,0.00020152,3.7289e-05,7.9745e+07,866.41,0,8.0879e+07,865.08,13207,12073,1,12073,1,-6.0758e-06,-1.0783e-09,0,0.00010985,1.1505e-06,-2.4716e+06,-363.94,0,4.4623e+07,7.8495,12072,10979,1,10979,1,-0.00019885,-5.6491e-09,0,6.0757e-06,-3.7776e-05,-8.0879e+07,-1905,0,2.4715e+06,-224.64,10978,11538,1,11538,1,-0.00010985,-3.0439e-09,0,5.3226e-05,-1.8313e-05,-4.4682e+07,-1037,0,2.1184e+07,-44.08,11537,12607,1,12607,1,9.772e-05,2.301e-10,0,0.000157,2.0603e-05,3.8779e+07,78.395,0,6.2772e+07,74.072,12606,618.61,0,618.61,0,0.00011991,2.0358e-09,0,5.9766e-05,2.2482e-05,4.8133e+07,689.42,0,2.3966e+07,121.18,618.61,1
2137,0.74,12073,1,12073,1,7.5387e-07,-3.4177e-10,0,0.00010535,-1.3381e-07,-2.4225e+05,-115.69,0,4.23e+07,-36.72,12072,13208,1,13208,1,0.00020424,3.3462e-09,0,0.00020424,3.7793e-05,8.0823e+07,1128.5,0,8.1972e+07,631.43,13207,12073,1,12073,1,-6.1587e-06,-2.141e-10,0,0.00011135,1.166e-06,-2.5053e+06,-73.283,0,4.5231e+07,-36.49,12072,10979,1,10979,1,-0.00020153,-3.5937e-09,0,6.1587e-06,-3.8287e-05,-8.1972e+07,-1225.9,0,2.5053e+06,-617.03,10978,11538,1,11538,1,-0.00011135,-1.7678e-09,0,5.3951e-05,-1.8561e-05,-4.5291e+07,-598.36,0,2.1472e+07,-90.114,11537,12607,1,12607,1,9.9042e-05,7.7865e-10,0,0.00015914,2.0884e-05,3.9304e+07,263.68,0,6.3628e+07,19.238,12606,618.61,0,618.61,0,0.00012154,1.71e-09,0,6.0579e-05,2.2788e-05,4.8787e+07,579.11,0,2.4292e+07,115.76,618.61,1
2137,0.75,12073,1,12073,1,7.643e-07,-3.036e-10,0,0.00010678,-1.3563e-07,-2.4548e+05,-102.74,0,4.2876e+07,-22.383,12072,13208,1,13208,1,0.00020702,2.5321e-09,0,0.00020702,3.8307e-05,8.1922e+07,863.59,0,8.3086e+07,577.56,13207,12073,1,12073,1,-6.2421e-06,-1.7388e-10,0,0.00011287,1.182e-06,-2.5393e+06,-58.365,0,4.5847e+07,-27.429,12072,10979,1,10979,1,-0.00020427,-2.6063e-09,0,6.2419e-06,-3.8807e-05,-8.3086e+07,-880.25,0,2.5392e+06,-436.97,10978,11538,1,11538,1,-0.00011287,-1.3004e-09,0,5.4686e-05,-1.8814e-05,-4.5907e+07,-441.23,0,2.1765e+07,-71.463,11537,12607,1,12607,1,0.00010039,4.0108e-10,0,0.00016131,2.1168e-05,3.9838e+07,136.8,0,6.4494e+07,15.786,12606,618.61,0,618.61,0,0.0001232,1.1871e-09,0,6.1403e-05,2.3098e-05,4.9451e+07,402.09,0,2.4622e+07,94.177,618.61,1
2137,0.76,12073,1,12073,1,7.746e-07,-5.0326e-10,0,0.00010821,-1.3751e-07,-2.4874e+05,-170.32,0,4.3449e+07,-44.326,12072,13208,1,13208,1,0.00020979,1.7555e-09,0,0.00020979,3.8819e-05,8.3018e+07,598.41,0,8.4197e+07,899.63,13207,12073,1,12073,1,-6.3256e-06,-2.8368e-10,0,0.00011437,1.1975e-06,-2.5732e+06,-95.276,0,4.6459e+07,-31.057,12072,10979,1,10979,1,-0.000207,-2.9081e-09,0,6.3254e-06,-3.9327e-05,-8.4197e+07,-983.59,0,2.5731e+06,-762.17,10978,11538,1,11538,1,-0.00011437,-1.4412e-09,0,5.5416e-05,-1.9066e-05,-4.652e+07,-489.54,0,2.2055e+07,-161.04,11537,12607,1,12607,1,0.00010173,3.2983e-10,0,0.00016346,2.145e-05,4.0371e+07,111.23,0,6.5355e+07,76.098,12606,618.61,0,618.61,0,0.00012484,1.0906e-09,0,6.2224e-05,2.3406e-05,5.0111e+07,369.11,0,2.4951e+07,215.64,618.61,1
2137,0.77,12073,1,12073,1,7.8518e-07,-2.9068e-09,0,0.00010962,-1.3931e-07,-2.518e+05,-983.95,0,4.4016e+07,-9.1169,12072,13208,1,13208,1,0.00021256,2.5281e-09,0,0.00021256,3.9332e-05,8.4115e+07,862.43,0,8.531e+07,700.62,13207,12073,1,12073,1,-6.4072e-06,-2.6381e-09,0,0.00011586,1.2129e-06,-2.6064e+06,-887.27,0,4.7063e+07,-22.817,12072,10979,1,10979,1,-0.00020974,-9.4381e-09,0,6.407e-06,-3.9847e-05,-8.531e+07,-3189.6,0,2.6064e+06,-370.92,10978,11538,1,11538,1,-0.00011586,-5.4982e-09,0,5.6136e-05,-1.9317e-05,-4.7124e+07,-1863.7,0,2.2342e+07,-113.53,11537,12607,1,12607,1,0.00010308,-2.6404e-11,0,0.00016559,2.1729e-05,4.0905e+07,-8.8044,0,6.6203e+07,82.347,12606,618.61,0,618.61,0,0.00012647,3.262e-09,0,6.3037e-05,2.3712e-05,5.0766e+07,1104.3,0,2.5277e+07,154.15,618.61,1
2137,0.78,12073,1,12073,1,7.9478e-07,-1.4959e-09,0,0.00011106,-1.4099e-07,-2.554e+05,-506.46,0,4.4594e+07,-5.0056,12072,13208,1,13208,1,0.00021533,1.4734e-09,0,0.00021533,3.9845e-05,8.5211e+07,502.64,0,8.6422e+07,547.64,13207,12073,1,12073,1,-6.4923e-06,-1.26e-09,0,0.00011739,1.2293e-06,-2.641e+06,-428.34,0,4.7683e+07,-10.307,12072,10979,1,10979,1,-0.00021248,-5.1236e-09,0,6.4922e-06,-4.0366e-05,-8.6422e+07,-1730.9,0,2.641e+06,-285.66,10978,11538,1,11538,1,-0.00011739,-2.8137e-09,0,5.6876e-05,-1.9569e-05,-4.7745e+07,-949.73,0,2.2636e+07,-55.204,11537,12607,1,12607,1,0.00010442,3.1033e-11,0,0.00016777,2.2015e-05,4.1437e+07,10.376,0,6.7076e+07,43.703,12606,618.61,0,618.61,0,0.00012813,1.7433e-09,0,6.3864e-05,2.4023e-05,5.1433e+07,590.36,0,2.5609e+07,86.7,618.61,1
2137,0.79,12073,1,12073,1,8.0511e-07,1.2268e-10,0,0.00011247,-1.4286e-07,-2.5857e+05,41.61,0,4.5161e+07,-18.785,12072,13208,1,13208,1,0.00021806,5.9511e-09,0,0.00021806,4.0349e-05,8.6289e+07,2030,0,8.7515e+07,589.21,13207,12073,1,12073,1,-6.5749e-06,-1.289e-10,0,0.00011888,1.2448e-06,-2.6747e+06,-43.742,0,4.829e+07,-23.85,12072,10979,1,10979,1,-0.00021516,-3.4078e-09,0,6.5749e-06,-4.0876e-05,-8.7515e+07,-1162.5,0,2.6746e+06,-368.93,10978,11538,1,11538,1,-0.00011888,-1.6677e-09,0,5.76e-05,-1.9817e-05,-4.8354e+07,-563.08,0,2.2925e+07,-80.422,11537,12607,1,12607,1,0.00010574,1.4051e-09,0,0.00016991,2.2296e-05,4.1962e+07,473.8,0,6.7931e+07,30.757,12606,618.61,0,618.61,0,0.00012976,2.2361e-09,0,6.4676e-05,2.4329e-05,5.2086e+07,757.55,0,2.5934e+07,101.86,618.61,1
2137,0.8,12073,1,12073,1,8.1523e-07,-2.2868e-11,0,0.0001139,-1.4458e-07,-2.6189e+05,-7.6977,0,4.5735e+07,9.8612,12072,13208,1,13208,1,0.00022082,3.0961e-09,0,0.00022082,4.0861e-05,8.7384e+07,1056.1,0,8.8626e+07,901.61,13207,12073,1,12073,1,-6.6586e-06,-2.2212e-11,0,0.00012039,1.2609e-06,-2.7087e+06,-7.403,0,4.8904e+07,0.65531,12072,10979,1,10979,1,-0.00021789,-2.4991e-09,0,6.6586e-06,-4.1395e-05,-8.8626e+07,-842.74,0,2.7087e+06,-303,10978,11538,1,11538,1,-0.00012039,-1.0039e-09,0,5.8333e-05,-2.0068e-05,-4.8969e+07,-340.76,0,2.3216e+07,-38.674,11537,12607,1,12607,1,0.00010708,8.0921e-10,0,0.00017207,2.258e-05,4.2494e+07,273.7,0,6.8795e+07,30.294,12606,618.61,0,618.61,0,0.00013141,1.3177e-09,0,6.5498e-05,2.4638e-05,5.2748e+07,446.36,0,2.6264e+07,108.22,618.61,1
2137,0.81,12073,1,12073,1,8.2549e-07,2.8548e-09,0,0.00011533,-1.4646e-07,-2.6515e+05,966.71,0,4.6307e+07,-11.107,12072,13208,1,13208,1,0.00022361,6.7187e-09,0,0.00022361,4.1376e-05,8.8487e+07,2299.9,0,8.9744e+07,854.39,13207,12073,1,12073,1,-6.7415e-06,2.7651e-09,0,0.00012189,1.2765e-06,-2.7424e+06,932.6,0,4.9512e+07,-24.639,12072,10979,1,10979,1,-0.00022064,-7.426e-10,0,6.7415e-06,-4.1917e-05,-8.9744e+07,-247.47,0,2.7424e+06,-178.99,10978,11538,1,11538,1,-0.00012189,8.0565e-10,0,5.9058e-05,-2.0321e-05,-4.9578e+07,272.49,0,2.3505e+07,-65.603,11537,12607,1,12607,1,0.00010843,4.8733e-09,0,0.00017421,2.286e-05,4.303e+07,1651.9,0,6.965e+07,33.528,12606,618.61,0,618.61,0,0.00013306,2.1798e-09,0,6.6317e-05,2.4946e-05,5.3408e+07,738.91,0,2.6592e+07,86.939,618.61,1
2137,0.82,12073,1,12073,1,8.3567e-07,2.3208e-09,0,0.00011674,-1.4835e-07,-2.6842e+05,785.63,0,4.6876e+07,-46.805,12072,13208,1,13208,1,0.00022636,7.2263e-09,0,0.00022636,4.1884e-05,8.9573e+07,2429.2,0,9.0846e+07,517.47,13207,12073,1,12073,1,-6.8245e-06,2.1444e-09,0,0.00012339,1.2919e-06,-2.7762e+06,724.83,0,5.0122e+07,-18.81,12072,10979,1,10979,1,-0.00022335,-8.1821e-10,0,6.8245e-06,-4.2433e-05,-9.0846e+07,-272.67,0,2.7762e+06,-1121.8,10978,11538,1,11538,1,-0.00012339,5.0497e-10,0,5.9785e-05,-2.0571e-05,-5.0188e+07,171.87,0,2.3794e+07,-120.41,11537,12607,1,12607,1,0.00010976,3.9299e-09,0,0.00017635,2.3142e-05,4.3559e+07,1330.2,0,7.0508e+07,54.553,12606,618.61,0,618.61,0,0.00013469,1.9918e-09,0,6.7132e-05,2.5253e-05,5.4065e+07,674.39,0,2.6919e+07,174.28,618.61,1
2137,0.83,12073,1,12073,1,8.4601e-07,1.66e-09,0,0.00011818,-1.5021e-07,-2.717e+05,562.11,0,4.7452e+07,-59.936,12072,13208,1,13208,1,0.00022913,4.8229e-09,0,0.00022913,4.2398e-05,9.0671e+07,1630.6,0,9.1959e+07,514.07,13207,12073,1,12073,1,-6.9083e-06,1.5336e-09,0,0.00012491,1.3079e-06,-2.8103e+06,518.71,0,5.0738e+07,-46.076,12072,10979,1,10979,1,-0.00022609,-7.1708e-10,0,6.9083e-06,-4.2952e-05,-9.1959e+07,-245.61,0,2.8103e+06,-741.19,10978,11538,1,11538,1,-0.00012491,3.5816e-10,0,6.0521e-05,-2.0824e-05,-5.0805e+07,121.49,0,2.4087e+07,-112.87,11537,12607,1,12607,1,0.00011111,2.9455e-09,0,0.00017852,2.3426e-05,4.4092e+07,998.76,0,7.1375e+07,7.0185,12606,618.61,0,618.61,0,0.00013635,1.4092e-09,0,6.7957e-05,2.5563e-05,5.4729e+07,477.4,0,2.725e+07,111.53,618.61,1
2137,0.84,12073,1,12073,1,8.5624e-07,1.9506e-09,0,0.0001196,-1.5193e-07,-2.7495e+05,660.33,0,4.8022e+07,-19.289,12072,13208,1,13208,1,0.00023189,5.789e-09,0,0.00023189,4.291e-05,9.1764e+07,1946,0,9.3067e+07,3554.4,13207,12073,1,12073,1,-6.9911e-06,1.5596e-09,0,0.00012641,1.3236e-06,-2.844e+06,526.8,0,5.1348e+07,-26.78,12072,10979,1,10979,1,-0.00022881,-1.1843e-09,0,6.9911e-06,-4.3471e-05,-9.3067e+07,-394.64,0,2.844e+06,-1098.2,10978,11538,1,11538,1,-0.00012641,1.1965e-12,0,6.1248e-05,-2.1073e-05,-5.1415e+07,0.40608,0,2.4376e+07,-157.04,11537,12607,1,12607,1,0.00011245,3.8716e-09,0,0.00018066,2.3708e-05,4.4623e+07,1304.9,0,7.2232e+07,69.007,12606,618.61,0,618.61,0,0.00013798,2.0462e-09,0,6.8773e-05,2.587e-05,5.5386e+07,692.91,0,2.7577e+07,404.88,618.61,1
2137,0.85,12073,1,12073,1,8.6622e-07,-6.5496e-10,0,0.00012103,-1.5368e-07,-2.7835e+05,-221.84,0,4.8596e+07,-10.456,12072,13208,1,13208,1,0.00023464,1.3696e-09,0,0.00023464,4.3417e-05,9.2851e+07,467.23,0,9.4172e+07,182.14,13207,12073,1,12073,1,-7.0749e-06,-3.604e-10,0,0.00012792,1.3396e-06,-2.8781e+06,-121.74,0,5.1963e+07,-6.5358,12072,10979,1,10979,1,-0.00023153,-3.3193e-09,0,7.0748e-06,-4.3985e-05,-9.4172e+07,-1119.4,0,2.878e+06,-1153.5,10978,11538,1,11538,1,-0.00012792,-1.5827e-09,0,6.1981e-05,-2.1324e-05,-5.2031e+07,-539.6,0,2.4668e+07,-39.973,11537,12607,1,12607,1,0.00011378,2.7325e-10,0,0.00018283,2.3992e-05,4.5153e+07,91.812,0,7.3097e+07,26.531,12606,618.61,0,618.61,0,0.00013963,1.1508e-09,0,6.9595e-05,2.6179e-05,5.6048e+07,389.83,0,2.7907e+07,80.589,618.61,1
2137,0.86,12073,1,12073,1,8.7668e-07,9.2614e-10,0,0.00012243,-1.5587e-07,-2.8143e+05,313.55,0,4.9157e+07,-150.27,12072,13208,1,13208,1,0.00023736,9.0073e-09,0,0.00023736,4.392e-05,9.3926e+07,3037.3,0,9.5262e+07,541.52,13207,12073,1,12073,1,-7.1565e-06,3.4504e-10,0,0.0001294,1.3548e-06,-2.9113e+06,115.64,0,5.2564e+07,-71.77,12072,10979,1,10979,1,-0.00023421,-4.4664e-09,0,7.1565e-06,-4.4496e-05,-9.5262e+07,-1513.9,0,2.9112e+06,-2160,10978,11538,1,11538,1,-0.0001294,-1.2389e-09,0,6.2698e-05,-2.1574e-05,-5.2633e+07,-418.01,0,2.4953e+07,-192.39,11537,12607,1,12607,1,0.0001151,2.8294e-09,0,0.00018494,2.4269e-05,4.5676e+07,953.93,0,7.3942e+07,6.2039,12606,618.61,0,618.61,0,0.00014125,3.1514e-09,0,7.0399e-05,2.6482e-05,5.6696e+07,1067.3,0,2.8229e+07,282.64,618.61,1
2137,0.87,12073,1,12073,1,8.8682e-07,1.0848e-09,0,0.00012387,-1.5744e-07,-2.8485e+05,367.2,0,4.9738e+07,-54.413,12072,13208,1,13208,1,0.00024016,3.8111e-09,0,0.00024016,4.4438e-05,9.5034e+07,1299,0,9.6385e+07,2014.4,13207,12073,1,12073,1,-7.2411e-06,8.5609e-10,0,0.00013093,1.3702e-06,-2.9457e+06,289.77,0,5.3185e+07,-45.837,12072,10979,1,10979,1,-0.00023697,-6.8563e-10,0,7.2411e-06,-4.5023e-05,-9.6385e+07,-228.49,0,2.9457e+06,-1819.3,10978,11538,1,11538,1,-0.00013093,2.9697e-10,0,6.3439e-05,-2.1825e-05,-5.3255e+07,100.01,0,2.5248e+07,-127.16,11537,12607,1,12607,1,0.00011646,1.6364e-09,0,0.00018713,2.4555e-05,4.6215e+07,553.75,0,7.4816e+07,13.581,12606,618.61,0,618.61,0,0.00014291,9.5814e-10,0,7.1231e-05,2.6795e-05,5.7365e+07,324.27,0,2.8563e+07,197.05,618.61,1
2137,0.88,12073,1,12073,1,8.9702e-07,-2.9256e-10,0,0.00012529,-1.5927e-07,-2.8813e+05,-99.033,0,5.0308e+07,-64.364,12072,13208,1,13208,1,0.00024292,6.2856e-09,0,0.00024292,4.4949e-05,9.6125e+07,2143.9,0,9.7492e+07,1724.7,13207,12073,1,12073,1,-7.3242e-06,-1.8799e-10,0,0.00013243,1.3867e-06,-2.9795e+06,-63.562,0,5.3794e+07,-34.562,12072,10979,1,10979,1,-0.00023969,-4.6871e-09,0,7.3241e-06,-4.5536e-05,-9.7492e+07,-1588.2,0,2.9794e+06,-911.95,10978,11538,1,11538,1,-0.00013243,-2.2472e-09,0,6.4166e-05,-2.2076e-05,-5.3865e+07,-756.23,0,2.5537e+07,-122.93,11537,12607,1,12607,1,0.00011779,9.5335e-10,0,0.00018927,2.4837e-05,4.6745e+07,322.13,0,7.5673e+07,30.259,12606,618.61,0,618.61,0,0.00014455,2.4436e-09,0,7.2048e-05,2.7102e-05,5.8023e+07,827.54,0,2.889e+07,164.27,618.61,1
2137,0.89,12073,1,12073,1,9.0736e-07,1.0935e-09,0,0.00012672,-1.6101e-07,-2.9141e+05,370.1,0,5.0883e+07,-23.426,12072,13208,1,13208,1,0.00024569,4.4315e-09,0,0.00024569,4.5462e-05,9.7223e+07,1494.6,0,9.8606e+07,772.08,13207,12073,1,12073,1,-7.4077e-06,9.5323e-10,0,0.00013395,1.4024e-06,-3.0134e+06,319.58,0,5.4409e+07,-23.004,12072,10979,1,10979,1,-0.00024243,-7.7502e-10,0,7.4077e-06,-4.6058e-05,-9.8606e+07,-265.44,0,3.0134e+06,-820.72,10978,11538,1,11538,1,-0.00013395,2.4879e-11,0,6.4899e-05,-2.2329e-05,-5.4481e+07,8.5219,0,2.5829e+07,-66.574,11537,12607,1,12607,1,0.00011914,1.9594e-09,0,0.00019144,2.5121e-05,4.728e+07,666.45,0,7.6538e+07,32.428,12606,618.61,0,618.61,0,0.00014621,1.1702e-09,0,7.2871e-05,2.7412e-05,5.8686e+07,395.97,0,2.9221e+07,112.15,618.61,1
2137,0.9,12073,1,12073,1,9.1765e-07,1.1617e-11,0,0.00012815,-1.6281e-07,-2.9466e+05,3.9254,0,5.1454e+07,-11.402,12072,13208,1,13208,1,0.00024843,1.4185e-09,0,0.00024843,4.5969e-05,9.8307e+07,478.34,0,9.9706e+07,1464,13207,12073,1,12073,1,-7.491e-06,-2.6115e-11,0,0.00013545,1.4184e-06,-3.0473e+06,-8.7204,0,5.5021e+07,-9.4412,12072,10979,1,10979,1,-0.00024513,-7.668e-10,0,7.491e-06,-4.6572e-05,-9.9706e+07,-258.6,0,3.0473e+06,-671.17,10978,11538,1,11538,1,-0.00013545,-3.6165e-10,0,6.5629e-05,-2.2577e-05,-5.5093e+07,-122.38,0,2.612e+07,-31.315,11537,12607,1,12607,1,0.00012047,2.2947e-10,0,0.00019359,2.5403e-05,4.7807e+07,77.687,0,7.7399e+07,5.5754,12606,618.61,0,618.61,0,0.00014785,4.8712e-10,0,7.3688e-05,2.7719e-05,5.9344e+07,164.98,0,2.9548e+07,67.739,618.61,1
2137,0.91,12073,1,12073,1,9.279e-07,3.6597e-10,0,0.00012957,-1.6459e-07,-2.9791e+05,123.97,0,5.2024e+07,4.7679,12072,13208,1,13208,1,0.00025119,4.4996e-09,0,0.00025119,4.648e-05,9.9399e+07,1516.8,0,1.0081e+08,178.86,13207,12073,1,12073,1,-7.5738e-06,4.1284e-11,0,0.00013695,1.4343e-06,-3.081e+06,14.14,0,5.563e+07,0.95968,12072,10979,1,10979,1,-0.00024786,-1.7409e-09,0,7.5737e-06,-4.7088e-05,-1.0081e+08,-587.07,0,3.081e+06,-130.44,10978,11538,1,11538,1,-0.00013695,-7.3157e-10,0,6.6355e-05,-2.2828e-05,-5.5703e+07,-249.12,0,2.6409e+07,-26.606,11537,12607,1,12607,1,0.00012181,1.1456e-09,0,0.00019573,2.5685e-05,4.8338e+07,387.19,0,7.8255e+07,31.496,12606,618.61,0,618.61,0,0.00014948,1.4659e-09,0,7.4505e-05,2.8026e-05,6.0002e+07,496.39,0,2.9876e+07,50.782,618.61,1
2137,0.92,12073,1,12073,1,9.3828e-07,1.479e-09,0,0.00013099,-1.6643e-07,-3.0122e+05,500.8,0,5.2596e+07,3.6275,12072,13208,1,13208,1,0.00025397,4.874e-09,0,0.00025397,4.6993e-05,1.005e+08,1668.2,0,1.0193e+08,123.28,13207,12073,1,12073,1,-7.6569e-06,1.2728e-09,0,0.00013845,1.45e-06,-3.1148e+06,428.44,0,5.6241e+07,3.6612,12072,10979,1,10979,1,-0.0002506,-7.0798e-10,0,7.6569e-06,-4.7608e-05,-1.0193e+08,-241.53,0,3.1148e+06,-141.97,10978,11538,1,11538,1,-0.00013845,1.8685e-10,0,6.7084e-05,-2.308e-05,-5.6315e+07,63.855,0,2.6699e+07,-27.469,11537,12607,1,12607,1,0.00012315,2.5881e-09,0,0.00019788,2.5967e-05,4.8872e+07,878.51,0,7.9115e+07,37.598,12606,618.61,0,618.61,0,0.00015113,1.4048e-09,0,7.5325e-05,2.8335e-05,6.0662e+07,475.96,0,3.0204e+07,43.543,618.61,1
2137,0.93,12073,1,12073,1,9.489e-07,-5.9931e-11,0,0.00013242,-1.6834e-07,-3.0448e+05,-20.281,0,5.3171e+07,-6.3609,12072,13208,1,13208,1,0.00025672,9.1404e-10,0,0.00025672,4.7503e-05,1.0158e+08,312.89,0,1.0303e+08,24.069,13207,12073,1,12073,1,-7.7403e-06,-4.5926e-11,0,0.00013997,1.4658e-06,-3.1487e+06,-15.607,0,5.6857e+07,-6.6918,12072,10979,1,10979,1,-0.00025331,-6.8004e-10,0,7.7403e-06,-4.8125e-05,-1.0303e+08,-229.33,0,3.1487e+06,-71.795,10978,11538,1,11538,1,-0.00013997,-3.3798e-10,0,6.782e-05,-2.3331e-05,-5.6931e+07,-114,0,2.6992e+07,-14.505,11537,12607,1,12607,1,0.00012449,1.1782e-10,0,0.00020005,2.6251e-05,4.9403e+07,40.034,0,7.9981e+07,3.1714,12606,618.61,0,618.61,0,0.00015278,3.6272e-10,0,7.6148e-05,2.8644e-05,6.1324e+07,122.94,0,3.0534e+07,13.28,618.61,1
2137,0.94,12073,1,12073,1,9.5935e-07,5.7145e-10,0,0.00013384,-1.7021e-07,-3.0773e+05,193.51,0,5.3739e+07,-12.064,12072,13208,1,13208,1,0.00025947,4.4982e-09,0,0.00025947,4.8012e-05,1.0267e+08,1534.4,0,1.0414e+08,105.41,13207,12073,1,12073,1,-7.8227e-06,1.7883e-10,0,0.00014146,1.4813e-06,-3.1822e+06,60.813,0,5.7465e+07,-14.003,12072,10979,1,10979,1,-0.00025603,-1.4148e-09,0,7.8226e-06,-4.864e-05,-1.0414e+08,-477.12,0,3.1822e+06,-101.42,10978,11538,1,11538,1,-0.00014146,-4.4625e-10,0,6.8544e-05,-2.3581e-05,-5.7539e+07,-151.43,0,2.728e+07,-45.335,11537,12607,1,12607,1,0.00012582,1.3648e-09,0,0.00020219,2.6531e-05,4.9932e+07,464.62,0,8.0835e+07,13.972,12606,618.61,0,618.61,0,0.00015441,1.4049e-09,0,7.6961e-05,2.895e-05,6.198e+07,476.02,0,3.086e+07,41.962,618.61,1
2137,0.95,12073,1,12073,1,9.5912e-07,-1.7796e-08,0,0.0001339,-1.6949e-07,-3.082e+05,-6017.6,0,5.3763e+07,277.56,12072,13208,1,13208,1,0.00026036,4.212e-07,0,0.00026036,4.8177e-05,1.0302e+08,1.4204e+05,0,1.0452e+08,10982,13207,12073,1,12073,1,-7.8145e-06,-1.9342e-08,0,0.00014134,1.4683e-06,-3.179e+06,-6501.1,0,5.7414e+07,260.24,12072,10979,1,10979,1,-0.00025696,-3.3793e-07,0,7.8152e-06,-4.88e-05,-1.0452e+08,-1.1421e+05,0,3.1785e+06,-10744,10978,11538,1,11538,1,-0.00014134,-1.2441e-07,0,6.8491e-05,-2.3655e-05,-5.7488e+07,-42064,0,2.7258e+07,-2845.1,11537,12607,1,12607,1,0.00012623,5.3624e-08,0,0.00020199,2.6519e-05,5.0092e+07,18007,0,8.0755e+07,2991.1,12606,618.61,0,618.61,0,0.00015448,1.5438e-07,0,7.6984e-05,2.8967e-05,6.2005e+07,52277,0,3.0869e+07,4192.9,618.61,1
2137,0.96,12073,1,12073,1,9.7999e-07,2.0223e-09,0,0.00013669,-1.7384e-07,-3.1433e+05,684.94,0,5.4883e+07,1.4644,12072,13208,1,13208,1,0.00026501,4.9598e-09,0,0.00026501,4.9037e-05,1.0486e+08,1672.6,0,1.0636e+08,271.07,13207,12073,1,12073,1,-7.9883e-06,2.1717e-09,0,0.00014447,1.5128e-06,-3.2496e+06,733.2,0,5.8684e+07,-2.8571,12072,10979,1,10979,1,-0.00026149,-9.0338e-10,0,7.9881e-06,-4.9679e-05,-1.0636e+08,-309.42,0,3.2496e+06,-237.07,10978,11538,1,11538,1,-0.00014447,8.315e-10,0,6.9999e-05,-2.4084e-05,-5.876e+07,280.3,0,2.7859e+07,-48.886,11537,12607,1,12607,1,0.00012851,3.134e-09,0,0.00020648,2.7094e-05,5.0998e+07,1059.7,0,8.255e+07,51.978,12606,618.61,0,618.61,0,0.0001577,1.5162e-09,0,7.86e-05,2.9567e-05,6.3299e+07,513.82,0,3.1517e+07,75.137,618.61,1
2137,0.97,12073,1,12073,1,9.9097e-07,-5.7698e-10,0,0.00013811,-1.759e-07,-3.1752e+05,-195.26,0,5.5452e+07,-43.498,12072,13208,1,13208,1,0.00026776,4.3709e-09,0,0.00026776,4.9544e-05,1.0594e+08,1474.1,0,1.0746e+08,182.15,13207,12073,1,12073,1,-8.0706e-06,-5.4011e-10,0,0.00014597,1.5281e-06,-3.2831e+06,-184.84,0,5.9297e+07,-22.175,12072,10979,1,10979,1,-0.0002642,-4.0931e-09,0,8.0706e-06,-5.0193e-05,-1.0746e+08,-1380.3,0,3.2831e+06,-793.5,10978,11538,1,11538,1,-0.00014597,-2.1617e-09,0,7.073e-05,-2.4333e-05,-5.9373e+07,-730.46,0,2.815e+07,-60.907,11537,12607,1,12607,1,0.00012984,5.0456e-10,0,0.00020863,2.7377e-05,5.1526e+07,170,0,8.3411e+07,21.598,12606,618.61,0,618.61,0,0.00015934,1.9007e-09,0,7.9416e-05,2.9873e-05,6.3955e+07,643.66,0,3.1844e+07,112.11,618.61,1
2137,0.98,12073,1,12073,1,1.0016e-06,2.0307e-10,0,0.00013953,-1.7773e-07,-3.2075e+05,68.62,0,5.6026e+07,-14.917,12072,13208,1,13208,1,0.00027052,4.7807e-09,0,0.00027052,5.0055e-05,1.0703e+08,1612.1,0,1.0857e+08,152.8,13207,12073,1,12073,1,-8.1541e-06,-2.6905e-11,0,0.00014748,1.544e-06,-3.3171e+06,-8.9649,0,5.9911e+07,-12.205,12072,10979,1,10979,1,-0.00026692,-2.7458e-09,0,8.154e-06,-5.0711e-05,-1.0857e+08,-935,0,3.317e+06,-194.84,10978,11538,1,11538,1,-0.00014748,-1.2484e-09,0,7.1463e-05,-2.4584e-05,-5.9987e+07,-419.82,0,2.8442e+07,-64.509,11537,12607,1,12607,1,0.00013118,1.256e-09,0,0.00021079,2.766e-05,5.2058e+07,429.54,0,8.4275e+07,30.506,12606,618.61,0,618.61,0,0.00016098,1.819e-09,0,8.0237e-05,3.0182e-05,6.4617e+07,615.98,0,3.2173e+07,65.218,618.61,1
2137,0.99,12073,1,12073,1,1.0121e-06,7.405e-10,0,0.00014097,-1.7957e-07,-3.241e+05,250.71,0,5.6601e+07,-5.6697,12072,13208,1,13208,1,0.0002733,1.602e-09,0,0.0002733,5.0569e-05,1.0813e+08,540.23,0,1.0968e+08,51.455,13207,12073,1,12073,1,-8.2377e-06,7.5337e-10,0,0.000149,1.56e-06,-3.3511e+06,254.29,0,6.0526e+07,-5.3324,12072,10979,1,10979,1,-0.00026966,-1.6023e-10,0,8.2376e-06,-5.1231e-05,-1.0968e+08,-54.882,0,3.3511e+06,-116.26,10978,11538,1,11538,1,-0.000149,2.8976e-10,0,7.2196e-05,-2.4837e-05,-6.0603e+07,98.321,0,2.8733e+07,-17.636,11537,12607,1,12607,1,0.00013253,1.1843e-09,0,0.00021296,2.7944e-05,5.2592e+07,401.92,0,8.514e+07,7.5106,12606,618.61,0,618.61,0,0.00016264,4.9937e-10,0,8.1061e-05,3.0492e-05,6.528e+07,169.15,0,3.2503e+07,20.515,618.61,1
2137,1,12073,1,12073,1,1.0229e-06,-6.8722e-10,0,0.00014237,-1.8153e-07,-3.2726e+05,-232.65,0,5.7164e+07,-18.628,12072,13208,1,13208,1,0.00027603,6.527e-09,0,0.00027603,5.1075e-05,1.0921e+08,2201.6,0,1.1078e+08,214.26,13207,12073,1,12073,1,-8.3188e-06,-7.3024e-10,0,0.00015048,1.5752e-06,-3.3841e+06,-244.51,0,6.1128e+07,-10.262,12072,10979,1,10979,1,-0.00027236,-5.1677e-09,0,8.3187e-06,-5.1744e-05,-1.1078e+08,-1745.4,0,3.384e+06,-265.82,10978,11538,1,11538,1,-0.00015048,-2.8506e-09,0,7.2916e-05,-2.5085e-05,-6.1206e+07,-956.35,0,2.902e+07,-64.371,11537,12607,1,12607,1,0.00013385,6.2046e-10,0,0.00021507,2.8222e-05,5.3118e+07,207.89,0,8.5986e+07,25.785,12606,618.61,0,618.61,0,0.00016426,2.659e-09,0,8.1868e-05,3.0796e-05,6.593e+07,900.66,0,3.2826e+07,79.558,618.61,1
2137,1.01,12073,1,12073,1,1.0207e-06,-2.4541e-08,0,0.0001421,-1.8024e-07,-3.2745e+05,-8312.1,0,5.7056e+07,356.57,12072,13208,1,13208,1,0.0002763,4.0558e-07,0,0.0002763,5.1119e-05,1.093e+08,1.3637e+05,0,1.109e+08,12763,13207,12073,1,12073,1,-8.2915e-06,-1.7097e-08,0,0.00015002,1.5677e-06,-3.3731e+06,-5854.7,0,6.0942e+07,-78.57,12072,10979,1,10979,1,-0.00027265,-3.9188e-07,0,8.291e-06,-5.1787e-05,-1.109e+08,-1.3215e+05,0,3.3729e+06,-11490,10978,11538,1,11538,1,-0.00015002,-1.3333e-07,0,7.2698e-05,-2.5111e-05,-6.102e+07,-45402,0,2.8932e+07,-2696.6,11537,12607,1,12607,1,0.00013395,6.065e-08,0,0.0002144,2.8146e-05,5.3158e+07,20399,0,8.5716e+07,3360.4,12606,618.61,0,618.61,0,0.00016394,1.644e-07,0,8.1702e-05,3.0742e-05,6.5802e+07,55677,0,3.2759e+07,4384.6,618.61,1
2137,1.02,12073,1,12073,1,1.0398e-06,-2.4968e-08,0,0.00014378,-1.8389e-07,-3.2846e+05,-8445,0,5.7727e+07,278.81,12072,13208,1,13208,1,0.00027995,5.4795e-07,0,0.00027995,5.1804e-05,1.1075e+08,1.8757e+05,0,1.1238e+08,15955,13207,12073,1,12073,1,-8.3801e-06,-2.0285e-08,0,0.00015164,1.5768e-06,-3.4088e+06,-6937.8,0,6.1607e+07,586.71,12072,10979,1,10979,1,-0.00027628,-4.8927e-07,0,8.3802e-06,-5.2476e-05,-1.1238e+08,-1.6499e+05,0,3.4079e+06,-17138,10978,11538,1,11538,1,-0.00015165,-1.8023e-07,0,7.35e-05,-2.5432e-05,-6.1679e+07,-61029,0,2.9251e+07,-4387.6,11537,12607,1,12607,1,0.00013571,9.8712e-08,0,0.00021672,2.8459e-05,5.3854e+07,33182,0,8.6635e+07,4726.8,12606,618.61,0,618.61,0,0.00016587,2.2753e-07,0,8.2661e-05,3.1103e-05,6.6576e+07,77027,0,3.3143e+07,5961.4,618.61,1
2137,1.03,12073,1,12073,1,1.0457e-06,2.5016e-09,0,0.00014504,-1.8486e-07,-3.3342e+05,844.31,0,5.8234e+07,293.52,12072,13208,1,13208,1,0.00028218,5.4473e-07,0,0.00028218,5.2201e-05,1.1162e+08,1.8355e+05,0,1.1324e+08,18401,13207,12073,1,12073,1,-8.4548e-06,-7.4221e-09,0,0.00015306,1.5971e-06,-3.4397e+06,-2538.6,0,6.2184e+07,-3.9043,12072,10979,1,10979,1,-0.00027841,-3.9648e-07,0,8.4537e-06,-5.2889e-05,-1.1324e+08,-1.337e+05,0,3.4392e+06,-15048,10978,11538,1,11538,1,-0.00015307,-1.2775e-07,0,7.4186e-05,-2.5631e-05,-6.2257e+07,-43006,0,2.9524e+07,-3704.9,11537,12607,1,12607,1,0.00013675,1.0284e-07,0,0.00021875,2.8719e-05,5.4269e+07,35136,0,8.7449e+07,3591.7,12606,618.61,0,618.61,0,0.00016733,1.9589e-07,0,8.3389e-05,3.1378e-05,6.7161e+07,66340,0,3.3434e+07,5802.5,618.61,1
2137,1.04,12073,1,12073,1,1.0482e-06,-5.3716e-08,0,0.00014575,-1.854e-07,-3.3677e+05,-18186,0,5.8516e+07,250.8,12072,13208,1,13208,1,0.00028411,6.7266e-07,0,0.00028411,5.2577e-05,1.1238e+08,2.2684e+05,0,1.1405e+08,21303,13207,12073,1,12073,1,-8.4963e-06,-3.9761e-08,0,0.00015371,1.6043e-06,-3.4567e+06,-13257,0,6.244e+07,-32.583,12072,10979,1,10979,1,-0.0002804,-6.5305e-07,0,8.4968e-06,-5.3255e-05,-1.1405e+08,-2.2086e+05,0,3.4567e+06,-21311,10978,11538,1,11538,1,-0.00015371,-2.456e-07,0,7.4491e-05,-2.5813e-05,-6.2519e+07,-82640,0,2.9645e+07,-5330.8,11537,12607,1,12607,1,0.00013772,8.9423e-08,0,0.00021965,2.8849e-05,5.4651e+07,30180,0,8.7815e+07,5461.1,12606,618.61,0,618.61,0,0.00016814,2.7881e-07,0,8.3788e-05,3.1534e-05,6.7485e+07,94414,0,3.3593e+07,7891,618.61,1
2137,1.05,12073,1,12073,1,1.0717e-06,1.7158e-08,0,0.00014734,-1.8932e-07,-3.3596e+05,5806.7,0,5.9156e+07,403.82,12072,13208,1,13208,1,0.00028697,6.5541e-07,0,0.00028697,5.3082e-05,1.135e+08,2.2102e+05,0,1.1516e+08,20642,13207,12073,1,12073,1,-8.5771e-06,-1.8896e-09,0,0.00015542,1.6198e-06,-3.4897e+06,-629.43,0,6.3153e+07,119.2,12072,10979,1,10979,1,-0.00028312,-4.7731e-07,0,8.5759e-06,-5.3787e-05,-1.1516e+08,-1.6096e+05,0,3.489e+06,-17002,10978,11538,1,11538,1,-0.00015543,-1.398e-07,0,7.5352e-05,-2.6054e-05,-6.3217e+07,-47445,0,2.9988e+07,-4249.5,11537,12607,1,12607,1,0.00013902,1.5419e-07,0,0.00022215,2.9167e-05,5.5171e+07,52357,0,8.8796e+07,4678.2,12606,618.61,0,618.61,0,0.00016998,2.4051e-07,0,8.4708e-05,3.1876e-05,6.8222e+07,81455,0,3.3962e+07,6893.2,618.61,1
2137,1.06,12073,1,12073,1,1.0899e-06,5.5469e-09,0,0.00014888,-1.9488e-07,-3.3777e+05,1881.6,0,5.9773e+07,-546.25,12072,13208,1,13208,1,0.00028997,7.4715e-07,0,0.00028997,5.3643e-05,1.1468e+08,2.5195e+05,0,1.1638e+08,22581,13207,12073,1,12073,1,-8.6593e-06,-7.8954e-09,0,0.00015699,1.6277e-06,-3.5231e+06,-2635.1,0,6.3792e+07,-414.59,12072,10979,1,10979,1,-0.00028612,-5.2549e-07,0,8.6589e-06,-5.4348e-05,-1.1638e+08,-1.772e+05,0,3.5226e+06,-22140,10978,11538,1,11538,1,-0.000157,-1.9552e-07,0,7.6117e-05,-2.6347e-05,-6.3856e+07,-66007,0,3.0292e+07,-6127.3,11537,12607,1,12607,1,0.00014054,1.681e-07,0,0.00022439,2.9465e-05,5.577e+07,56569,0,8.9691e+07,4389.7,12606,618.61,0,618.61,0,0.00017175,2.8245e-07,0,8.5591e-05,3.221e-05,6.8933e+07,95676,0,3.4314e+07,7996.5,618.61,1
2137,1.07,12073,1,12073,1,1.095e-06,-5.3965e-08,0,0.00015042,-1.9384e-07,-3.4454e+05,-18280,0,6.0392e+07,231.54,12072,13208,1,13208,1,0.00029288,4.9244e-07,0,0.00029288,5.4193e-05,1.1582e+08,1.6606e+05,0,1.1756e+08,16913,13207,12073,1,12073,1,-8.7544e-06,-4.4872e-08,0,0.0001587,1.6309e-06,-3.5625e+06,-15146,0,6.4477e+07,-93.989,12072,10979,1,10979,1,-0.00028902,-4.3005e-07,0,8.7576e-06,-5.4898e-05,-1.1756e+08,-1.4502e+05,0,3.5628e+06,-15903,10978,11538,1,11538,1,-0.0001587,-1.9979e-07,0,7.6922e-05,-2.661e-05,-6.4548e+07,-68010,0,3.0614e+07,-3838.8,11537,12607,1,12607,1,0.00014198,5.0871e-08,0,0.00022682,2.9785e-05,5.6342e+07,17264,0,9.0668e+07,3555.9,12606,618.61,0,618.61,0,0.00017354,1.9944e-07,0,8.6485e-05,3.2541e-05,6.9648e+07,67545,0,3.4671e+07,5961.3,618.61,1
2137,1.08,12073,1,12073,1,1.1077e-06,-2.3195e-08,0,0.00015138,-1.982e-07,-3.4547e+05,-7852.4,0,6.0774e+07,-616.67,12072,13208,1,13208,1,0.00029493,7.4109e-07,0,0.00029493,5.4571e-05,1.1662e+08,2.4991e+05,0,1.1838e+08,21377,13207,12073,1,12073,1,-8.8031e-06,-2.2448e-08,0,0.00015962,1.6581e-06,-3.5817e+06,-7654.4,0,6.4857e+07,-670.88,12072,10979,1,10979,1,-0.00029104,-6.1113e-07,0,8.8035e-06,-5.5284e-05,-1.1838e+08,-2.0608e+05,0,3.5815e+06,-20758,10978,11538,1,11538,1,-0.00015963,-2.4395e-07,0,7.7388e-05,-2.6799e-05,-6.4924e+07,-81866,0,3.0798e+07,-6518.7,11537,12607,1,12607,1,0.00014297,1.5326e-07,0,0.00022814,2.9961e-05,5.6734e+07,51976,0,9.1193e+07,4657,12606,618.61,0,618.61,0,0.00017464,3.0487e-07,0,8.7027e-05,3.2751e-05,7.0087e+07,1.0327e+05,0,3.4888e+07,7887.8,618.61,1
2137,1.09,12073,1,12073,1,1.1271e-06,2.931e-09,0,0.00015285,-1.9913e-07,-3.4573e+05,987.55,0,6.1365e+07,472.85,12072,13208,1,13208,1,0.0002978,7.4313e-07,0,0.0002978,5.5077e-05,1.1775e+08,2.5059e+05,0,1.1948e+08,25495,13207,12073,1,12073,1,-8.8864e-06,-1.2479e-08,0,0.0001612,1.6772e-06,-3.6151e+06,-4158.1,0,6.5508e+07,-9.5642,12072,10979,1,10979,1,-0.00029376,-5.3936e-07,0,8.8849e-06,-5.5816e-05,-1.1948e+08,-1.8188e+05,0,3.6148e+06,-20632,10978,11538,1,11538,1,-0.0001612,-1.7928e-07,0,7.817e-05,-2.7045e-05,-6.5567e+07,-60725,0,3.1109e+07,-5025.9,11537,12607,1,12607,1,0.00014427,1.4821e-07,0,0.00023043,3.0252e-05,5.7252e+07,49901,0,9.2097e+07,5180,12606,618.61,0,618.61,0,0.00017634,2.7191e-07,0,8.7875e-05,3.3069e-05,7.0769e+07,92088,0,3.5227e+07,8021,618.61,1
2137,1.1,12073,1,12073,1,1.1453e-06,-6.4615e-08,0,0.00015466,-2.0083e-07,-3.4872e+05,-21886,0,6.2092e+07,1120.8,12072,13208,1,13208,1,0.00030124,4.6563e-07,0,0.00030124,5.5735e-05,1.191e+08,1.5652e+05,0,1.209e+08,23326,13207,12073,1,12073,1,-8.984e-06,-4.4294e-08,0,0.00016315,1.6901e-06,-3.6535e+06,-14959,0,6.6303e+07,592.19,12072,10979,1,10979,1,-0.00029724,-4.7335e-07,0,8.9759e-06,-5.6464e-05,-1.209e+08,-1.5962e+05,0,3.6498e+06,-13606,10978,11538,1,11538,1,-0.00016315,-2.1225e-07,0,7.9109e-05,-2.7368e-05,-6.6357e+07,-72055,0,3.1484e+07,-3591.5,11537,12607,1,12607,1,0.00014604,4.4605e-08,0,0.00023324,3.0618e-05,5.7956e+07,15008,0,9.3214e+07,4417.1,12606,618.61,0,618.61,0,0.00017843,2.0631e-07,0,8.8923e-05,3.3459e-05,7.1608e+07,69861,0,3.5646e+07,6394.4,618.61,1
2137,1.11,12073,1,12073,1,1.1273e-06,-5.5127e-09,0,0.00015606,-1.9701e-07,-3.6641e+05,-1886.1,0,6.2648e+07,1260.6,12072,13208,1,13208,1,0.00030395,7.8203e-07,0,0.00030395,5.6236e-05,1.2014e+08,2.6371e+05,0,1.2199e+08,31458,13207,12073,1,12073,1,-9.0879e-06,-2.2561e-08,0,0.00016458,1.7105e-06,-3.6978e+06,-7711.4,0,6.6858e+07,359.18,12072,10979,1,10979,1,-0.00029992,-5.5523e-07,0,9.0872e-06,-5.6967e-05,-1.2199e+08,-1.8724e+05,0,3.6975e+06,-18262,10978,11538,1,11538,1,-0.00016458,-2.1697e-07,0,7.9767e-05,-2.7608e-05,-6.694e+07,-73219,0,3.1744e+07,-4388.1,11537,12607,1,12607,1,0.00014732,1.5716e-07,0,0.00023519,3.0885e-05,5.8464e+07,53502,0,9.4024e+07,5343.9,12606,618.61,0,618.61,0,0.00018004,2.989e-07,0,8.9718e-05,3.3763e-05,7.2247e+07,1.0123e+05,0,3.5961e+07,8933.1,618.61,1
2137,1.12,12073,1,12073,1,1.1737e-06,3.2715e-08,0,0.0001573,-2.1151e-07,-3.5706e+05,11078,0,6.3143e+07,-1205,12072,13208,1,13208,1,0.00030634,7.1829e-07,0,0.00030634,5.6659e-05,1.2106e+08,2.4168e+05,0,1.2292e+08,18073,13207,12073,1,12073,1,-9.1293e-06,-1.7586e-09,0,0.00016594,1.7163e-06,-3.7144e+06,-584.78,0,6.7445e+07,-1204.3,12072,10979,1,10979,1,-0.00030219,-4.3712e-07,0,9.1289e-06,-5.7413e-05,-1.2292e+08,-1.474e+05,0,3.7143e+06,-22591,10978,11538,1,11538,1,-0.00016594,-1.1012e-07,0,8.0486e-05,-2.7843e-05,-6.7494e+07,-37037,0,3.2031e+07,-5257.3,11537,12607,1,12607,1,0.00014844,1.3776e-07,0,0.00023724,3.1132e-05,5.8906e+07,46523,0,9.4815e+07,3025.9,12606,618.61,0,618.61,0,0.00018147,2.3027e-07,0,9.0433e-05,3.4029e-05,7.2818e+07,78006,0,3.6244e+07,6342.5,618.61,1
2137,1.13,12073,1,12073,1,1.178e-06,-5.5053e-09,0,0.00015897,-2.1296e-07,-3.6752e+05,-1863.2,0,6.3814e+07,-1535.3,12072,13208,1,13208,1,0.00030931,5.3542e-07,0,0.00030931,5.7223e-05,1.2221e+08,1.8055e+05,0,1.2413e+08,15438,13207,12073,1,12073,1,-9.2288e-06,-6.1655e-09,0,0.0001677,1.7277e-06,-3.7549e+06,-2077.3,0,6.8152e+07,-1249.6,12072,10979,1,10979,1,-0.00030519,-4.6441e-07,0,9.2248e-06,-5.7978e-05,-1.2413e+08,-1.5745e+05,0,3.7532e+06,-15448,10978,11538,1,11538,1,-0.00016771,-1.4745e-07,0,8.1324e-05,-2.811e-05,-6.8213e+07,-49545,0,3.2364e+07,-5932.7,11537,12607,1,12607,1,0.00014997,1.1937e-07,0,0.00023975,3.1465e-05,5.9514e+07,40201,0,9.5818e+07,2907.3,12606,618.61,0,618.61,0,0.0001834,2.152e-07,0,9.1401e-05,3.4391e-05,7.3591e+07,72941,0,3.6629e+07,5700.7,618.61,1
2137,1.14,12073,1,12073,1,1.1995e-06,-7.0628e-09,0,0.00016007,-2.1528e-07,-3.6842e+05,-2403.3,0,6.4251e+07,-861.1,12072,13208,1,13208,1,0.00031155,6.6969e-07,0,0.00031155,5.7628e-05,1.2307e+08,2.2583e+05,0,1.2501e+08,19807,13207,12073,1,12073,1,-9.2836e-06,-1.2941e-08,0,0.00016883,1.7454e-06,-3.7766e+06,-4432.4,0,6.8619e+07,-834.58,12072,10979,1,10979,1,-0.00030735,-5.5763e-07,0,9.2779e-06,-5.8395e-05,-1.2501e+08,-1.8884e+05,0,3.7741e+06,-17306,10978,11538,1,11538,1,-0.00016883,-1.7409e-07,0,8.1891e-05,-2.8317e-05,-6.8668e+07,-58520,0,3.259e+07,-5888,11537,12607,1,12607,1,0.00015108,1.2574e-07,0,0.00024139,3.1679e-05,5.9955e+07,42718,0,9.6463e+07,4337.3,12606,618.61,0,618.61,0,0.00018467,2.571e-07,0,9.203e-05,3.4631e-05,7.4093e+07,87114,0,3.6876e+07,6747.9,618.61,1
2137,1.15,12073,1,12073,1,1.2346e-06,1.2285e-09,0,0.00016375,-2.1972e-07,-3.7642e+05,415.77,0,6.5727e+07,-106.52,12072,13208,1,13208,1,0.00031755,5.0123e-09,0,0.00031755,5.8735e-05,1.2542e+08,1716.4,0,1.2739e+08,103.45,13207,12073,1,12073,1,-9.5074e-06,1.406e-09,0,0.00017302,1.8001e-06,-3.8677e+06,476.98,0,7.0328e+07,-103.9,12072,10979,1,10979,1,-0.00031321,-3.0392e-09,0,9.5068e-06,-5.9526e-05,-1.2739e+08,-1014.1,0,3.8674e+06,-316.01,10978,11538,1,11538,1,-0.00017302,-2.8565e-11,0,8.3925e-05,-2.8865e-05,-7.0376e+07,-9.4429,0,3.3401e+07,-182.99,11537,12607,1,12607,1,0.00015402,2.424e-09,0,0.00024744,3.245e-05,6.112e+07,816.82,0,9.888e+07,-20.482,12606,618.61,0,618.61,0,0.00018893,1.6075e-09,0,9.4166e-05,3.5421e-05,7.5798e+07,544.71,0,3.7729e+07,99.299,618.61,1
2137,1.16,12073,1,12073,1,1.2358e-06,-1.043e-09,0,0.00016373,-2.1932e-07,-3.8464e+05,-353.11,0,6.5706e+07,140.21,12072,13208,1,13208,1,0.00031816,3.4539e-07,0,0.00031816,5.884e-05,1.256e+08,1.1647e+05,0,1.2764e+08,11799,13207,12073,1,12073,1,-9.4898e-06,-5.2378e-09,0,0.00017283,1.7891e-06,-3.8609e+06,-1745.8,0,7.0254e+07,-30.329,12072,10979,1,10979,1,-0.00031381,-3.2822e-07,0,9.4893e-06,-5.963e-05,-1.2764e+08,-1.1113e+05,0,3.8606e+06,-7725.3,10978,11538,1,11538,1,-0.00017283,-7.4634e-08,0,8.3856e-05,-2.8912e-05,-7.0297e+07,-25312,0,3.3373e+07,-2767.1,11537,12607,1,12607,1,0.00015426,6.8178e-08,0,0.00024717,3.242e-05,6.1215e+07,23147,0,9.8762e+07,2690.7,12606,618.61,0,618.61,0,0.00018889,1.3254e-07,0,9.414e-05,3.5418e-05,7.577e+07,44917,0,3.7708e+07,3753.7,618.61,1
2137,1.17,12073,1,12073,1,1.2401e-06,-6.239e-08,0,0.00016458,-2.2112e-07,-3.8768e+05,-21107,0,6.6047e+07,-295.8,12072,13208,1,13208,1,0.0003205,4.9761e-07,0,0.0003205,5.9285e-05,1.2653e+08,1.678e+05,0,1.2861e+08,16633,13207,12073,1,12073,1,-9.5345e-06,-4.4609e-08,0,0.00017359,1.79e-06,-3.8786e+06,-15100,0,7.0554e+07,-153.28,12072,10979,1,10979,1,-0.00031619,-5.5631e-07,0,9.5343e-06,-6.0074e-05,-1.2861e+08,-1.876e+05,0,3.8785e+06,-16254,10978,11538,1,11538,1,-0.0001736,-2.2291e-07,0,8.4218e-05,-2.9129e-05,-7.0607e+07,-75929,0,3.3515e+07,-4350.1,11537,12607,1,12607,1,0.0001554,6.372e-08,0,0.00024821,3.2571e-05,6.1668e+07,21796,0,9.919e+07,4247.6,12606,618.61,0,618.61,0,0.00018987,2.2775e-07,0,9.4622e-05,3.5604e-05,7.6162e+07,77146,0,3.7901e+07,6177,618.61,1
2137,1.18,12073,1,12073,1,1.2537e-06,-2.1852e-08,0,0.00016637,-2.2455e-07,-3.9388e+05,-7400,0,6.6767e+07,-723.32,12072,13208,1,13208,1,0.00032362,4.7469e-07,0,0.00032362,5.9858e-05,1.2773e+08,1.6007e+05,0,1.2985e+08,10822,13207,12073,1,12073,1,-9.6385e-06,-1.3844e-08,0,0.00017553,1.8166e-06,-3.921e+06,-4630.7,0,7.1344e+07,-660.05,12072,10979,1,10979,1,-0.00031923,-4.5914e-07,0,9.6377e-06,-6.0659e-05,-1.2985e+08,-1.5566e+05,0,3.9207e+06,-16093,10978,11538,1,11538,1,-0.00017553,-1.3979e-07,0,8.5158e-05,-2.9417e-05,-7.1395e+07,-47408,0,3.3891e+07,-4566.7,11537,12607,1,12607,1,0.00015694,8.0943e-08,0,0.000251,3.2934e-05,6.2278e+07,27313,0,1.003e+08,3723.4,12606,618.61,0,618.61,0,0.00019194,1.8963e-07,0,9.5658e-05,3.5991e-05,7.6992e+07,64274,0,3.8314e+07,5064.4,618.61,1
2137,1.19,12073,1,12073,1,1.2953e-06,-7.2467e-08,0,0.00016751,-2.3225e-07,-3.8785e+05,-24536,0,6.7219e+07,-732.75,12072,13208,1,13208,1,0.0003263,4.1025e-07,0,0.0003263,6.0346e-05,1.2876e+08,1.3961e+05,0,1.309e+08,20514,13207,12073,1,12073,1,-9.6748e-06,-4.8343e-08,0,0.00017666,1.8221e-06,-3.9363e+06,-16418,0,7.1822e+07,-665.02,12072,10979,1,10979,1,-0.00032183,-5.1846e-07,0,9.6747e-06,-6.1162e-05,-1.309e+08,-1.757e+05,0,3.9358e+06,-12220,10978,11538,1,11538,1,-0.00017666,-2.1517e-07,0,8.5748e-05,-2.9659e-05,-7.1855e+07,-72880,0,3.4125e+07,-4563.3,11537,12607,1,12607,1,0.00015824,4.3017e-08,0,0.00025267,3.3141e-05,6.2793e+07,14550,0,1.0095e+08,2772.8,12606,618.61,0,618.61,0,0.00019326,2.05e-07,0,9.6314e-05,3.6238e-05,7.7511e+07,69463,0,3.8571e+07,5180.8,618.61,1
2137,1.2,12073,1,12073,1,1.2973e-06,-6.9905e-08,0,0.0001686,-2.3196e-07,-3.959e+05,-23671,0,6.7654e+07,-493.24,12072,13208,1,13208,1,0.0003286,5.0835e-07,0,0.0003286,6.0775e-05,1.2964e+08,1.7142e+05,0,1.3183e+08,18816,13207,12073,1,12073,1,-9.7381e-06,-4.2853e-08,0,0.00017778,1.8352e-06,-3.9619e+06,-14427,0,7.2274e+07,-514.65,12072,10979,1,10979,1,-0.00032411,-5.8826e-07,0,9.7391e-06,-6.1594e-05,-1.3183e+08,-1.9937e+05,0,3.9621e+06,-12457,10978,11538,1,11538,1,-0.00017779,-2.301e-07,0,8.6289e-05,-2.9867e-05,-7.2311e+07,-77885,0,3.434e+07,-5023.2,11537,12607,1,12607,1,0.00015935,6.0121e-08,0,0.00025425,3.3356e-05,6.3234e+07,20339,0,1.0159e+08,3554.3,12606,618.61,0,618.61,0,0.00019452,2.3618e-07,0,9.6939e-05,3.6475e-05,7.8012e+07,80038,0,3.8818e+07,5925.5,618.61,1
2137,1.21,12073,1,12073,1,1.3227e-06,-6.1624e-08,0,0.00017041,-2.3725e-07,-3.984e+05,-20879,0,6.8376e+07,-778.61,12072,13208,1,13208,1,0.00033214,5.6896e-07,0,0.00033214,6.1426e-05,1.3101e+08,1.9186e+05,0,1.3324e+08,15776,13207,12073,1,12073,1,-9.8361e-06,-3.0299e-08,0,0.00017967,1.8407e-06,-4.0013e+06,-10077,0,7.305e+07,-666.41,12072,10979,1,10979,1,-0.00032758,-6.0524e-07,0,9.8373e-06,-6.2258e-05,-1.3324e+08,-2.0511e+05,0,4.0015e+06,-18999,10978,11538,1,11538,1,-0.00017968,-2.4226e-07,0,8.7217e-05,-3.0188e-05,-7.308e+07,-82223,0,3.471e+07,-6243.3,11537,12607,1,12607,1,0.00016106,7.7516e-08,0,0.000257,3.3721e-05,6.3913e+07,26396,0,1.0267e+08,4002.8,12606,618.61,0,618.61,0,0.0001966,2.5885e-07,0,9.7977e-05,3.6866e-05,7.8844e+07,87709,0,3.9231e+07,6975.3,618.61,1
2137,1.22,12073,1,12073,1,1.3575e-06,-7.2257e-08,0,0.00017159,-2.4275e-07,-3.9559e+05,-24469,0,6.8844e+07,-400.3,12072,13208,1,13208,1,0.00033433,4.7973e-07,0,0.00033433,6.1821e-05,1.3184e+08,1.6177e+05,0,1.341e+08,12916,13207,12073,1,12073,1,-9.8786e-06,-4.9458e-08,0,0.00018092,1.8563e-06,-4.019e+06,-16535,0,7.3568e+07,-110.73,12072,10979,1,10979,1,-0.00032969,-5.4583e-07,0,9.8784e-06,-6.2669e-05,-1.341e+08,-1.8501e+05,0,4.0183e+06,-19801,10978,11538,1,11538,1,-0.00018092,-2.1789e-07,0,8.785e-05,-3.039e-05,-7.3586e+07,-74139,0,3.4962e+07,-4571,11537,12607,1,12607,1,0.00016215,4.1848e-08,0,0.00025881,3.3948e-05,6.4345e+07,14120,0,1.0338e+08,4017.1,12606,618.61,0,618.61,0,0.00019796,2.137e-07,0,9.8656e-05,3.712e-05,7.9382e+07,72439,0,3.9497e+07,5874.3,618.61,1
2137,1.23,12073,1,12073,1,1.3759e-06,7.0837e-09,0,0.00017346,-2.4664e-07,-4.0175e+05,2399.8,0,6.9593e+07,-654.13,12072,13208,1,13208,1,0.00033772,5.8225e-07,0,0.00033772,6.2431e-05,1.3317e+08,1.9634e+05,0,1.3542e+08,20329,13207,12073,1,12073,1,-9.9776e-06,-6.7361e-09,0,0.00018291,1.8724e-06,-4.0596e+06,-2254.3,0,7.4394e+07,-506.74,12072,10979,1,10979,1,-0.00033294,-4.6309e-07,0,9.9762e-06,-6.3297e-05,-1.3542e+08,-1.5696e+05,0,4.059e+06,-14893,10978,11538,1,11538,1,-0.00018291,-1.2473e-07,0,8.8856e-05,-3.0674e-05,-7.4395e+07,-42255,0,3.5362e+07,-5391.4,11537,12607,1,12607,1,0.00016369,1.2208e-07,0,0.00026174,3.4315e-05,6.4957e+07,41230,0,1.0452e+08,3903.1,12606,618.61,0,618.61,0,0.00020012,2.1783e-07,0,9.9735e-05,3.7525e-05,8.0245e+07,73828,0,3.9925e+07,6408,618.61,1
2137,1.24,12073,1,12073,1,1.3945e-06,-6.9645e-10,0,0.00017479,-2.4991e-07,-4.0672e+05,-234.41,0,7.0119e+07,-614.61,12072,13208,1,13208,1,0.00034014,6.4042e-07,0,0.00034014,6.289e-05,1.3408e+08,2.1595e+05,0,1.3642e+08,19347,13207,12073,1,12073,1,-1.0046e-05,-1.0764e-08,0,0.00018429,1.8893e-06,-4.0871e+06,-3575.8,0,7.4958e+07,-357.61,12072,10979,1,10979,1,-0.00033539,-4.8468e-07,0,1.0045e-05,-6.3758e-05,-1.3642e+08,-1.6414e+05,0,4.0869e+06,-14495,10978,11538,1,11538,1,-0.0001843,-1.6871e-07,0,8.9536e-05,-3.0924e-05,-7.496e+07,-57048,0,3.5632e+07,-5089.4,11537,12607,1,12607,1,0.00016498,1.3214e-07,0,0.00026373,3.4578e-05,6.5469e+07,44875,0,1.0532e+08,3535.9,12606,618.61,0,618.61,0,0.00020165,2.4678e-07,0,0.0001005,3.7813e-05,8.0851e+07,83624,0,4.0224e+07,6250.7,618.61,1
2137,1.25,12073,1,12073,1,1.4336e-06,-2.916e-08,0,0.00017621,-2.5605e-07,-4.0489e+05,-9890.2,0,7.0683e+07,-178.62,12072,13208,1,13208,1,0.00034297,5.5667e-07,0,0.00034297,6.3406e-05,1.3515e+08,1.8754e+05,0,1.3754e+08,14121,13207,12073,1,12073,1,-1.0114e-05,-1.7035e-08,0,0.0001858,1.9082e-06,-4.1144e+06,-5728.9,0,7.5569e+07,-445.1,12072,10979,1,10979,1,-0.00033814,-5.3214e-07,0,1.0113e-05,-6.4287e-05,-1.3754e+08,-1.7944e+05,0,4.114e+06,-12285,10978,11538,1,11538,1,-0.0001858,-1.7227e-07,0,9.029e-05,-3.1193e-05,-7.557e+07,-58138,0,3.5933e+07,-4753.6,11537,12607,1,12607,1,0.00016638,8.6811e-08,0,0.00026594,3.4863e-05,6.6018e+07,29131,0,1.0618e+08,4030.7,12606,618.61,0,618.61,0,0.00020329,2.1899e-07,0,0.00010131,3.8119e-05,8.1499e+07,74143,0,4.0545e+07,5737.6,618.61,1
2137,1.26,12073,1,12073,1,1.4547e-06,-8.4532e-08,0,0.00017727,-2.5881e-07,-4.0849e+05,-28627,0,7.11e+07,276.19,12072,13208,1,13208,1,0.00034543,6.1473e-07,0,0.00034543,6.3854e-05,1.3608e+08,2.0729e+05,0,1.3851e+08,21395,13207,12073,1,12073,1,-1.0157e-05,-6.0031e-08,0,0.00018684,1.9188e-06,-4.1322e+06,-20461,0,7.5993e+07,-361.45,12072,10979,1,10979,1,-0.00034054,-6.3522e-07,0,1.0158e-05,-6.4748e-05,-1.3851e+08,-2.142e+05,0,4.1323e+06,-14399,10978,11538,1,11538,1,-0.00018684,-2.5981e-07,0,9.0813e-05,-3.1417e-05,-7.5994e+07,-87703,0,3.6142e+07,-4507.9,11537,12607,1,12607,1,0.00016757,4.2409e-08,0,0.00026745,3.5061e-05,6.6486e+07,14113,0,1.0678e+08,4117.6,12606,618.61,0,618.61,0,0.00020451,2.538e-07,0,0.00010192,3.835e-05,8.1979e+07,85951,0,4.0781e+07,6672,618.61,1
2137,1.27,12073,1,12073,1,1.4818e-06,-2.6894e-08,0,0.00017888,-2.656e-07,-4.1153e+05,-9126.3,0,7.1744e+07,-504.04,12072,13208,1,13208,1,0.00034822,6.3613e-07,0,0.00034822,6.4369e-05,1.3714e+08,2.144e+05,0,1.3963e+08,16040,13207,12073,1,12073,1,-1.0241e-05,-1.8315e-08,0,0.00018857,1.9292e-06,-4.1662e+06,-6129.2,0,7.6699e+07,-838.46,12072,10979,1,10979,1,-0.00034328,-5.5559e-07,0,1.024e-05,-6.527e-05,-1.3963e+08,-1.8735e+05,0,4.1654e+06,-15422,10978,11538,1,11538,1,-0.00018857,-1.8543e-07,0,9.1679e-05,-3.1672e-05,-7.6699e+07,-62837,0,3.6486e+07,-5348.2,11537,12607,1,12607,1,0.00016894,9.5012e-08,0,0.00026998,3.5384e-05,6.7022e+07,32251,0,1.0777e+08,3949.7,12606,618.61,0,618.61,0,0.00020637,2.3997e-07,0,0.00010285,3.8698e-05,8.272e+07,81246,0,4.1148e+07,6302.2,618.61,1
2137,1.28,12073,1,12073,1,1.5245e-06,1.1391e-08,0,0.00018025,-2.7305e-07,-4.0938e+05,3832.3,0,7.2286e+07,-334.92,12072,13208,1,13208,1,0.00035108,7.23e-07,0,0.00035108,6.4864e-05,1.3824e+08,2.438e+05,0,1.4071e+08,16847,13207,12073,1,12073,1,-1.0286e-05,-2.9495e-09,0,0.00018997,1.936e-06,-4.1848e+06,-1010.4,0,7.7265e+07,-544.75,12072,10979,1,10979,1,-0.00034594,-5.8521e-07,0,1.0285e-05,-6.5799e-05,-1.4071e+08,-1.9733e+05,0,4.1843e+06,-16615,10978,11538,1,11538,1,-0.00018997,-1.6552e-07,0,9.2406e-05,-3.1909e-05,-7.7267e+07,-56373,0,3.6775e+07,-5816.2,11537,12607,1,12607,1,0.00017025,1.6712e-07,0,0.00027203,3.565e-05,6.7539e+07,56588,0,1.0857e+08,4651.2,12606,618.61,0,618.61,0,0.00020795,2.6962e-07,0,0.00010364,3.8995e-05,8.3343e+07,91279,0,4.1455e+07,6882,618.61,1
2137,1.29,12073,1,12073,1,1.5617e-06,-1.4329e-09,0,0.00018177,-2.8035e-07,-4.0947e+05,-507.47,0,7.2888e+07,-540.68,12072,13208,1,13208,1,0.00035387,6.4355e-07,0,0.00035387,6.5368e-05,1.3929e+08,2.1698e+05,0,1.418e+08,14554,13207,12073,1,12073,1,-1.0352e-05,-4.7658e-09,0,0.00019157,1.9516e-06,-4.2114e+06,-1603.7,0,7.7919e+07,-813.14,12072,10979,1,10979,1,-0.00034863,-5.3468e-07,0,1.0351e-05,-6.6323e-05,-1.418e+08,-1.8029e+05,0,4.2098e+06,-14905,10978,11538,1,11538,1,-0.00019158,-1.547e-07,0,9.3219e-05,-3.2177e-05,-7.792e+07,-52437,0,3.7099e+07,-5482.1,11537,12607,1,12607,1,0.00017166,1.2784e-07,0,0.00027439,3.5948e-05,6.8091e+07,43624,0,1.0949e+08,4039.9,12606,618.61,0,618.61,0,0.00020971,2.3701e-07,0,0.00010451,3.9322e-05,8.4036e+07,80237,0,4.1799e+07,6226.4,618.61,1
2137,1.3,12073,1,12073,1,1.5851e-06,-3.0669e-08,0,0.00018316,-2.8471e-07,-4.1514e+05,-10400,0,7.3439e+07,-589.7,12072,13208,1,13208,1,0.00035661,6.2334e-07,0,0.00035661,6.5892e-05,1.4032e+08,2.1019e+05,0,1.4293e+08,17090,13207,12073,1,12073,1,-1.042e-05,-2.3454e-08,0,0.00019303,1.9637e-06,-4.2394e+06,-7889,0,7.8513e+07,-1027.5,12072,10979,1,10979,1,-0.0003514,-5.3945e-07,0,1.042e-05,-6.6842e-05,-1.4293e+08,-1.819e+05,0,4.2376e+06,-14262,10978,11538,1,11538,1,-0.00019304,-1.8816e-07,0,9.3944e-05,-3.2441e-05,-7.8514e+07,-63849,0,3.7387e+07,-5318.7,11537,12607,1,12607,1,0.00017304,8.2883e-08,0,0.00027653,3.6219e-05,6.8635e+07,27938,0,1.1033e+08,3585.6,12606,618.61,0,618.61,0,0.00021131,2.3489e-07,0,0.00010531,3.9624e-05,8.4671e+07,79523,0,4.2112e+07,6220.5,618.61,1
2137,1.31,12073,1,12073,1,1.5965e-06,1.4676e-08,0,0.00018449,-2.8516e-07,-4.2466e+05,4944.5,0,7.3964e+07,50.494,12072,13208,1,13208,1,0.00035922,6.1377e-07,0,0.00035922,6.6357e-05,1.4131e+08,2.068e+05,0,1.4394e+08,15366,13207,12073,1,12073,1,-1.0493e-05,1.8677e-09,0,0.00019445,1.982e-06,-4.269e+06,620.26,0,7.9089e+07,-26.718,12072,10979,1,10979,1,-0.0003539,-5.0741e-07,0,1.0492e-05,-6.7323e-05,-1.4394e+08,-1.711e+05,0,4.2686e+06,-13595,10978,11538,1,11538,1,-0.00019446,-1.1362e-07,0,9.4643e-05,-3.2643e-05,-7.9092e+07,-38656,0,3.7666e+07,-4801.7,11537,12607,1,12607,1,0.00017419,1.3547e-07,0,0.00027856,3.6487e-05,6.9086e+07,45716,0,1.1114e+08,4557.2,12606,618.61,0,618.61,0,0.00021284,2.1715e-07,0,0.00010608,3.9909e-05,8.5273e+07,73506,0,4.241e+07,5931.7,618.61,1
2137,1.32,12073,1,12073,1,1.6227e-06,-1.0383e-08,0,0.00018598,-2.8952e-07,-4.291e+05,-3526,0,7.4557e+07,219.3,12072,13208,1,13208,1,0.00036214,6.7164e-07,0,0.00036214,6.69e-05,1.4242e+08,2.2707e+05,0,1.4512e+08,20320,13207,12073,1,12073,1,-1.0559e-05,-1.5725e-08,0,0.00019596,1.9916e-06,-4.2953e+06,-5386,0,7.9701e+07,-167.27,12072,10979,1,10979,1,-0.00035679,-5.5793e-07,0,1.0557e-05,-6.7871e-05,-1.4512e+08,-1.8813e+05,0,4.2949e+06,-16196,10978,11538,1,11538,1,-0.00019596,-1.8699e-07,0,9.5398e-05,-3.2929e-05,-7.9703e+07,-63303,0,3.7966e+07,-5304.6,11537,12607,1,12607,1,0.0001757,1.3434e-07,0,0.00028075,3.6775e-05,6.968e+07,45176,0,1.12e+08,5015.9,12606,618.61,0,618.61,0,0.00021457,2.631e-07,0,0.00010694,4.0235e-05,8.5956e+07,89090,0,4.2747e+07,7112.7,618.61,1
2137,1.33,12073,1,12073,1,1.6623e-06,-2.6479e-09,0,0.00018711,-2.9874e-07,-4.2717e+05,-919.77,0,7.5e+07,-582.59,12072,13208,1,13208,1,0.00036438,7.4271e-07,0,0.00036438,6.729e-05,1.4325e+08,2.5044e+05,0,1.4597e+08,17194,13207,12073,1,12073,1,-1.0599e-05,-1.0886e-08,0,0.00019712,1.998e-06,-4.3122e+06,-3688.8,0,8.0174e+07,-779.05,12072,10979,1,10979,1,-0.00035888,-5.7362e-07,0,1.0598e-05,-6.8291e-05,-1.4597e+08,-1.9342e+05,0,4.3118e+06,-16438,10978,11538,1,11538,1,-0.00019712,-1.8289e-07,0,9.6001e-05,-3.3139e-05,-8.0175e+07,-61400,0,3.8206e+07,-6004.1,11537,12607,1,12607,1,0.0001768,1.4286e-07,0,0.00028247,3.6991e-05,7.011e+07,48788,0,1.1267e+08,4361.4,12606,618.61,0,618.61,0,0.00021586,2.6947e-07,0,0.00010758,4.0478e-05,8.6465e+07,91220,0,4.2997e+07,6900.7,618.61,1
2137,1.34,12073,1,12073,1,1.6912e-06,-1.0153e-08,0,0.00018865,-3.0365e-07,-4.3022e+05,-3456.2,0,7.5611e+07,-443.41,12072,13208,1,13208,1,0.00036718,6.2696e-07,0,0.00036718,6.782e-05,1.4432e+08,2.1141e+05,0,1.4711e+08,14376,13207,12073,1,12073,1,-1.0673e-05,-9.4798e-09,0,0.00019876,2.0087e-06,-4.3421e+06,-3244.1,0,8.0842e+07,-620.66,12072,10979,1,10979,1,-0.00036169,-5.4518e-07,0,1.0671e-05,-6.8822e-05,-1.4711e+08,-1.8383e+05,0,4.3416e+06,-14996,10978,11538,1,11538,1,-0.00019876,-1.7088e-07,0,9.6821e-05,-3.3411e-05,-8.0843e+07,-57408,0,3.8532e+07,-5417.3,11537,12607,1,12607,1,0.00017821,1.2546e-07,0,0.00028486,3.7297e-05,7.0663e+07,42504,0,1.1361e+08,4159.5,12606,618.61,0,618.61,0,0.00021764,2.4047e-07,0,0.00010847,4.0809e-05,8.7168e+07,81407,0,4.3346e+07,6170,618.61,1
2137,1.35,12073,1,12073,1,1.7124e-06,-1.8503e-08,0,0.0001898,-3.0475e-07,-4.3597e+05,-6279.2,0,7.6065e+07,705.46,12072,13208,1,13208,1,0.00036951,6.7815e-07,0,0.00036951,6.8242e-05,1.4519e+08,2.2867e+05,0,1.4803e+08,20723,13207,12073,1,12073,1,-1.0721e-05,-1.7007e-08,0,0.00019995,2.0253e-06,-4.3619e+06,-5715.4,0,8.1326e+07,196.08,12072,10979,1,10979,1,-0.00036395,-5.9873e-07,0,1.072e-05,-6.926e-05,-1.4803e+08,-2.0188e+05,0,4.3614e+06,-13463,10978,11538,1,11538,1,-0.00019995,-1.8441e-07,0,9.7422e-05,-3.3629e-05,-8.1327e+07,-62456,0,3.8771e+07,-4771.9,11537,12607,1,12607,1,0.00017936,1.1528e-07,0,0.00028661,3.7519e-05,7.1114e+07,38948,0,1.143e+08,4989.2,12606,618.61,0,618.61,0,0.00021897,2.5624e-07,0,0.00010913,4.1059e-05,8.769e+07,86752,0,4.3602e+07,6982,618.61,1
2137,1.36,12073,1,12073,1,1.7549e-06,-3.2232e-08,0,0.00019165,-3.1663e-07,-4.3607e+05,-10912,0,7.6799e+07,-1007.9,12072,13208,1,13208,1,0.00037334,7.1297e-07,0,0.00037334,6.8946e-05,1.4665e+08,2.4167e+05,0,1.4955e+08,18273,13207,12073,1,12073,1,-1.08e-05,-3.0315e-08,0,0.00020183,2.0122e-06,-4.394e+06,-10339,0,8.2089e+07,-777.08,12072,10979,1,10979,1,-0.00036768,-5.822e-07,0,1.0801e-05,-6.9979e-05,-1.4955e+08,-1.9631e+05,0,4.3941e+06,-20632,10978,11538,1,11538,1,-0.00020183,-2.2202e-07,0,9.837e-05,-3.3967e-05,-8.209e+07,-75258,0,3.9149e+07,-6657.1,11537,12607,1,12607,1,0.0001812,1.0572e-07,0,0.00028936,3.7878e-05,7.1839e+07,35440,0,1.1537e+08,4194.2,12606,618.61,0,618.61,0,0.0002211,2.7512e-07,0,0.00011019,4.1459e-05,8.8535e+07,93172,0,4.402e+07,7560.7,618.61,1
2137,1.37,12073,1,12073,1,1.7739e-06,-8.8675e-09,0,0.00019318,-3.2005e-07,-4.4728e+05,-3009.4,0,7.7405e+07,-1023.3,12072,13208,1,13208,1,0.00037607,6.045e-07,0,0.00037607,6.9435e-05,1.4766e+08,2.0383e+05,0,1.5062e+08,12065,13207,12073,1,12073,1,-1.0889e-05,-1.2794e-08,0,0.00020351,2.0489e-06,-4.4297e+06,-4259.1,0,8.2772e+07,-444.3,12072,10979,1,10979,1,-0.0003703,-5.2399e-07,0,1.0888e-05,-7.048e-05,-1.5062e+08,-1.7668e+05,0,4.4296e+06,-20763,10978,11538,1,11538,1,-0.00020351,-1.699e-07,0,9.9184e-05,-3.4211e-05,-8.2773e+07,-57204,0,3.9473e+07,-5871.1,11537,12607,1,12607,1,0.00018252,1.2098e-07,0,0.00029176,3.8187e-05,7.2359e+07,41344,0,1.1633e+08,4502.2,12606,618.61,0,618.61,0,0.00022287,2.434e-07,0,0.00011108,4.1791e-05,8.9232e+07,82422,0,4.4365e+07,6541.9,618.61,1
2137,1.38,12073,1,12073,1,1.8241e-06,1.5152e-08,0,0.00019434,-3.2732e-07,-4.4602e+05,5108.4,0,7.7856e+07,-198.47,12072,13208,1,13208,1,0.00037843,7.0953e-07,0,0.00037843,6.9861e-05,1.4852e+08,2.3931e+05,0,1.5154e+08,15012,13207,12073,1,12073,1,-1.0915e-05,-9.1251e-09,0,0.00020466,2.0515e-06,-4.4407e+06,-3044.7,0,8.3242e+07,-339.78,12072,10979,1,10979,1,-0.00037258,-5.2652e-07,0,1.0917e-05,-7.0924e-05,-1.5154e+08,-1.7816e+05,0,4.4409e+06,-16346,10978,11538,1,11538,1,-0.00020467,-1.695e-07,0,9.9808e-05,-3.4432e-05,-8.3243e+07,-56849,0,3.9719e+07,-5088.2,11537,12607,1,12607,1,0.00018367,1.6823e-07,0,0.0002935,3.841e-05,7.2795e+07,56306,0,1.17e+08,4917.4,12606,618.61,0,618.61,0,0.0002242,2.705e-07,0,0.00011174,4.2042e-05,8.975e+07,91601,0,4.4619e+07,6808.2,618.61,1
2137,1.39,12073,1,12073,1,1.849e-06,-1.8776e-09,0,0.0001957,-3.3183e-07,-4.5252e+05,-657.07,0,7.8394e+07,-205.06,12072,13208,1,13208,1,0.00038093,6.087e-07,0,0.00038093,7.033e-05,1.4946e+08,2.0524e+05,0,1.5256e+08,13334,13207,12073,1,12073,1,-1.0967e-05,-6.7373e-09,0,0.00020611,2.0539e-06,-4.4623e+06,-2288,0,8.3831e+07,-267.51,12072,10979,1,10979,1,-0.00037507,-5.1652e-07,0,1.0965e-05,-7.1396e-05,-1.5256e+08,-1.7489e+05,0,4.4601e+06,-17390,10978,11538,1,11538,1,-0.00020611,-1.6138e-07,0,0.00010053,-3.4669e-05,-8.3832e+07,-54219,0,4.0007e+07,-4793,11537,12607,1,12607,1,0.00018494,1.3233e-07,0,0.00029561,3.868e-05,7.3288e+07,44757,0,1.1783e+08,4718.1,12606,618.61,0,618.61,0,0.00022578,2.3934e-07,0,0.00011253,4.2335e-05,9.0368e+07,81051,0,4.4925e+07,6355.8,618.61,1
2137,1.4,12073,1,12073,1,1.906e-06,-3.0648e-08,0,0.0001972,-3.4308e-07,-4.4854e+05,-10388,0,7.8986e+07,-525.17,12072,13208,1,13208,1,0.00038407,5.7401e-07,0,0.00038407,7.0886e-05,1.5064e+08,1.9354e+05,0,1.5376e+08,14480,13207,12073,1,12073,1,-1.1014e-05,-2.7433e-08,0,0.00020765,2.0614e-06,-4.4818e+06,-9205.8,0,8.4457e+07,-504.05,12072,10979,1,10979,1,-0.00037804,-4.9268e-07,0,1.1011e-05,-7.1986e-05,-1.5376e+08,-1.6682e+05,0,4.479e+06,-17734,10978,11538,1,11538,1,-0.00020765,-1.9674e-07,0,0.00010134,-3.4951e-05,-8.4458e+07,-66573,0,4.0328e+07,-4882.2,11537,12607,1,12607,1,0.00018646,9.0089e-08,0,0.00029792,3.8966e-05,7.388e+07,30348,0,1.1872e+08,3881.6,12606,618.61,0,618.61,0,0.00022751,2.3161e-07,0,0.00011339,4.266e-05,9.105e+07,78434,0,4.5262e+07,6276.1,618.61,1
2137,1.41,12073,1,12073,1,1.9338e-06,1.3759e-08,0,0.00019863,-3.4689e-07,-4.5696e+05,4638.9,0,7.9545e+07,-10.161,12072,13208,1,13208,1,0.00038687,7.214e-07,0,0.00038687,7.1396e-05,1.5168e+08,2.4439e+05,0,1.5488e+08,15957,13207,12073,1,12073,1,-1.1086e-05,-1.0401e-08,0,0.0002091,2.0827e-06,-4.5103e+06,-3497.1,0,8.5046e+07,-227.4,12072,10979,1,10979,1,-0.00038078,-5.3961e-07,0,1.1088e-05,-7.2504e-05,-1.5488e+08,-1.8259e+05,0,4.51e+06,-16375,10978,11538,1,11538,1,-0.0002091,-1.861e-07,0,0.00010207,-3.5202e-05,-8.5048e+07,-62529,0,4.0618e+07,-5273.7,11537,12607,1,12607,1,0.00018781,1.8153e-07,0,0.00030002,3.9245e-05,7.4401e+07,61229,0,1.1954e+08,5219.3,12606,618.61,0,618.61,0,0.00022915,2.8517e-07,0,0.00011421,4.297e-05,9.1692e+07,96568,0,4.5577e+07,7164.1,618.61,1
2137,1.42,12073,1,12073,1,1.9857e-06,-2.9135e-08,0,0.00020015,-3.569e-07,-4.5604e+05,-9872.2,0,8.0143e+07,-216,12072,13208,1,13208,1,0.00038984,5.9085e-07,0,0.00038984,7.193e-05,1.5278e+08,1.9988e+05,0,1.5603e+08,15602,13207,12073,1,12073,1,-1.113e-05,-2.6722e-08,0,0.00021069,2.0878e-06,-4.5282e+06,-8993.9,0,8.5695e+07,-410.08,12072,10979,1,10979,1,-0.00038361,-5.0701e-07,0,1.1125e-05,-7.3064e-05,-1.5603e+08,-1.716e+05,0,4.5257e+06,-16083,10978,11538,1,11538,1,-0.00021069,-2.0132e-07,0,0.0001029,-3.5474e-05,-8.5696e+07,-68146,0,4.0948e+07,-4808.7,11537,12607,1,12607,1,0.00018928,9.8416e-08,0,0.00030241,3.9538e-05,7.4971e+07,32940,0,1.2047e+08,4252.7,12606,618.61,0,618.61,0,0.00023091,2.4117e-07,0,0.00011509,4.3297e-05,9.238e+07,81667,0,4.5917e+07,6413.2,618.61,1
2137,1.43,12073,1,12073,1,2.02e-06,-3.1326e-08,0,0.00020137,-3.6153e-07,-4.6114e+05,-10616,0,8.0622e+07,471.37,12072,13208,1,13208,1,0.00039236,7.4574e-07,0,0.00039236,7.2383e-05,1.537e+08,2.5068e+05,0,1.5701e+08,25961,13207,12073,1,12073,1,-1.1171e-05,-3.4122e-08,0,0.00021193,2.1053e-06,-4.5446e+06,-11679,0,8.6198e+07,-180.3,12072,10979,1,10979,1,-0.00038602,-5.5399e-07,0,1.1171e-05,-7.3539e-05,-1.5701e+08,-1.8743e+05,0,4.5448e+06,-21106,10978,11538,1,11538,1,-0.00021193,-2.2774e-07,0,0.00010354,-3.5717e-05,-8.6201e+07,-76893,0,4.12e+07,-4750.8,11537,12607,1,12607,1,0.00019052,1.0656e-07,0,0.00030422,3.9764e-05,7.5449e+07,36247,0,1.2118e+08,4596.8,12606,618.61,0,618.61,0,0.00023232,2.7581e-07,0,0.00011579,4.3563e-05,9.293e+07,93376,0,4.6187e+07,8051.6,618.61,1
2137,1.44,12073,1,12073,1,2.0582e-06,2.9173e-08,0,0.00020305,-3.6938e-07,-4.6579e+05,9848,0,8.1285e+07,89.937,12072,13208,1,13208,1,0.00039562,5.9379e-07,0,0.00039562,7.2972e-05,1.5493e+08,2.0026e+05,0,1.5829e+08,13850,13207,12073,1,12073,1,-1.1252e-05,6.8796e-09,0,0.00021373,2.1056e-06,-4.5774e+06,2269.7,0,8.6931e+07,41.972,12072,10979,1,10979,1,-0.00038917,-4.635e-07,0,1.1254e-05,-7.4145e-05,-1.5829e+08,-1.5692e+05,0,4.5778e+06,-19641,10978,11538,1,11538,1,-0.00021373,-1.1315e-07,0,0.00010445,-3.5996e-05,-8.6932e+07,-38198,0,4.1561e+07,-4584,11537,12607,1,12607,1,0.00019206,1.6354e-07,0,0.00030686,4.011e-05,7.6047e+07,55837,0,1.222e+08,5022.1,12606,618.61,0,618.61,0,0.00023426,2.2523e-07,0,0.00011676,4.3924e-05,9.3693e+07,76259,0,4.6565e+07,6201.1,618.61,1
2137,1.45,12073,1,12073,1,2.0985e-06,-2.1592e-08,0,0.00020436,-3.771e-07,-4.7068e+05,-7315.9,0,8.1795e+07,-51.879,12072,13208,1,13208,1,0.00039799,5.8911e-07,0,0.00039799,7.3405e-05,1.5579e+08,1.9863e+05,0,1.5923e+08,20449,13207,12073,1,12073,1,-1.1295e-05,-2.3036e-08,0,0.00021508,2.1348e-06,-4.5953e+06,-7854,0,8.7482e+07,-215.91,12072,10979,1,10979,1,-0.00039148,-4.8896e-07,0,1.1296e-05,-7.4592e-05,-1.5923e+08,-1.6549e+05,0,4.5954e+06,-18299,10978,11538,1,11538,1,-0.00021509,-1.7949e-07,0,0.00010515,-3.6227e-05,-8.7483e+07,-60937,0,4.1839e+07,-4447.8,11537,12607,1,12607,1,0.00019329,8.8863e-08,0,0.00030889,4.0354e-05,7.6521e+07,30198,0,1.2299e+08,4070.9,12606,618.61,0,618.61,0,0.00023577,2.2783e-07,0,0.00011751,4.4208e-05,9.4278e+07,77155,0,4.6853e+07,6465.6,618.61,1
2137,1.46,12073,1,12073,1,2.1505e-06,5.6819e-09,0,0.00020583,-3.8573e-07,-4.6936e+05,1901.8,0,8.2373e+07,330.1,12072,13208,1,13208,1,0.00040094,6.2713e-07,0,0.00040094,7.3934e-05,1.5689e+08,2.1218e+05,0,1.6038e+08,15370,13207,12073,1,12073,1,-1.1342e-05,-6.0153e-09,0,0.00021658,2.1205e-06,-4.6149e+06,-2060.3,0,8.8088e+07,178.14,12072,10979,1,10979,1,-0.0003943,-5.1585e-07,0,1.134e-05,-7.5142e-05,-1.6038e+08,-1.7455e+05,0,4.6124e+06,-17282,10978,11538,1,11538,1,-0.00021658,-1.6257e-07,0,0.00010593,-3.6497e-05,-8.809e+07,-54511,0,4.2149e+07,-4785.7,11537,12607,1,12607,1,0.00019471,1.4637e-07,0,0.0003111,4.0644e-05,7.7067e+07,49781,0,1.2384e+08,5186.9,12606,618.61,0,618.61,0,0.00023746,2.4839e-07,0,0.00011836,4.4525e-05,9.4943e+07,84091,0,4.718e+07,6731.6,618.61,1
2137,1.47,12073,1,12073,1,2.1949e-06,-2.3477e-09,0,0.00020734,-3.9778e-07,-4.7327e+05,-812.55,0,8.2968e+07,-1305.8,12072,13208,1,13208,1,0.00040398,6.8981e-07,0,0.00040398,7.4474e-05,1.58e+08,2.3503e+05,0,1.6155e+08,14665,13207,12073,1,12073,1,-1.1398e-05,-1.4083e-08,0,0.00021812,2.1409e-06,-4.6377e+06,-4685.4,0,8.8715e+07,-1048.8,12072,10979,1,10979,1,-0.00039719,-5.3436e-07,0,1.1399e-05,-7.5711e-05,-1.6155e+08,-1.8085e+05,0,4.6372e+06,-21539,10978,11538,1,11538,1,-0.00021812,-1.8605e-07,0,0.00010674,-3.6768e-05,-8.8717e+07,-63282,0,4.2468e+07,-6246.3,11537,12607,1,12607,1,0.0001962,1.4637e-07,0,0.0003134,4.0928e-05,7.7645e+07,49394,0,1.2473e+08,3973.5,12606,618.61,0,618.61,0,0.00023921,2.6732e-07,0,0.00011923,4.4854e-05,9.5627e+07,90495,0,4.7517e+07,6998.2,618.61,1
2137,1.48,12073,1,12073,1,2.2255e-06,-8.5101e-11,0,0.00020881,-4.0233e-07,-4.8262e+05,-32.552,0,8.3541e+07,-901.05,12072,13208,1,13208,1,0.00040672,6.4196e-07,0,0.00040672,7.4971e-05,1.5901e+08,2.1632e+05,0,1.6262e+08,14529,13207,12073,1,12073,1,-1.146e-05,-1.06e-08,0,0.00021968,2.1629e-06,-4.6626e+06,-3537.4,0,8.935e+07,-668.39,12072,10979,1,10979,1,-0.00039982,-4.9077e-07,0,1.146e-05,-7.6221e-05,-1.6262e+08,-1.6615e+05,0,4.6625e+06,-20339,10978,11538,1,11538,1,-0.00021968,-1.6396e-07,0,0.00010753,-3.7023e-05,-8.9351e+07,-55544,0,4.2782e+07,-5313.6,11537,12607,1,12607,1,0.00019755,1.2584e-07,0,0.00031569,4.1218e-05,7.8166e+07,42587,0,1.2563e+08,3941.9,12606,618.61,0,618.61,0,0.0002409,2.4339e-07,0,0.00012007,4.517e-05,9.6286e+07,82411,0,4.7842e+07,6568.7,618.61,1
2137,1.49,12073,1,12073,1,2.2948e-06,-2.0974e-08,0,0.00021024,-4.1389e-07,-4.7594e+05,-7112.7,0,8.4101e+07,-389.04,12072,13208,1,13208,1,0.00040953,5.1596e-07,0,0.00040953,7.5488e-05,1.6004e+08,1.7396e+05,0,1.6374e+08,12416,13207,12073,1,12073,1,-1.1481e-05,-1.3062e-08,0,0.00022116,2.1539e-06,-4.6718e+06,-4425.1,0,8.9952e+07,-469.42,12072,10979,1,10979,1,-0.00040258,-4.8735e-07,0,1.1478e-05,-7.6756e-05,-1.6374e+08,-1.6496e+05,0,4.6691e+06,-15933,10978,11538,1,11538,1,-0.00022116,-1.6427e-07,0,0.00010833,-3.729e-05,-8.9953e+07,-55574,0,4.3097e+07,-4797.6,11537,12607,1,12607,1,0.00019896,9.7105e-08,0,0.00031795,4.1499e-05,7.8709e+07,33115,0,1.2649e+08,3906.9,12606,618.61,0,618.61,0,0.00024255,2.1408e-07,0,0.0001209,4.5478e-05,9.693e+07,72475,0,4.8159e+07,5788.7,618.61,1
2137,1.5,12073,1,12073,1,2.3345e-06,-8.6135e-09,0,0.00021164,-4.2155e-07,-4.8118e+05,-2931.5,0,8.465e+07,-556.34,12072,13208,1,13208,1,0.00041227,5.868e-07,0,0.00041227,7.598e-05,1.6104e+08,1.9882e+05,0,1.6481e+08,13842,13207,12073,1,12073,1,-1.1538e-05,-1.2599e-08,0,0.00022257,2.1494e-06,-4.6951e+06,-4277.4,0,9.0528e+07,-156.86,12072,10979,1,10979,1,-0.00040521,-4.7362e-07,0,1.1535e-05,-7.7267e-05,-1.6481e+08,-1.6023e+05,0,4.6922e+06,-23050,10978,11538,1,11538,1,-0.00022258,-1.6952e-07,0,0.00010906,-3.7542e-05,-9.0529e+07,-57167,0,4.3387e+07,-5364.2,11537,12607,1,12607,1,0.0002003,1.2468e-07,0,0.00032004,4.1769e-05,7.9222e+07,41711,0,1.273e+08,4306.9,12606,618.61,0,618.61,0,0.00024417,2.3455e-07,0,0.0001217,4.5781e-05,9.756e+07,79396,0,4.8469e+07,6771.7,618.61,1
2137,1.51,12073,1,12073,1,2.3695e-06,1.0971e-08,0,0.00021323,-4.2717e-07,-4.895e+05,3676,0,8.5274e+07,-251,12072,13208,1,13208,1,0.00041571,7.2271e-07,0,0.00041571,7.6613e-05,1.6232e+08,2.4294e+05,0,1.6618e+08,23564,13207,12073,1,12073,1,-1.1607e-05,-1.0287e-08,0,0.00022421,2.1651e-06,-4.7221e+06,-3457.8,0,9.1192e+07,-440.9,12072,10979,1,10979,1,-0.00040857,-4.957e-07,0,1.1607e-05,-7.791e-05,-1.6618e+08,-1.6803e+05,0,4.722e+06,-23390,10978,11538,1,11538,1,-0.00022422,-1.6214e-07,0,0.00010989,-3.7852e-05,-9.1195e+07,-54211,0,4.3718e+07,-5719.2,11537,12607,1,12607,1,0.00020191,1.461e-07,0,0.00032244,4.2068e-05,7.9847e+07,49687,0,1.2824e+08,4673.9,12606,618.61,0,618.61,0,0.000246,2.5989e-07,0,0.00012262,4.6127e-05,9.8277e+07,87939,0,4.8822e+07,7696.6,618.61,1
2137,1.52,12073,1,12073,1,2.4372e-06,-8.4402e-09,0,0.00021481,-4.4112e-07,-4.8998e+05,-2842.6,0,8.5891e+07,-888.8,12072,13208,1,13208,1,0.00041856,5.8466e-07,0,0.00041856,7.7095e-05,1.6334e+08,2.0013e+05,0,1.6723e+08,17350,13207,12073,1,12073,1,-1.164e-05,-8.8024e-09,0,0.00022587,2.1976e-06,-4.7364e+06,-2958.1,0,9.1869e+07,-923.5,12072,10979,1,10979,1,-0.00041115,-4.8475e-07,0,1.1642e-05,-7.8442e-05,-1.6723e+08,-1.6403e+05,0,4.7365e+06,-14019,10978,11538,1,11538,1,-0.00022588,-1.4675e-07,0,0.00011078,-3.8116e-05,-9.1871e+07,-49662,0,4.4064e+07,-4856.5,11537,12607,1,12607,1,0.00020336,1.1281e-07,0,0.00032495,4.2379e-05,8.0395e+07,37891,0,1.292e+08,3295.7,12606,618.61,0,618.61,0,0.00024783,2.1778e-07,0,0.00012353,4.6468e-05,9.8987e+07,73763,0,4.9173e+07,5386.1,618.61,1
2137,1.53,12073,1,12073,1,2.4879e-06,-2.1338e-08,0,0.00021645,-4.5092e-07,-4.975e+05,-7194.9,0,8.6527e+07,-1121.4,12072,13208,1,13208,1,0.00042194,6.2928e-07,0,0.00042194,7.7735e-05,1.6458e+08,2.1191e+05,0,1.6861e+08,15321,13207,12073,1,12073,1,-1.1696e-05,-2.471e-08,0,0.00022751,2.183e-06,-4.759e+06,-8240.4,0,9.2536e+07,-68.532,12072,10979,1,10979,1,-0.00041455,-4.8602e-07,0,1.1689e-05,-7.9082e-05,-1.6861e+08,-1.6386e+05,0,4.7581e+06,-25778,10978,11538,1,11538,1,-0.00022751,-1.9625e-07,0,0.00011163,-3.842e-05,-9.2537e+07,-66232,0,4.4398e+07,-5618.2,11537,12607,1,12607,1,0.00020502,1.0787e-07,0,0.00032739,4.2687e-05,8.1028e+07,36231,0,1.3014e+08,3849.5,12606,618.61,0,618.61,0,0.00024971,2.4855e-07,0,0.00012447,4.682e-05,9.9718e+07,84082,0,4.9532e+07,6752.2,618.61,1
2137,1.54,12073,1,12073,1,2.553e-06,2.9272e-09,0,0.00021767,-4.5868e-07,-4.9763e+05,974.95,0,8.6996e+07,631.47,12072,13208,1,13208,1,0.0004243,6.3353e-07,0,0.0004243,7.8139e-05,1.6541e+08,2.1608e+05,0,1.695e+08,18335,13207,12073,1,12073,1,-1.1716e-05,-9.6832e-09,0,0.00022878,2.1959e-06,-4.7666e+06,-3228.6,0,9.3053e+07,624.97,12072,10979,1,10979,1,-0.00041672,-4.9516e-07,0,1.1715e-05,-7.9518e-05,-1.695e+08,-1.6778e+05,0,4.7661e+06,-19711,10978,11538,1,11538,1,-0.00022879,-1.4263e-07,0,0.00011233,-3.8657e-05,-9.3055e+07,-48081,0,4.467e+07,-4220.1,11537,12607,1,12607,1,0.00020616,1.2748e-07,0,0.00032935,4.2929e-05,8.1453e+07,43348,0,1.3088e+08,6133.3,12606,618.61,0,618.61,0,0.00025112,2.3283e-07,0,0.00012517,4.7086e-05,1.0026e+08,78732,0,4.9796e+07,7181.9,618.61,1
2137,1.55,12073,1,12073,1,2.6014e-06,1.0719e-09,0,0.00021909,-4.6969e-07,-5.0191e+05,365.04,0,8.7554e+07,-270.28,12072,13208,1,13208,1,0.00042706,6.3135e-07,0,0.00042706,7.8616e-05,1.6641e+08,2.1217e+05,0,1.7053e+08,16476,13207,12073,1,12073,1,-1.1766e-05,-1.5894e-08,0,0.00023027,2.2213e-06,-4.7877e+06,-5280.3,0,9.366e+07,8.4972,12072,10979,1,10979,1,-0.00041927,-4.6863e-07,0,1.1766e-05,-8.0033e-05,-1.7053e+08,-1.5879e+05,0,4.7873e+06,-16474,10978,11538,1,11538,1,-0.00023028,-1.4158e-07,0,0.0001131,-3.8877e-05,-9.3663e+07,-47975,0,4.4968e+07,-4886,11537,12607,1,12607,1,0.00020752,1.0844e-07,0,0.00033156,4.3199e-05,8.197e+07,36490,0,1.3174e+08,4377.8,12606,618.61,0,618.61,0,0.00025277,2.278e-07,0,0.000126,4.7394e-05,1.009e+08,77040,0,5.0113e+07,6316.2,618.61,1
2137,1.56,12073,1,12073,1,2.6613e-06,1.2325e-08,0,0.00022059,-4.8522e-07,-5.0463e+05,4176.6,0,8.8134e+07,-2164.9,12072,13208,1,13208,1,0.0004303,7.5508e-07,0,0.0004303,7.9209e-05,1.676e+08,2.5417e+05,0,1.7182e+08,16342,13207,12073,1,12073,1,-1.1796e-05,-1.8623e-08,0,0.00023174,2.1934e-06,-4.8014e+06,-6293.3,0,9.4257e+07,-1029.2,12072,10979,1,10979,1,-0.00042242,-5.2197e-07,0,1.1796e-05,-8.0645e-05,-1.7182e+08,-1.7674e+05,0,4.8015e+06,-32534,10978,11538,1,11538,1,-0.00023175,-1.6213e-07,0,0.00011389,-3.919e-05,-9.4259e+07,-55039,0,4.5277e+07,-7026.8,11537,12607,1,12607,1,0.00020909,1.4599e-07,0,0.00033378,4.3477e-05,8.2569e+07,49723,0,1.3258e+08,4437.7,12606,618.61,0,618.61,0,0.00025449,2.7234e-07,0,0.00012686,4.7717e-05,1.0156e+08,92133,0,5.0441e+07,8552.3,618.61,1
2137,1.57,12073,1,12073,1,2.7192e-06,-1.2727e-08,0,0.00022255,-4.923e-07,-5.1214e+05,-4283,0,8.8903e+07,-722.17,12072,13208,1,13208,1,0.0004336,4.7166e-07,0,0.0004336,7.9811e-05,1.688e+08,1.5906e+05,0,1.7312e+08,11772,13207,12073,1,12073,1,-1.1866e-05,-1.2613e-08,0,0.00023386,2.2242e-06,-4.8292e+06,-4295.2,0,9.5121e+07,67.386,12072,10979,1,10979,1,-0.00042564,-3.8157e-07,0,1.1868e-05,-8.1264e-05,-1.7312e+08,-1.2948e+05,0,4.8291e+06,-20251,10978,11538,1,11538,1,-0.00023387,-1.3783e-07,0,0.00011498,-3.95e-05,-9.5121e+07,-46806,0,4.5703e+07,-4521.5,11537,12607,1,12607,1,0.0002108,8.1407e-08,0,0.00033692,4.3878e-05,8.3223e+07,27749,0,1.338e+08,3509,12606,618.61,0,618.61,0,0.00025676,1.8377e-07,0,0.00012799,4.814e-05,1.0245e+08,62186,0,5.0879e+07,5729,618.61,1
2137,1.58,12073,1,12073,1,2.7936e-06,1.698e-08,0,0.00022343,-5.056e-07,-5.1086e+05,5741.5,0,8.9232e+07,-552.04,12072,13208,1,13208,1,0.00043582,6.9681e-07,0,0.00043582,8.019e-05,1.6955e+08,2.3436e+05,0,1.7394e+08,16246,13207,12073,1,12073,1,-1.1855e-05,-8.8993e-09,0,0.00023466,2.2129e-06,-4.8237e+06,-3048.1,0,9.5444e+07,-265.57,12072,10979,1,10979,1,-0.00042765,-5.1317e-07,0,1.1855e-05,-8.1677e-05,-1.7394e+08,-1.7379e+05,0,4.8237e+06,-27212,10978,11538,1,11538,1,-0.00023467,-1.5193e-07,0,0.00011548,-3.9698e-05,-9.5446e+07,-51454,0,4.589e+07,-5753,11537,12607,1,12607,1,0.00021183,1.5893e-07,0,0.00033822,4.4033e-05,8.3599e+07,53358,0,1.3426e+08,5169,12606,618.61,0,618.61,0,0.00025778,2.6053e-07,0,0.0001285,4.8332e-05,1.0282e+08,88108,0,5.106e+07,7106.3,618.61,1
2137,1.59,12073,1,12073,1,2.8365e-06,1.7035e-08,0,0.00022503,-5.1253e-07,-5.1588e+05,5770,0,8.9858e+07,-179.29,12072,13208,1,13208,1,0.00043908,6.9389e-07,0,0.00043908,8.0763e-05,1.7075e+08,2.339e+05,0,1.7519e+08,13076,13207,12073,1,12073,1,-1.1909e-05,-3.9449e-09,0,0.00023629,2.2452e-06,-4.8457e+06,-1334.6,0,9.6108e+07,264.2,12072,10979,1,10979,1,-0.00043071,-5.0973e-07,0,1.1907e-05,-8.2287e-05,-1.7519e+08,-1.7276e+05,0,4.845e+06,-26465,10978,11538,1,11538,1,-0.0002363,-1.4553e-07,0,0.00011633,-4.0028e-05,-9.6111e+07,-48744,0,4.6225e+07,-4884.8,11537,12607,1,12607,1,0.00021343,1.6339e-07,0,0.00034065,4.4335e-05,8.4211e+07,54731,0,1.3521e+08,4915.8,12606,618.61,0,618.61,0,0.00025962,2.5155e-07,0,0.00012941,4.8678e-05,1.0355e+08,85080,0,5.1416e+07,6370.4,618.61,1
2137,1.6,12073,1,12073,1,2.9046e-06,-1.1767e-09,0,0.00022641,-5.2643e-07,-5.174e+05,-392.43,0,9.0389e+07,-760.77,12072,13208,1,13208,1,0.00044145,6.4815e-07,0,0.00044145,8.1194e-05,1.7157e+08,2.1817e+05,0,1.7612e+08,15060,13207,12073,1,12073,1,-1.1931e-05,-1.5403e-08,0,0.00023773,2.2281e-06,-4.8557e+06,-5226.2,0,9.6694e+07,-237.62,12072,10979,1,10979,1,-0.00043301,-4.7308e-07,0,1.1926e-05,-8.273e-05,-1.7612e+08,-1.6036e+05,0,4.8544e+06,-25597,10978,11538,1,11538,1,-0.00023774,-1.686e-07,0,0.00011709,-4.0231e-05,-9.6695e+07,-56788,0,4.652e+07,-5385.7,11537,12607,1,12607,1,0.00021467,1.2514e-07,0,0.00034283,4.4608e-05,8.4672e+07,42745,0,1.3604e+08,4160.6,12606,618.61,0,618.61,0,0.00026121,2.4466e-07,0,0.00013021,4.8975e-05,1.0415e+08,82738,0,5.1716e+07,6667.6,618.61,1
2137,1.61,12073,1,12073,1,2.9601e-06,-2.6121e-08,0,0.00022783,-5.3158e-07,-5.2173e+05,-8807.9,0,9.0939e+07,1325.6,12072,13208,1,13208,1,0.00044429,5.5972e-07,0,0.00044429,8.1717e-05,1.7261e+08,1.9159e+05,0,1.7726e+08,23475,13207,12073,1,12073,1,-1.197e-05,-2.1591e-08,0,0.00023918,2.2618e-06,-4.8685e+06,-7154.5,0,9.7284e+07,1021.8,12072,10979,1,10979,1,-0.0004358,-5.1655e-07,0,1.1968e-05,-8.3265e-05,-1.7726e+08,-1.7495e+05,0,4.8677e+06,-15460,10978,11538,1,11538,1,-0.00023918,-1.8241e-07,0,0.00011786,-4.0492e-05,-9.7284e+07,-61217,0,4.6821e+07,-3516.2,11537,12607,1,12607,1,0.00021608,8.9784e-08,0,0.00034501,4.4874e-05,8.5211e+07,30747,0,1.3688e+08,5448.5,12606,618.61,0,618.61,0,0.00026285,2.314e-07,0,0.00013103,4.9282e-05,1.0479e+08,78265,0,5.2028e+07,6495.5,618.61,1
2137,1.62,12073,1,12073,1,3.0193e-06,-1.0792e-08,0,0.00022924,-5.4709e-07,-5.2608e+05,-3642.2,0,9.1487e+07,-626.97,12072,13208,1,13208,1,0.00044701,6.3267e-07,0,0.00044701,8.2201e-05,1.7357e+08,2.1279e+05,0,1.783e+08,15688,13207,12073,1,12073,1,-1.2006e-05,-1.94e-08,0,0.00024063,2.2428e-06,-4.886e+06,-6644.7,0,9.7873e+07,105.34,12072,10979,1,10979,1,-0.00043837,-4.6629e-07,0,1.1999e-05,-8.3774e-05,-1.783e+08,-1.5813e+05,0,4.8844e+06,-25649,10978,11538,1,11538,1,-0.00024064,-1.7641e-07,0,0.00011863,-4.0746e-05,-9.7874e+07,-59560,0,4.712e+07,-5175.5,11537,12607,1,12607,1,0.00021744,1.0939e-07,0,0.00034721,4.5151e-05,8.5723e+07,36614,0,1.3771e+08,4239.1,12606,618.61,0,618.61,0,0.00026448,2.3972e-07,0,0.00013184,4.9587e-05,1.0542e+08,81055,0,5.2337e+07,6623,618.61,1
2137,1.63,12073,1,12073,1,3.062e-06,-1.8787e-08,0,0.00023059,-5.5302e-07,-5.3631e+05,-6352.8,0,9.2009e+07,134.32,12072,13208,1,13208,1,0.00044989,6.9608e-07,0,0.00044989,8.2725e-05,1.746e+08,2.3402e+05,0,1.7944e+08,14098,13207,12073,1,12073,1,-1.2051e-05,-2.1163e-08,0,0.00024198,2.2683e-06,-4.9029e+06,-7248.4,0,9.842e+07,648.88,12072,10979,1,10979,1,-0.00044116,-5.5717e-07,0,1.205e-05,-8.4314e-05,-1.7944e+08,-1.889e+05,0,4.9029e+06,-20713,10978,11538,1,11538,1,-0.00024198,-2.167e-07,0,0.00011935,-4.1008e-05,-9.8421e+07,-72387,0,4.7397e+07,-4414.8,11537,12607,1,12607,1,0.00021883,1.3387e-07,0,0.00034922,4.5409e-05,8.6244e+07,45097,0,1.3848e+08,4978.4,12606,618.61,0,618.61,0,0.00026604,2.7909e-07,0,0.00013262,4.9881e-05,1.0602e+08,94314,0,5.2631e+07,6256.2,618.61,1
2137,1.64,12073,1,12073,1,3.1422e-06,3.2064e-08,0,0.0002322,-5.719e-07,-5.3342e+05,10853,0,9.2634e+07,-1584.1,12072,13208,1,13208,1,0.00045319,6.8589e-07,0,0.00045319,8.33e-05,1.758e+08,2.3117e+05,0,1.8069e+08,17626,13207,12073,1,12073,1,-1.2078e-05,-5.5808e-09,0,0.00024366,2.2597e-06,-4.915e+06,-1865.9,0,9.9104e+07,-1282.4,12072,10979,1,10979,1,-0.00044424,-4.4452e-07,0,1.2077e-05,-8.4932e-05,-1.8069e+08,-1.5077e+05,0,4.9145e+06,-26635,10978,11538,1,11538,1,-0.00024367,-1.1265e-07,0,0.00012026,-4.1302e-05,-9.9108e+07,-37626,0,4.7753e+07,-6297.7,11537,12607,1,12607,1,0.0002204,1.4671e-07,0,0.00035179,4.5709e-05,8.6843e+07,49581,0,1.3946e+08,3451.3,12606,618.61,0,618.61,0,0.0002679,2.3654e-07,0,0.00013355,5.0228e-05,1.0673e+08,80016,0,5.2986e+07,7020.6,618.61,1
2137,1.65,12073,1,12073,1,3.2193e-06,-7.7944e-09,0,0.00023375,-5.9065e-07,-5.35e+05,-2585.6,0,9.323e+07,-3500.4,12072,13208,1,13208,1,0.00045588,5.7819e-07,0,0.00045588,8.3742e-05,1.7673e+08,1.9631e+05,0,1.8165e+08,12603,13207,12073,1,12073,1,-1.2089e-05,-1.9659e-08,0,0.00024528,2.2461e-06,-4.9226e+06,-6576,0,9.9764e+07,-1752.4,12072,10979,1,10979,1,-0.00044659,-4.0114e-07,0,1.2091e-05,-8.543e-05,-1.8165e+08,-1.3605e+05,0,4.923e+06,-31240,10978,11538,1,11538,1,-0.00024528,-1.3573e-07,0,0.00012113,-4.1562e-05,-9.9766e+07,-45739,0,4.8091e+07,-6404.2,11537,12607,1,12607,1,0.00022176,7.9468e-08,0,0.00035425,4.601e-05,8.735e+07,26723,0,1.404e+08,1691.3,12606,618.61,0,618.61,0,0.00026968,1.9598e-07,0,0.00013444,5.0561e-05,1.0742e+08,66311,0,5.3322e+07,7286.9,618.61,1
2137,1.66,12073,1,12073,1,3.2727e-06,-2.0473e-08,0,0.00023485,-5.9236e-07,-5.4118e+05,-6891.9,0,9.3649e+07,-143.06,12072,13208,1,13208,1,0.00045813,5.7732e-07,0,0.00045813,8.4181e-05,1.7752e+08,1.9632e+05,0,1.826e+08,15616,13207,12073,1,12073,1,-1.2122e-05,-2.1442e-08,0,0.00024635,2.2894e-06,-4.9329e+06,-7251,0,1.002e+08,270.48,12072,10979,1,10979,1,-0.00044894,-5.05e-07,0,1.2123e-05,-8.5856e-05,-1.826e+08,-1.7117e+05,0,4.9328e+06,-20355,10978,11538,1,11538,1,-0.00024635,-1.7152e-07,0,0.00012173,-4.1772e-05,-1.002e+08,-57877,0,4.8318e+07,-4627.9,11537,12607,1,12607,1,0.00022292,9.7658e-08,0,0.0003559,4.6215e-05,8.7781e+07,32640,0,1.4102e+08,4597,12606,618.61,0,618.61,0,0.00027095,2.2809e-07,0,0.00013507,5.0801e-05,1.079e+08,77121,0,5.3557e+07,6411.7,618.61,1
2137,1.67,12073,1,12073,1,3.3265e-06,-1.4681e-08,0,0.00023604,-5.9973e-07,-5.4301e+05,-4958.9,0,9.411e+07,907.71,12072,13208,1,13208,1,0.00046063,7.6318e-07,0,0.00046063,8.4627e-05,1.7841e+08,2.5649e+05,0,1.8357e+08,20240,13207,12073,1,12073,1,-1.2139e-05,-2.9937e-08,0,0.00024753,2.283e-06,-4.9402e+06,-9889.9,0,1.0068e+08,1182.9,12072,10979,1,10979,1,-0.00045131,-5.6959e-07,0,1.2143e-05,-8.6325e-05,-1.8357e+08,-1.9299e+05,0,4.9401e+06,-26177,10978,11538,1,11538,1,-0.00024753,-2.1553e-07,0,0.00012235,-4.2009e-05,-1.0068e+08,-72384,0,4.8561e+07,-4060.9,11537,12607,1,12607,1,0.00022416,1.2761e-07,0,0.00035768,4.6454e-05,8.8246e+07,43236,0,1.4169e+08,6697.7,12606,618.61,0,618.61,0,0.00027232,2.927e-07,0,0.00013576,5.1061e-05,1.0843e+08,98899,0,5.3816e+07,8177.6,618.61,1
2137,1.68,12073,1,12073,1,3.3929e-06,-2.1823e-08,0,0.00023745,-6.1765e-07,-5.4357e+05,-7355.1,0,9.4658e+07,-1477.9,12072,13208,1,13208,1,0.00046341,7.1896e-07,0,0.00046341,8.5116e-05,1.794e+08,2.423e+05,0,1.8463e+08,15685,13207,12073,1,12073,1,-1.2161e-05,-3.217e-08,0,0.00024897,2.2656e-06,-4.9513e+06,-10712,0,1.0127e+08,-470.61,12072,10979,1,10979,1,-0.00045393,-5.5059e-07,0,1.2159e-05,-8.6844e-05,-1.8463e+08,-1.8663e+05,0,4.9499e+06,-28200,10978,11538,1,11538,1,-0.00024898,-2.1104e-07,0,0.00012314,-4.2267e-05,-1.0127e+08,-70666,0,4.8867e+07,-6562.3,11537,12607,1,12607,1,0.00022554,1.1025e-07,0,0.00035989,4.6714e-05,8.8765e+07,36897,0,1.4253e+08,4605.9,12606,618.61,0,618.61,0,0.00027396,2.7638e-07,0,0.00013657,5.1365e-05,1.0906e+08,93414,0,5.4127e+07,7799.6,618.61,1
2137,1.69,12073,1,12073,1,3.4499e-06,3.4772e-08,0,0.0002388,-6.2562e-07,-5.4988e+05,11737,0,9.5177e+07,-457.45,12072,13208,1,13208,1,0.00046647,8.8011e-07,0,0.00046647,8.565e-05,1.805e+08,3.0126e+05,0,1.858e+08,24044,13207,12073,1,12073,1,-1.2207e-05,-7.3584e-09,0,0.00025031,2.301e-06,-4.9673e+06,-2438.2,0,1.0181e+08,-237.9,12072,10979,1,10979,1,-0.00045679,-5.7347e-07,0,1.2206e-05,-8.741e-05,-1.858e+08,-1.9436e+05,0,4.9671e+06,-21294,10978,11538,1,11538,1,-0.00025032,-1.7513e-07,0,0.00012387,-4.2539e-05,-1.0181e+08,-59349,0,4.915e+07,-5581.2,11537,12607,1,12607,1,0.00022695,2.0915e-07,0,0.00036191,4.6964e-05,8.9297e+07,70429,0,1.433e+08,5413.2,12606,618.61,0,618.61,0,0.00027551,3.126e-07,0,0.00013735,5.1658e-05,1.0965e+08,1.0564e+05,0,5.4418e+07,7973,618.61,1
2137,1.7,12073,1,12073,1,3.5191e-06,2.27e-08,0,0.0002403,-6.3656e-07,-5.5203e+05,7645.2,0,9.5755e+07,277.89,12072,13208,1,13208,1,0.00046933,7.6519e-07,0,0.00046933,8.6157e-05,1.8149e+08,2.5752e+05,0,1.8689e+08,15447,13207,12073,1,12073,1,-1.2237e-05,-4.6838e-09,0,0.00025186,2.3198e-06,-4.9791e+06,-1583.3,0,1.0244e+08,528.52,12072,10979,1,10979,1,-0.00045949,-5.121e-07,0,1.2237e-05,-8.7949e-05,-1.8689e+08,-1.7364e+05,0,4.9788e+06,-19826,10978,11538,1,11538,1,-0.00025186,-1.4128e-07,0,0.0001247,-4.2801e-05,-1.0244e+08,-47790,0,4.9474e+07,-4683.6,11537,12607,1,12607,1,0.00022838,1.5712e-07,0,0.00036428,4.726e-05,8.9831e+07,52461,0,1.4419e+08,6056.5,12606,618.61,0,618.61,0,0.00027724,2.5756e-07,0,0.00013821,5.1981e-05,1.1032e+08,86992,0,5.4746e+07,7072.8,618.61,1
2137,1.71,12073,1,12073,1,3.6006e-06,2.2378e-08,0,0.00024179,-6.5381e-07,-5.5174e+05,7559.2,0,9.6327e+07,-677.74,12072,13208,1,13208,1,0.0004723,7.872e-07,0,0.0004723,8.6682e-05,1.8254e+08,2.6488e+05,0,1.8803e+08,17353,13207,12073,1,12073,1,-1.2248e-05,-8.8867e-09,0,0.00025336,2.2848e-06,-4.9852e+06,-3043.5,0,1.0305e+08,-321.96,12072,10979,1,10979,1,-0.00046228,-5.611e-07,0,1.2246e-05,-8.8506e-05,-1.8803e+08,-1.9012e+05,0,4.9852e+06,-29397,10978,11538,1,11538,1,-0.00025336,-1.6635e-07,0,0.00012553,-4.3079e-05,-1.0305e+08,-55561,0,4.9794e+07,-6371.5,11537,12607,1,12607,1,0.00022986,1.8014e-07,0,0.00036657,4.7542e-05,9.0388e+07,60978,0,1.4506e+08,5740.9,12606,618.61,0,618.61,0,0.00027895,2.9072e-07,0,0.00013907,5.2301e-05,1.1097e+08,98223,0,5.5068e+07,7814.6,618.61,1
2137,1.72,12073,1,12073,1,3.6626e-06,1.0315e-08,0,0.00024358,-6.637e-07,-5.6186e+05,3475,0,9.702e+07,-87.319,12072,13208,1,13208,1,0.00047553,6.5979e-07,0,0.00047553,8.7252e-05,1.8369e+08,2.2342e+05,0,1.8928e+08,17114,13207,12073,1,12073,1,-1.2308e-05,-1.0076e-08,0,0.00025526,2.314e-06,-5.0099e+06,-3391.9,0,1.0382e+08,83.442,12072,10979,1,10979,1,-0.00046535,-4.5089e-07,0,1.2313e-05,-8.9105e-05,-1.8928e+08,-1.5304e+05,0,5.01e+06,-20615,10978,11538,1,11538,1,-0.00025526,-1.4134e-07,0,0.00012652,-4.3374e-05,-1.0382e+08,-47357,0,5.0178e+07,-4455.7,11537,12607,1,12607,1,0.00023146,1.2031e-07,0,0.00036941,4.7893e-05,9.0986e+07,39813,0,1.4616e+08,4636.8,12606,618.61,0,618.61,0,0.00028102,2.3254e-07,0,0.0001401,5.2687e-05,1.1177e+08,78539,0,5.5461e+07,6457.4,618.61,1
2137,1.73,12073,1,12073,1,3.7548e-06,-4.3678e-08,0,0.00024457,-6.8429e-07,-5.5787e+05,-14718,0,9.7391e+07,-1580.5,12072,13208,1,13208,1,0.00047766,7.1866e-07,0,0.00047766,8.7636e-05,1.844e+08,2.4216e+05,0,1.901e+08,15886,13207,12073,1,12073,1,-1.2265e-05,-4.7104e-08,0,0.00025618,2.2905e-06,-4.994e+06,-15821,0,1.0419e+08,-694.73,12072,10979,1,10979,1,-0.00046737,-5.948e-07,0,1.2265e-05,-8.9513e-05,-1.901e+08,-2.0145e+05,0,4.9933e+06,-25081,10978,11538,1,11538,1,-0.00025618,-2.4115e-07,0,0.00012709,-4.3586e-05,-1.042e+08,-81360,0,5.0393e+07,-6513.5,11537,12607,1,12607,1,0.00023261,9.0778e-08,0,0.00037093,4.8066e-05,9.1409e+07,30875,0,1.4669e+08,4452.1,12606,618.61,0,618.61,0,0.00028217,2.866e-07,0,0.00014068,5.2904e-05,1.122e+08,96820,0,5.5667e+07,7753.6,618.61,1
2137,1.74,12073,1,12073,1,3.8102e-06,1.0373e-08,0,0.00024587,-6.939e-07,-5.6084e+05,3491.7,0,9.7895e+07,-1352.8,12072,13208,1,13208,1,0.00048024,7.1645e-07,0,0.00048024,8.8088e-05,1.8533e+08,2.4246e+05,0,1.9108e+08,15673,13207,12073,1,12073,1,-1.2284e-05,-2.6509e-09,0,0.00025748,2.2708e-06,-5.0007e+06,-862.57,0,1.0472e+08,-281.12,12072,10979,1,10979,1,-0.00046978,-6.1599e-07,0,1.2284e-05,-8.9993e-05,-1.9108e+08,-2.0878e+05,0,4.999e+06,-37619,10978,11538,1,11538,1,-0.00025748,-1.7614e-07,0,0.0001278,-4.3847e-05,-1.0472e+08,-59480,0,5.0668e+07,-6817.2,11537,12607,1,12607,1,0.00023385,1.7812e-07,0,0.00037291,4.8316e-05,9.1872e+07,59670,0,1.4744e+08,6532.8,12606,618.61,0,618.61,0,0.00028367,2.9076e-07,0,0.00014142,5.3185e-05,1.1277e+08,98207,0,5.5951e+07,9984.5,618.61,1
2137,1.75,12073,1,12073,1,3.8657e-06,-3.9205e-08,0,0.00024726,-6.9861e-07,-5.6825e+05,-13218,0,9.843e+07,910.39,12072,13208,1,13208,1,0.00048298,7.6713e-07,0,0.00048298,8.8587e-05,1.8628e+08,2.5848e+05,0,1.9216e+08,27164,13207,12073,1,12073,1,-1.2333e-05,-3.6978e-08,0,0.00025893,2.3271e-06,-5.0212e+06,-12275,0,1.0531e+08,316.41,12072,10979,1,10979,1,-0.00047243,-6.5352e-07,0,1.2326e-05,-9.0509e-05,-1.9216e+08,-2.2106e+05,0,5.0159e+06,-17628,10978,11538,1,11538,1,-0.00025893,-2.2812e-07,0,0.00012856,-4.4083e-05,-1.0532e+08,-77327,0,5.0962e+07,-5321,11537,12607,1,12607,1,0.00023522,9.9555e-08,0,0.00037507,4.8576e-05,9.2389e+07,33274,0,1.4828e+08,5900.3,12606,618.61,0,618.61,0,0.00028527,2.9144e-07,0,0.00014222,5.3487e-05,1.1339e+08,98411,0,5.6252e+07,8263.2,618.61,1
2137,1.76,12073,1,12073,1,3.9699e-06,-3.1755e-08,0,0.00024934,-7.2385e-07,-5.6532e+05,-10717,0,9.9237e+07,-1638.4,12072,13208,1,13208,1,0.00048701,5.5639e-07,0,0.00048701,8.93e-05,1.8772e+08,1.9045e+05,0,1.937e+08,15204,13207,12073,1,12073,1,-1.236e-05,-2.257e-08,0,0.00026106,2.3168e-06,-5.0323e+06,-7470.4,0,1.0618e+08,-884.56,12072,10979,1,10979,1,-0.00047621,-4.6729e-07,0,1.236e-05,-9.1266e-05,-1.937e+08,-1.5758e+05,0,5.0318e+06,-21791,10978,11538,1,11538,1,-0.00026106,-1.8679e-07,0,0.00012972,-4.4453e-05,-1.0618e+08,-62794,0,5.1414e+07,-6200.2,11537,12607,1,12607,1,0.00023724,8.0209e-08,0,0.00037835,4.8979e-05,9.3145e+07,26848,0,1.4952e+08,2999.9,12606,618.61,0,618.61,0,0.00028767,2.2416e-07,0,0.00014343,5.3932e-05,1.1432e+08,75734,0,5.6712e+07,6133,618.61,1
2137,1.77,12073,1,12073,1,4.0557e-06,-1.1823e-08,0,0.00025064,-7.3675e-07,-5.7468e+05,-3989.1,0,9.972e+07,-472.24,12072,13208,1,13208,1,0.00048947,6.3136e-07,0,0.00048947,8.9715e-05,1.8854e+08,2.1275e+05,0,1.9461e+08,16618,13207,12073,1,12073,1,-1.238e-05,-2.2231e-08,0,0.00026236,2.3372e-06,-5.038e+06,-7362.8,0,1.0671e+08,-310.2,12072,10979,1,10979,1,-0.00047846,-4.9182e-07,0,1.2381e-05,-9.172e-05,-1.9461e+08,-1.6597e+05,0,5.0379e+06,-15650,10978,11538,1,11538,1,-0.00026237,-1.8166e-07,0,0.00013048,-4.4686e-05,-1.0671e+08,-61107,0,5.1697e+07,-4789.7,11537,12607,1,12607,1,0.00023846,1.1927e-07,0,0.0003804,4.9222e-05,9.3582e+07,39661,0,1.5027e+08,3685.6,12606,618.61,0,618.61,0,0.00028917,2.5016e-07,0,0.00014418,5.4214e-05,1.1487e+08,84489,0,5.6982e+07,5823.5,618.61,1
2137,1.78,12073,1,12073,1,4.1328e-06,1.9458e-08,0,0.00025228,-7.4642e-07,-5.7828e+05,6536.4,0,1.0035e+08,1379.4,12072,13208,1,13208,1,0.0004928,5.5511e-07,0,0.0004928,9.0322e-05,1.8971e+08,1.8639e+05,0,1.9592e+08,16165,13207,12073,1,12073,1,-1.2411e-05,2.1631e-09,0,0.00026402,2.3403e-06,-5.0503e+06,713.18,0,1.0739e+08,1148.8,12072,10979,1,10979,1,-0.00048169,-4.3316e-07,0,1.2405e-05,-9.2345e-05,-1.9592e+08,-1.459e+05,0,5.0484e+06,-16237,10978,11538,1,11538,1,-0.00026403,-1.2257e-07,0,0.00013138,-4.4981e-05,-1.0739e+08,-40975,0,5.2046e+07,-2720.8,11537,12607,1,12607,1,0.00024008,1.4478e-07,0,0.00038294,4.9538e-05,9.4191e+07,48951,0,1.5123e+08,5672.6,12606,618.61,0,618.61,0,0.00029107,2.1414e-07,0,0.00014513,5.4568e-05,1.156e+08,72199,0,5.734e+07,5349.3,618.61,1
2137,1.79,12073,1,12073,1,4.2044e-06,2.508e-08,0,0.00025348,-7.6345e-07,-5.8676e+05,8448.4,0,1.008e+08,-261.15,12072,13208,1,13208,1,0.00049542,6.6775e-07,0,0.00049542,9.0776e-05,1.9058e+08,2.2857e+05,0,1.9691e+08,18056,13207,12073,1,12073,1,-1.2408e-05,6.1322e-09,0,0.00026521,2.334e-06,-5.0496e+06,2100.3,0,1.0787e+08,-574.76,12072,10979,1,10979,1,-0.00048411,-5.1184e-07,0,1.2408e-05,-9.2835e-05,-1.9691e+08,-1.7329e+05,0,5.0495e+06,-20579,10978,11538,1,11538,1,-0.00026522,-1.3156e-07,0,0.00013206,-4.5234e-05,-1.0787e+08,-44382,0,5.2303e+07,-5198,11537,12607,1,12607,1,0.00024135,1.7173e-07,0,0.00038481,4.9762e-05,9.4649e+07,57946,0,1.5192e+08,4654.8,12606,618.61,0,618.61,0,0.00029245,2.5475e-07,0,0.00014582,5.4829e-05,1.1611e+08,86027,0,5.7592e+07,6560.3,618.61,1
2137,1.8,12073,1,12073,1,4.2774e-06,1.2786e-09,0,0.00025512,-7.729e-07,-5.9111e+05,406.43,0,1.0144e+08,1367.1,12072,13208,1,13208,1,0.00049827,5.9228e-07,0,0.00049827,9.1278e-05,1.9157e+08,1.9867e+05,0,1.9799e+08,17800,13207,12073,1,12073,1,-1.2458e-05,-1.2919e-08,0,0.00026692,2.347e-06,-5.0699e+06,-4311.4,0,1.0857e+08,1318.5,12072,10979,1,10979,1,-0.00048678,-4.2913e-07,0,1.2441e-05,-9.3368e-05,-1.9799e+08,-1.4452e+05,0,5.063e+06,-14091,10978,11538,1,11538,1,-0.00026693,-1.4956e-07,0,0.00013296,-4.5507e-05,-1.0857e+08,-49778,0,5.265e+07,-2873.9,11537,12607,1,12607,1,0.00024285,1.0797e-07,0,0.00038738,5.0076e-05,9.5206e+07,35980,0,1.5291e+08,5300.2,12606,618.61,0,618.61,0,0.00029434,2.2088e-07,0,0.00014676,5.5182e-05,1.1684e+08,74449,0,5.795e+07,5400.2,618.61,1
2137,1.81,12073,1,12073,1,4.3853e-06,6.0919e-08,0,0.00025639,-7.9326e-07,-5.8619e+05,20520,0,1.0191e+08,1170.5,12072,13208,1,13208,1,0.00050152,7.3773e-07,0,0.00050152,9.1828e-05,1.927e+08,2.4713e+05,0,1.9919e+08,22061,13207,12073,1,12073,1,-1.243e-05,1.5457e-08,0,0.00026812,2.3588e-06,-5.0588e+06,5128.2,0,1.0906e+08,700.03,12072,10979,1,10979,1,-0.00048972,-4.7097e-07,0,1.243e-05,-9.3978e-05,-1.9919e+08,-1.5907e+05,0,5.0586e+06,-11178,10978,11538,1,11538,1,-0.00026814,-1.0482e-07,0,0.0001337,-4.5792e-05,-1.0906e+08,-35063,0,5.2929e+07,-3740.9,11537,12607,1,12607,1,0.0002444,2.1461e-07,0,0.00038935,5.0307e-05,9.5779e+07,72229,0,1.5361e+08,5742.2,12606,618.61,0,618.61,0,0.00029581,2.6596e-07,0,0.00014749,5.5458e-05,1.1739e+08,89770,0,5.8217e+07,6000.8,618.61,1
2137,1.82,12073,1,12073,1,4.4628e-06,-1.8124e-08,0,0.00025801,-8.0725e-07,-5.9112e+05,-6076,0,1.0254e+08,1238.8,12072,13208,1,13208,1,0.00050407,4.9199e-07,0,0.00050407,9.2292e-05,1.936e+08,1.6741e+05,0,2.0019e+08,14206,13207,12073,1,12073,1,-1.2455e-05,-1.6375e-08,0,0.00026984,2.3619e-06,-5.0692e+06,-5329.7,0,1.0975e+08,1344.8,12072,10979,1,10979,1,-0.00049218,-4.0233e-07,0,1.2454e-05,-9.4458e-05,-2.0019e+08,-1.3547e+05,0,5.0687e+06,-11020,10978,11538,1,11538,1,-0.00026984,-1.4411e-07,0,0.00013462,-4.604e-05,-1.0975e+08,-48629,0,5.3284e+07,-2544.8,11537,12607,1,12607,1,0.00024573,8.2741e-08,0,0.00039195,5.0622e-05,9.6274e+07,27724,0,1.546e+08,4680.8,12606,618.61,0,618.61,0,0.00029768,1.8565e-07,0,0.00014843,5.5806e-05,1.181e+08,62646,0,5.857e+07,4860.9,618.61,1
2137,1.83,12073,1,12073,1,4.5435e-06,4.0623e-08,0,0.00025919,-8.267e-07,-5.97e+05,13671,0,1.0298e+08,-695,12072,13208,1,13208,1,0.00050665,5.9025e-07,0,0.00050665,9.2741e-05,1.9445e+08,1.9733e+05,0,2.0117e+08,13133,13207,12073,1,12073,1,-1.2453e-05,1.7722e-08,0,0.000271,2.3484e-06,-5.0682e+06,5960.7,0,1.1022e+08,-556.02,12072,10979,1,10979,1,-0.00049459,-4.3111e-07,0,1.2453e-05,-9.4939e-05,-2.0117e+08,-1.4553e+05,0,5.0683e+06,-17892,10978,11538,1,11538,1,-0.00027101,-7.9768e-08,0,0.0001353,-4.6288e-05,-1.1023e+08,-26866,0,5.354e+07,-4542.6,11537,12607,1,12607,1,0.00024699,1.6962e-07,0,0.00039381,5.0844e-05,9.6725e+07,56908,0,1.5528e+08,3787.2,12606,618.61,0,618.61,0,0.00029904,2.0828e-07,0,0.00014911,5.6063e-05,1.1861e+08,70266,0,5.8818e+07,5210.9,618.61,1
2137,1.84,12073,1,12073,1,4.6377e-06,-1.0607e-08,0,0.00026068,-8.4355e-07,-5.9307e+05,-3550.1,0,1.0355e+08,-492.7,12072,13208,1,13208,1,0.00050948,6.5366e-07,0,0.00050948,9.3233e-05,1.9544e+08,2.2287e+05,0,2.0224e+08,16619,13207,12073,1,12073,1,-1.2447e-05,-2.313e-08,0,0.00027247,2.3478e-06,-5.0668e+06,-7693,0,1.1082e+08,394.55,12072,10979,1,10979,1,-0.00049722,-4.7385e-07,0,1.244e-05,-9.5469e-05,-2.0224e+08,-1.5952e+05,0,5.0639e+06,-19314,10978,11538,1,11538,1,-0.00027247,-1.7157e-07,0,0.00013612,-4.6547e-05,-1.1082e+08,-57939,0,5.3855e+07,-4635.8,11537,12607,1,12607,1,0.00024843,9.7988e-08,0,0.00039609,5.1113e-05,9.7263e+07,32865,0,1.5613e+08,4395.3,12606,618.61,0,618.61,0,0.00030076,2.3584e-07,0,0.00014997,5.6384e-05,1.1927e+08,79556,0,5.9139e+07,6795.8,618.61,1
2137,1.85,12073,1,12073,1,4.7208e-06,7.3683e-08,0,0.00026221,-8.6121e-07,-5.9999e+05,24845,0,1.0413e+08,-1509.8,12072,13208,1,13208,1,0.00051316,7.9343e-07,0,0.00051316,9.3867e-05,1.9672e+08,2.7071e+05,0,2.0361e+08,16469,13207,12073,1,12073,1,-1.2472e-05,1.9282e-08,0,0.00027398,2.3508e-06,-5.0768e+06,6396.7,0,1.1144e+08,-1109.6,12072,10979,1,10979,1,-0.00050059,-4.3824e-07,0,1.2471e-05,-9.6155e-05,-2.0361e+08,-1.4815e+05,0,5.0764e+06,-19041,10978,11538,1,11538,1,-0.00027399,-8.8011e-08,0,0.00013698,-4.6849e-05,-1.1144e+08,-29414,0,5.418e+07,-6399,11537,12607,1,12607,1,0.00025014,2.1917e-07,0,0.00039844,5.1401e-05,9.7895e+07,74035,0,1.5701e+08,3986.1,12606,618.61,0,618.61,0,0.00030252,2.6319e-07,0,0.00015085,5.6716e-05,1.1993e+08,88893,0,5.9466e+07,6825.6,618.61,1
2137,1.86,12073,1,12073,1,4.82e-06,3.1145e-08,0,0.00026359,-8.7533e-07,-5.9901e+05,10535,0,1.0465e+08,206.52,12072,13208,1,13208,1,0.00051573,7.2865e-07,0,0.00051573,9.4301e-05,1.9754e+08,2.4846e+05,0,2.0455e+08,24104,13207,12073,1,12073,1,-1.2439e-05,-6.393e-09,0,0.00027535,2.3439e-06,-5.0644e+06,-2070.5,0,1.1199e+08,997.71,12072,10979,1,10979,1,-0.00050289,-4.3693e-07,0,1.2445e-05,-9.6634e-05,-2.0455e+08,-1.4706e+05,0,5.0659e+06,-16956,10978,11538,1,11538,1,-0.00027535,-1.4505e-07,0,0.00013776,-4.7104e-05,-1.1199e+08,-48968,0,5.4477e+07,-5012.4,11537,12607,1,12607,1,0.00025146,1.725e-07,0,0.00040058,5.1657e-05,9.8364e+07,58253,0,1.578e+08,5384.2,12606,618.61,0,618.61,0,0.00030411,2.5601e-07,0,0.00015165,5.7014e-05,1.2053e+08,86404,0,5.9759e+07,7871.8,618.61,1
2137,1.87,12073,1,12073,1,4.9054e-06,-2.0582e-08,0,0.00026498,-8.9526e-07,-6.0315e+05,-6923.4,0,1.0518e+08,-1578.5,12072,13208,1,13208,1,0.00051793,5.5726e-07,0,0.00051793,9.4712e-05,1.983e+08,1.9001e+05,0,2.0545e+08,12295,13207,12073,1,12073,1,-1.2449e-05,-1.1045e-08,0,0.0002768,2.3476e-06,-5.068e+06,-3591.1,0,1.1259e+08,-1681.2,12072,10979,1,10979,1,-0.00050511,-5.5791e-07,0,1.2449e-05,-9.7053e-05,-2.0545e+08,-1.8869e+05,0,5.0687e+06,-17801,10978,11538,1,11538,1,-0.00027681,-1.7118e-07,0,0.00013858,-4.7354e-05,-1.1259e+08,-56962,0,5.4787e+07,-6458.4,11537,12607,1,12607,1,0.00025269,1.1076e-07,0,0.00040285,5.1932e-05,9.8809e+07,37021,0,1.5865e+08,3426.3,12606,618.61,0,618.61,0,0.00030572,2.3752e-07,0,0.00015245,5.7315e-05,1.2114e+08,80183,0,6.0057e+07,5794.2,618.61,1
2137,1.88,12073,1,12073,1,4.9813e-06,2.8728e-08,0,0.00026622,-9.0421e-07,-6.0873e+05,9648.8,0,1.0565e+08,493.81,12072,13208,1,13208,1,0.00052089,8.716e-07,0,0.00052089,9.5224e-05,1.9931e+08,2.9717e+05,0,2.0656e+08,27115,13207,12073,1,12073,1,-1.247e-05,-1.191e-08,0,0.00027798,2.351e-06,-5.0758e+06,-3888.7,0,1.1306e+08,-104.75,12072,10979,1,10979,1,-0.00050784,-5.1564e-07,0,1.2474e-05,-9.7602e-05,-2.0656e+08,-1.7476e+05,0,5.077e+06,-19814,10978,11538,1,11538,1,-0.00027799,-1.8107e-07,0,0.00013925,-4.7619e-05,-1.1307e+08,-59725,0,5.5042e+07,-5200.3,11537,12607,1,12607,1,0.00025404,1.8652e-07,0,0.00040469,5.2157e-05,9.9306e+07,62726,0,1.5933e+08,5265.4,12606,618.61,0,618.61,0,0.00030715,3.0453e-07,0,0.00015316,5.7585e-05,1.2167e+08,1.0271e+05,0,6.0317e+07,8349.9,618.61,1
2137,1.89,12073,1,12073,1,5.0578e-06,6.2182e-09,0,0.00026777,-9.1806e-07,-6.1598e+05,2104.2,0,1.0624e+08,525.45,12072,13208,1,13208,1,0.00052352,5.5876e-07,0,0.00052352,9.5677e-05,2.0018e+08,1.9126e+05,0,2.0754e+08,17104,13207,12073,1,12073,1,-1.25e-05,-1.2215e-08,0,0.00027965,2.3653e-06,-5.0888e+06,-4039.6,0,1.1375e+08,227.93,12072,10979,1,10979,1,-0.00051025,-3.7592e-07,0,1.2499e-05,-9.8093e-05,-2.0754e+08,-1.2728e+05,0,5.0885e+06,-12766,10978,11538,1,11538,1,-0.00027966,-1.1107e-07,0,0.00014017,-4.7849e-05,-1.1375e+08,-37176,0,5.5393e+07,-3480.1,11537,12607,1,12607,1,0.00025537,9.2654e-08,0,0.00040727,5.2457e-05,9.9788e+07,31137,0,1.603e+08,3445.1,12606,618.61,0,618.61,0,0.00030894,1.8821e-07,0,0.00015407,5.7916e-05,1.2235e+08,63489,0,6.0654e+07,5396,618.61,1
2137,1.9,12073,1,12073,1,5.1644e-06,2.9264e-08,0,0.00026908,-9.4329e-07,-6.1454e+05,9880.9,0,1.0673e+08,-1809.2,12072,13208,1,13208,1,0.00052655,7.866e-07,0,0.00052655,9.6204e-05,2.0122e+08,2.6608e+05,0,2.0868e+08,14417,13207,12073,1,12073,1,-1.2477e-05,-4.8716e-09,0,0.00028084,2.3563e-06,-5.0795e+06,-1668.5,0,1.1423e+08,-1442,12072,10979,1,10979,1,-0.00051306,-5.0703e-07,0,1.2477e-05,-9.8662e-05,-2.0868e+08,-1.7186e+05,0,5.0782e+06,-20343,10978,11538,1,11538,1,-0.00028085,-1.5059e-07,0,0.00014088,-4.8132e-05,-1.1423e+08,-50238,0,5.5662e+07,-6017.7,11537,12607,1,12607,1,0.00025687,1.7873e-07,0,0.00040919,5.2688e-05,1.0034e+08,60352,0,1.6099e+08,3338.3,12606,618.61,0,618.61,0,0.00031045,2.6976e-07,0,0.00015481,5.8201e-05,1.2291e+08,91035,0,6.0927e+07,6761.7,618.61,1
2137,1.91,12073,1,12073,1,5.2474e-06,-2.7118e-08,0,0.00027077,-9.5591e-07,-6.2311e+05,-9084.5,0,1.0737e+08,-758.59,12072,13208,1,13208,1,0.00052967,6.6227e-07,0,0.00052967,9.675e-05,2.0228e+08,2.2552e+05,0,2.0986e+08,15818,13207,12073,1,12073,1,-1.2504e-05,-2.5551e-08,0,0.00028257,2.3601e-06,-5.0907e+06,-8656,0,1.1493e+08,-501.97,12072,10979,1,10979,1,-0.00051597,-5.2318e-07,0,1.2502e-05,-9.9244e-05,-2.0986e+08,-1.7624e+05,0,5.0901e+06,-20665,10978,11538,1,11538,1,-0.00028257,-1.9406e-07,0,0.00014183,-4.8424e-05,-1.1493e+08,-64881,0,5.6022e+07,-5516.3,11537,12607,1,12607,1,0.00025847,9.9467e-08,0,0.00041183,5.301e-05,1.0093e+08,33557,0,1.6199e+08,4426.2,12606,618.61,0,618.61,0,0.0003124,2.4938e-07,0,0.00015579,5.8566e-05,1.2366e+08,84149,0,6.1292e+07,6595.9,618.61,1
2137,1.92,12073,1,12073,1,5.3431e-06,4.9924e-09,0,0.0002719,-9.7095e-07,-6.2739e+05,1650.1,0,1.0779e+08,270.67,12072,13208,1,13208,1,0.00053183,5.6226e-07,0,0.00053183,9.7118e-05,2.0296e+08,1.8827e+05,0,2.1066e+08,18348,13207,12073,1,12073,1,-1.2463e-05,-3.642e-09,0,0.00028373,2.3703e-06,-5.0739e+06,-1184.8,0,1.154e+08,18.142,12072,10979,1,10979,1,-0.00051793,-4.5802e-07,0,1.247e-05,-9.9646e-05,-2.1066e+08,-1.5553e+05,0,5.0752e+06,-14185,10978,11538,1,11538,1,-0.00028373,-1.1868e-07,0,0.00014251,-4.8623e-05,-1.154e+08,-39566,0,5.6275e+07,-4239,11537,12607,1,12607,1,0.00025954,1.1045e-07,0,0.0004137,5.3225e-05,1.013e+08,36967,0,1.6267e+08,3991.6,12606,618.61,0,618.61,0,0.0003137,2.0243e-07,0,0.00015644,5.8808e-05,1.2413e+08,68249,0,6.1523e+07,5718.5,618.61,1
2137,1.93,12073,1,12073,1,5.4363e-06,-2.4631e-09,0,0.00027345,-9.889e-07,-6.2863e+05,-811.88,0,1.0838e+08,-77.103,12072,13208,1,13208,1,0.0005352,8.1989e-07,0,0.0005352,9.771e-05,2.0414e+08,2.7844e+05,0,2.1195e+08,24255,13207,12073,1,12073,1,-1.249e-05,-2.4705e-08,0,0.00028522,2.3475e-06,-5.0842e+06,-8157.5,0,1.1601e+08,-90.178,12072,10979,1,10979,1,-0.0005211,-5.1078e-07,0,1.2494e-05,-0.00010028,-2.1195e+08,-1.7191e+05,0,5.0833e+06,-23383,10978,11538,1,11538,1,-0.00028522,-2.0891e-07,0,0.00014335,-4.8956e-05,-1.1601e+08,-69746,0,5.6594e+07,-5644.9,11537,12607,1,12607,1,0.0002612,1.3754e-07,0,0.00041601,5.3513e-05,1.0192e+08,45767,0,1.6353e+08,4441.6,12606,618.61,0,618.61,0,0.00031549,2.9258e-07,0,0.00015734,5.9147e-05,1.2481e+08,98665,0,6.1858e+07,7881.4,618.61,1
2137,1.94,12073,1,12073,1,5.5584e-06,1.1606e-08,0,0.0002751,-1.0145e-06,-6.2728e+05,3890.9,0,1.0901e+08,-1421.1,12072,13208,1,13208,1,0.00053827,5.7978e-07,0,0.00053827,9.8243e-05,2.0515e+08,1.9496e+05,0,2.1311e+08,11495,13207,12073,1,12073,1,-1.2467e-05,-2.1257e-09,0,0.00028691,2.337e-06,-5.0794e+06,-700.53,0,1.167e+08,-1045.7,12072,10979,1,10979,1,-0.00052393,-4.5541e-07,0,1.2461e-05,-0.00010085,-2.1311e+08,-1.5416e+05,0,5.074e+06,-21523,10978,11538,1,11538,1,-0.00028692,-1.3219e-07,0,0.00014433,-4.9239e-05,-1.167e+08,-43881,0,5.6966e+07,-5489.8,11537,12607,1,12607,1,0.00026278,1.3935e-07,0,0.00041871,5.3826e-05,1.0248e+08,46817,0,1.6452e+08,3346,12606,618.61,0,618.61,0,0.0003174,2.1787e-07,0,0.0001583,5.9501e-05,1.2553e+08,73435,0,6.221e+07,5587,618.61,1
2137,1.95,12073,1,12073,1,5.6798e-06,-5.4514e-09,0,0.00027645,-1.035e-06,-6.2559e+05,-1863.4,0,1.0951e+08,-653.51,12072,13208,1,13208,1,0.00054101,7.3489e-07,0,0.00054101,9.8702e-05,2.0605e+08,2.4707e+05,0,2.1409e+08,21190,13207,12073,1,12073,1,-1.2448e-05,-2.6322e-08,0,0.0002882,2.3545e-06,-5.0682e+06,-8944.8,0,1.1722e+08,-748.45,12072,10979,1,10979,1,-0.00052637,-4.1113e-07,0,1.2452e-05,-0.00010136,-2.1409e+08,-1.3892e+05,0,5.0683e+06,-25120,10978,11538,1,11538,1,-0.0002882,-1.8074e-07,0,0.00014513,-4.9485e-05,-1.1722e+08,-60343,0,5.7259e+07,-5105.2,11537,12607,1,12607,1,0.00026416,9.049e-08,0,0.00042082,5.4073e-05,1.0298e+08,30331,0,1.6527e+08,2813,12606,618.61,0,618.61,0,0.00031895,2.5016e-07,0,0.00015907,5.9793e-05,1.261e+08,84236,0,6.2489e+07,7035.6,618.61,1
2137,1.96,12073,1,12073,1,5.7664e-06,-3.0135e-08,0,0.00027795,-1.0498e-06,-6.3446e+05,-10075,0,1.1007e+08,-263.53,12072,13208,1,13208,1,0.00054399,5.0194e-07,0,0.00054399,9.9246e-05,2.0705e+08,1.6962e+05,0,2.1528e+08,14827,13207,12073,1,12073,1,-1.2462e-05,-2.9391e-08,0,0.00028976,2.3611e-06,-5.0741e+06,-9772.7,0,1.1785e+08,353.05,12072,10979,1,10979,1,-0.00052928,-4.6332e-07,0,1.2463e-05,-0.00010193,-2.1528e+08,-1.5575e+05,0,5.0743e+06,-16033,10978,11538,1,11538,1,-0.00028976,-1.5849e-07,0,0.00014599,-4.978e-05,-1.1786e+08,-53078,0,5.7584e+07,-4295.9,11537,12607,1,12607,1,0.0002657,6.5172e-08,0,0.00042323,5.4353e-05,1.0353e+08,21630,0,1.6618e+08,3778.9,12606,618.61,0,618.61,0,0.00032069,1.9927e-07,0,0.00015994,6.0117e-05,1.2675e+08,67116,0,6.2809e+07,5585.5,618.61,1
2137,1.97,12073,1,12073,1,5.8697e-06,2.4668e-09,0,0.00027935,-1.067e-06,-6.3829e+05,813.85,0,1.106e+08,448.36,12072,13208,1,13208,1,0.00054665,6.5601e-07,0,0.00054665,9.9701e-05,2.0794e+08,2.236e+05,0,2.1626e+08,18250,13207,12073,1,12073,1,-1.2451e-05,-1.6791e-08,0,0.00029112,2.3653e-06,-5.07e+06,-5547.4,0,1.1841e+08,576.42,12072,10979,1,10979,1,-0.0005317,-4.3052e-07,0,1.2455e-05,-0.00010242,-2.1626e+08,-1.4501e+05,0,5.0701e+06,-13840,10978,11538,1,11538,1,-0.00029112,-1.7123e-07,0,0.00014679,-5.0027e-05,-1.1841e+08,-57359,0,5.7881e+07,-3567.9,11537,12607,1,12607,1,0.00026705,1.2753e-07,0,0.00042539,5.4621e-05,1.0401e+08,42576,0,1.6697e+08,3936.5,12606,618.61,0,618.61,0,0.0003223,2.4215e-07,0,0.00016075,6.042e-05,1.2735e+08,81573,0,6.3102e+07,5851.9,618.61,1
2137,1.98,12073,1,12073,1,5.9765e-06,-2.9266e-08,0,0.0002808,-1.0928e-06,-6.4089e+05,-9842.6,0,1.1114e+08,-2146.6,12072,13208,1,13208,1,0.00054961,5.4256e-07,0,0.00054961,0.00010021,2.0891e+08,1.8232e+05,0,2.1737e+08,10235,13207,12073,1,12073,1,-1.2419e-05,-2.4746e-08,0,0.00029254,2.3263e-06,-5.0589e+06,-8291.9,0,1.1899e+08,-907.76,12072,10979,1,10979,1,-0.00053443,-4.433e-07,0,1.2424e-05,-0.00010298,-2.1737e+08,-1.4897e+05,0,5.0598e+06,-25700,10978,11538,1,11538,1,-0.00029255,-1.896e-07,0,0.00014761,-5.0308e-05,-1.1899e+08,-63671,0,5.8189e+07,-6165.2,11537,12607,1,12607,1,0.00026854,9.2513e-08,0,0.00042765,5.4879e-05,1.0455e+08,31575,0,1.678e+08,2731.4,12606,618.61,0,618.61,0,0.00032397,2.2164e-07,0,0.00016159,6.0731e-05,1.2798e+08,74649,0,6.3409e+07,6274.6,618.61,1
2137,1.99,12073,1,12073,1,6.0672e-06,3.3171e-08,0,0.00028203,-1.1049e-06,-6.4785e+05,11130,0,1.116e+08,-256.96,12072,13208,1,13208,1,0.00055259,7.2849e-07,0,0.00055259,0.00010071,2.0989e+08,2.4771e+05,0,2.1846e+08,14473,13207,12073,1,12073,1,-1.2405e-05,6.315e-09,0,0.00029372,2.34e-06,-5.0529e+06,2089.6,0,1.1947e+08,-128.35,12072,10979,1,10979,1,-0.00053709,-5.1634e-07,0,1.2415e-05,-0.00010353,-2.1846e+08,-1.7349e+05,0,5.0548e+06,-17738,10978,11538,1,11538,1,-0.00029373,-1.3746e-07,0,0.00014832,-5.056e-05,-1.1947e+08,-45977,0,5.8454e+07,-5341.3,11537,12607,1,12607,1,0.00026991,1.8236e-07,0,0.00042956,5.511e-05,1.0504e+08,61089,0,1.6848e+08,5194.9,12606,618.61,0,618.61,0,0.0003254,2.6653e-07,0,0.0001623,6.1e-05,1.285e+08,89717,0,6.3664e+07,6388.9,618.61,1
2137,2,12073,1,12073,1,6.176e-06,1.0101e-08,0,0.00028367,-1.1259e-06,-6.4931e+05,3385.3,0,1.1222e+08,-700.29,12072,13208,1,13208,1,0.00055563,7.1285e-07,0,0.00055563,0.00010123,2.109e+08,2.4399e+05,0,2.1959e+08,17913,13207,12073,1,12073,1,-1.2409e-05,-1.3625e-08,0,0.00029536,2.3571e-06,-5.0533e+06,-4544.9,0,1.2013e+08,-305.75,12072,10979,1,10979,1,-0.00053988,-4.8898e-07,0,1.2417e-05,-0.0001041,-2.1959e+08,-1.6493e+05,0,5.0556e+06,-15433,10978,11538,1,11538,1,-0.00029536,-1.8221e-07,0,0.00014925,-5.0849e-05,-1.2013e+08,-60591,0,5.8803e+07,-5960.2,11537,12607,1,12607,1,0.00027148,1.6233e-07,0,0.00043211,5.5416e-05,1.0561e+08,54845,0,1.6944e+08,3993.6,12606,618.61,0,618.61,0,0.00032729,2.7714e-07,0,0.00016325,6.1355e-05,1.2921e+08,93316,0,6.4014e+07,6680.4,618.61,1
2137,2.01,12073,1,12073,1,6.2805e-06,-4.6828e-08,0,0.00028464,-1.1445e-06,-6.527e+05,-15758,0,1.1257e+08,-489.94,12072,13208,1,13208,1,0.00055778,7.9397e-07,0,0.00055778,0.00010162,2.1156e+08,2.6668e+05,0,2.2043e+08,19127,13207,12073,1,12073,1,-1.2371e-05,-5.1763e-08,0,0.00029626,2.3502e-06,-5.0376e+06,-16671,0,1.205e+08,59.034,12072,10979,1,10979,1,-0.00054194,-5.8339e-07,0,1.2371e-05,-0.00010451,-2.2043e+08,-1.9744e+05,0,5.0369e+06,-20927,10978,11538,1,11538,1,-0.00029627,-2.5942e-07,0,0.00014982,-5.1075e-05,-1.205e+08,-86698,0,5.9009e+07,-5074.4,11537,12607,1,12607,1,0.00027263,7.8825e-08,0,0.00043363,5.5584e-05,1.06e+08,25921,0,1.6996e+08,4136.7,12606,618.61,0,618.61,0,0.0003284,2.9826e-07,0,0.00016381,6.1564e-05,1.2961e+08,1.0041e+05,0,6.4206e+07,6776.8,618.61,1
2137,2.02,12073,1,12073,1,6.3878e-06,-4.1542e-08,0,0.00028697,-1.1647e-06,-6.5849e+05,-13946,0,1.1346e+08,-746.61,12072,13208,1,13208,1,0.00056205,4.981e-07,0,0.00056205,0.00010237,2.1305e+08,1.6846e+05,0,2.2204e+08,17538,13207,12073,1,12073,1,-1.2423e-05,-3.019e-08,0,0.00029873,2.3393e-06,-5.0594e+06,-10070,0,1.2151e+08,-1006.3,12072,10979,1,10979,1,-0.0005459,-4.1849e-07,0,1.2421e-05,-0.00010531,-2.2204e+08,-1.4185e+05,0,5.0578e+06,-17037,10978,11538,1,11538,1,-0.00029874,-1.8314e-07,0,0.00015116,-5.147e-05,-1.2151e+08,-61550,0,5.9524e+07,-4610.6,11537,12607,1,12607,1,0.00027475,6.1537e-08,0,0.0004374,5.6037e-05,1.0679e+08,20443,0,1.714e+08,2019,12606,618.61,0,618.61,0,0.0003311,1.9707e-07,0,0.00016516,6.2065e-05,1.3065e+08,66430,0,6.4719e+07,5452.2,618.61,1
2137,2.03,12073,1,12073,1,6.5498e-06,-1.0047e-08,0,0.00028823,-1.1928e-06,-6.5627e+05,-3383.3,0,1.1391e+08,-34.906,12072,13208,1,13208,1,0.0005645,6.281e-07,0,0.0005645,0.00010277,2.1376e+08,2.109e+05,0,2.2293e+08,20008,13207,12073,1,12073,1,-1.2358e-05,-1.9971e-08,0,0.00029991,2.3381e-06,-5.0326e+06,-6634.8,0,1.2198e+08,-354.3,12072,10979,1,10979,1,-0.00054808,-4.5549e-07,0,1.2359e-05,-0.00010577,-2.2293e+08,-1.5466e+05,0,5.0328e+06,-16740,10978,11538,1,11538,1,-0.00029991,-1.7544e-07,0,0.00015196,-5.1713e-05,-1.2198e+08,-58177,0,5.9812e+07,-4382.1,11537,12607,1,12607,1,0.00027602,1.0595e-07,0,0.00043945,5.627e-05,1.0721e+08,35448,0,1.7209e+08,3840.3,12606,618.61,0,618.61,0,0.00033256,2.3463e-07,0,0.00016589,6.2341e-05,1.3116e+08,78923,0,6.4967e+07,6399.9,618.61,1
2137,2.04,12073,1,12073,1,6.6642e-06,-1.8484e-08,0,0.00028949,-1.2182e-06,-6.5522e+05,-6221.3,0,1.1438e+08,-1883.8,12072,13208,1,13208,1,0.0005672,6.0379e-07,0,0.0005672,0.00010324,2.1465e+08,2.0222e+05,0,2.2393e+08,10301,13207,12073,1,12073,1,-1.2318e-05,-1.5207e-08,0,0.00030109,2.3251e-06,-5.0175e+06,-5079.1,0,1.2246e+08,-1449.1,12072,10979,1,10979,1,-0.00055055,-4.9882e-07,0,1.2324e-05,-0.00010627,-2.2393e+08,-1.6827e+05,0,5.0188e+06,-19766,10978,11538,1,11538,1,-0.00030109,-1.8674e-07,0,0.00015268,-5.1963e-05,-1.2247e+08,-62270,0,6.008e+07,-5842.7,11537,12607,1,12607,1,0.00027737,1.1997e-07,0,0.00044138,5.6489e-05,1.0769e+08,40184,0,1.7278e+08,2809.9,12606,618.61,0,618.61,0,0.000334,2.4071e-07,0,0.00016661,6.261e-05,1.3169e+08,80972,0,6.5227e+07,5839.7,618.61,1
2137,2.05,12073,1,12073,1,6.7614e-06,-2.5525e-08,0,0.00029094,-1.2354e-06,-6.6171e+05,-8599.1,0,1.1492e+08,-1623.3,12072,13208,1,13208,1,0.00057013,6.0512e-07,0,0.00057013,0.00010374,2.1561e+08,2.0619e+05,0,2.2501e+08,16149,13207,12073,1,12073,1,-1.2313e-05,-2.5448e-08,0,0.00030257,2.3312e-06,-5.016e+06,-8559.9,0,1.2306e+08,-976.88,12072,10979,1,10979,1,-0.00055321,-4.441e-07,0,1.2317e-05,-0.00010682,-2.2501e+08,-1.5058e+05,0,5.0167e+06,-20092,10978,11538,1,11538,1,-0.00030257,-1.8648e-07,0,0.00015352,-5.2233e-05,-1.2307e+08,-62073,0,6.0393e+07,-5526.9,11537,12607,1,12607,1,0.00027883,8.6918e-08,0,0.0004437,5.676e-05,1.0822e+08,28535,0,1.7364e+08,2931.1,12606,618.61,0,618.61,0,0.00033568,2.2509e-07,0,0.00016745,6.2925e-05,1.3232e+08,75778,0,6.5534e+07,6390.8,618.61,1
2137,2.06,12073,1,12073,1,6.8798e-06,-1.3735e-08,0,0.00029221,-1.2586e-06,-6.6253e+05,-4641,0,1.1539e+08,-2261.3,12072,13208,1,13208,1,0.0005726,5.9797e-07,0,0.0005726,0.00010416,2.1639e+08,2.0436e+05,0,2.2594e+08,10354,13207,12073,1,12073,1,-1.2275e-05,-1.7212e-08,0,0.00030379,2.3153e-06,-5.0019e+06,-5848.7,0,1.2356e+08,-1495.4,12072,10979,1,10979,1,-0.00055548,-4.8656e-07,0,1.2279e-05,-0.00010728,-2.2594e+08,-1.6421e+05,0,5.0029e+06,-17650,10978,11538,1,11538,1,-0.00030379,-1.7906e-07,0,0.00015428,-5.2473e-05,-1.2356e+08,-60344,0,6.0671e+07,-6702.3,11537,12607,1,12607,1,0.0002801,1.1477e-07,0,0.00044571,5.6992e-05,1.0866e+08,38499,0,1.7436e+08,2790,12606,618.61,0,618.61,0,0.00033715,2.411e-07,0,0.00016819,6.3201e-05,1.3286e+08,81087,0,6.5797e+07,6075.6,618.61,1
2137,2.07,12073,1,12073,1,6.9882e-06,-5.5472e-08,0,0.00029357,-1.28e-06,-6.6509e+05,-18608,0,1.159e+08,-2899.1,12072,13208,1,13208,1,0.00057573,6.2851e-07,0,0.00057573,0.0001047,2.1743e+08,2.1132e+05,0,2.271e+08,15353,13207,12073,1,12073,1,-1.2253e-05,-3.6924e-08,0,0.00030511,2.3083e-06,-4.9933e+06,-12301,0,1.241e+08,-1526.4,12072,10979,1,10979,1,-0.00055834,-5.4535e-07,0,1.2256e-05,-0.00010787,-2.271e+08,-1.8411e+05,0,4.9936e+06,-26836,10978,11538,1,11538,1,-0.00030511,-2.3982e-07,0,0.00015507,-5.2759e-05,-1.241e+08,-80816,0,6.0962e+07,-7255.7,11537,12607,1,12607,1,0.00028165,6.9315e-08,0,0.00044785,5.7238e-05,1.0921e+08,23332,0,1.7513e+08,2645.3,12606,618.61,0,618.61,0,0.00033872,2.5665e-07,0,0.00016898,6.3496e-05,1.3344e+08,86392,0,6.6081e+07,7383.8,618.61,1
2137,2.08,12073,1,12073,1,7.0982e-06,-3.8496e-08,0,0.00029475,-1.2932e-06,-6.6665e+05,-12970,0,1.1633e+08,-5.8216,12072,13208,1,13208,1,0.00057799,6.9884e-07,0,0.00057799,0.00010508,2.1812e+08,2.3511e+05,0,2.2794e+08,21886,13207,12073,1,12073,1,-1.2222e-05,-3.2705e-08,0,0.00030625,2.3129e-06,-4.9792e+06,-10962,0,1.2456e+08,235.64,12072,10979,1,10979,1,-0.00056039,-5.7012e-07,0,1.2219e-05,-0.00010829,-2.2794e+08,-1.9239e+05,0,4.9772e+06,-21515,10978,11538,1,11538,1,-0.00030625,-2.2197e-07,0,0.00015576,-5.2985e-05,-1.2456e+08,-75370,0,6.1219e+07,-4110.2,11537,12607,1,12607,1,0.00028282,7.898e-08,0,0.00044973,5.7459e-05,1.0961e+08,26521,0,1.7579e+08,4275.7,12606,618.61,0,618.61,0,0.00034007,2.6506e-07,0,0.00016966,6.3751e-05,1.3393e+08,89099,0,6.6322e+07,7159.9,618.61,1
2137,2.09,12073,1,12073,1,7.2079e-06,2.4085e-08,0,0.00029659,-1.3173e-06,-6.7337e+05,8110.6,0,1.1703e+08,-1685.5,12072,13208,1,13208,1,0.00058177,8.3769e-07,0,0.00058177,0.00010573,2.1945e+08,2.814e+05,0,2.2933e+08,17985,13207,12073,1,12073,1,-1.2235e-05,-1.1988e-08,0,0.00030808,2.3006e-06,-4.9868e+06,-3863.6,0,1.2531e+08,103.75,12072,10979,1,10979,1,-0.00056383,-4.9907e-07,0,1.2239e-05,-0.00010899,-2.2933e+08,-1.6738e+05,0,4.9867e+06,-29816,10978,11538,1,11538,1,-0.00030808,-1.7752e-07,0,0.0001568,-5.331e-05,-1.2531e+08,-58935,0,6.1612e+07,-6187.5,11537,12607,1,12607,1,0.00028459,1.765e-07,0,0.00045255,5.78e-05,1.1025e+08,59045,0,1.7685e+08,4652.7,12606,618.61,0,618.61,0,0.0003422,2.8987e-07,0,0.00017072,6.4148e-05,1.3473e+08,97447,0,6.6715e+07,8500.6,618.61,1
2137,2.1,12073,1,12073,1,7.3534e-06,3.4897e-08,0,0.00029802,-1.3371e-06,-6.7482e+05,11711,0,1.1755e+08,1151.3,12072,13208,1,13208,1,0.00058456,6.3706e-07,0,0.00058456,0.0001062,2.2027e+08,2.1424e+05,0,2.3036e+08,23669,13207,12073,1,12073,1,-1.2183e-05,6.8205e-09,0,0.00030951,2.3152e-06,-4.9635e+06,2279.8,0,1.2589e+08,959.38,12072,10979,1,10979,1,-0.00056634,-4.022e-07,0,1.2185e-05,-0.00010951,-2.3036e+08,-1.3536e+05,0,4.9626e+06,-14956,10978,11538,1,11538,1,-0.00030952,-1.1578e-07,0,0.0001577,-5.3565e-05,-1.2589e+08,-38517,0,6.1944e+07,-2910.8,11537,12607,1,12607,1,0.00028604,1.6563e-07,0,0.00045494,5.8066e-05,1.1076e+08,54800,0,1.777e+08,4667.4,12606,618.61,0,618.61,0,0.00034386,2.2156e-07,0,0.00017155,6.4456e-05,1.3533e+08,74539,0,6.7009e+07,6458.8,618.61,1
2137,2.11,12073,1,12073,1,7.4597e-06,-2.7196e-09,0,0.00029927,-1.3629e-06,-6.8278e+05,-892.5,0,1.1801e+08,-1511.2,12072,13208,1,13208,1,0.00058681,6.3112e-07,0,0.00058681,0.00010658,2.2095e+08,2.1599e+05,0,2.3118e+08,18646,13207,12073,1,12073,1,-1.2142e-05,-1.3397e-08,0,0.00031073,2.3031e-06,-4.9479e+06,-4472.2,0,1.2638e+08,-1275.8,12072,10979,1,10979,1,-0.00056836,-4.892e-07,0,1.214e-05,-0.00010993,-2.3118e+08,-1.6421e+05,0,4.9467e+06,-18224,10978,11538,1,11538,1,-0.00031073,-1.7308e-07,0,0.00015843,-5.381e-05,-1.2639e+08,-57674,0,6.2207e+07,-5655.6,11537,12607,1,12607,1,0.00028725,1.3434e-07,0,0.00045691,5.8291e-05,1.1118e+08,44531,0,1.7841e+08,2596.2,12606,618.61,0,618.61,0,0.00034529,2.4617e-07,0,0.00017227,6.4725e-05,1.3585e+08,82801,0,6.7263e+07,6290.1,618.61,1
2137,2.12,12073,1,12073,1,7.5852e-06,1.6117e-08,0,0.00030085,-1.3822e-06,-6.8283e+05,5410.2,0,1.186e+08,51.657,12072,13208,1,13208,1,0.0005902,6.5904e-07,0,0.0005902,0.00010717,2.2209e+08,2.2555e+05,0,2.3246e+08,15573,13207,12073,1,12073,1,-1.2145e-05,-1.4041e-09,0,0.00031226,2.3111e-06,-4.9484e+06,-480.99,0,1.2701e+08,237.07,12072,10979,1,10979,1,-0.00057152,-4.7968e-07,0,1.2151e-05,-0.00011057,-2.3246e+08,-1.6144e+05,0,4.9497e+06,-14895,10978,11538,1,11538,1,-0.00031227,-1.4862e-07,0,0.00015935,-5.4109e-05,-1.2701e+08,-48884,0,6.2552e+07,-3881.6,11537,12607,1,12607,1,0.0002889,1.6284e-07,0,0.0004594,5.8583e-05,1.1177e+08,53766,0,1.7931e+08,4424.2,12606,618.61,0,618.61,0,0.00034712,2.4234e-07,0,0.00017319,6.5067e-05,1.3653e+08,81504,0,6.7597e+07,5790.5,618.61,1
2137,2.13,12073,1,12073,1,7.7333e-06,1.1475e-08,0,0.00030274,-1.4134e-06,-6.8593e+05,3864.3,0,1.1931e+08,-1679.9,12072,13208,1,13208,1,0.00059389,6.1501e-07,0,0.00059389,0.00010781,2.2329e+08,2.095e+05,0,2.3385e+08,13690,13207,12073,1,12073,1,-1.2115e-05,-1.0518e-08,0,0.00031416,2.2928e-06,-4.9373e+06,-3524.8,0,1.2778e+08,-994.18,12072,10979,1,10979,1,-0.00057493,-3.9676e-07,0,1.2108e-05,-0.00011126,-2.3385e+08,-1.334e+05,0,4.9353e+06,-17165,10978,11538,1,11538,1,-0.00031417,-1.3165e-07,0,0.00016047,-5.4452e-05,-1.2778e+08,-43793,0,6.2969e+07,-5332.3,11537,12607,1,12607,1,0.00029072,1.2448e-07,0,0.00046245,5.8934e-05,1.1242e+08,40940,0,1.8042e+08,2484.6,12606,618.61,0,618.61,0,0.0003493,2.163e-07,0,0.00017428,6.5474e-05,1.3734e+08,72698,0,6.7994e+07,5574.4,618.61,1
2137,2.14,12073,1,12073,1,7.8852e-06,-1.6799e-09,0,0.00030419,-1.4376e-06,-6.8908e+05,-587.44,0,1.1983e+08,-151.44,12072,13208,1,13208,1,0.00059665,5.2919e-07,0,0.00059665,0.00010826,2.2411e+08,1.7792e+05,0,2.3482e+08,12667,13207,12073,1,12073,1,-1.2053e-05,-1.2759e-08,0,0.00031558,2.2894e-06,-4.9128e+06,-4178.9,0,1.2836e+08,-331,12072,10979,1,10979,1,-0.00057733,-3.9273e-07,0,1.2053e-05,-0.00011178,-2.3482e+08,-1.3236e+05,0,4.9125e+06,-13864,10978,11538,1,11538,1,-0.00031558,-1.4096e-07,0,0.00016135,-5.4729e-05,-1.2836e+08,-47130,0,6.3288e+07,-3845.8,11537,12607,1,12607,1,0.00029221,1.0631e-07,0,0.0004648,5.9204e-05,1.1292e+08,35539,0,1.8125e+08,3332.3,12606,618.61,0,618.61,0,0.00035097,2.0392e-07,0,0.00017512,6.5788e-05,1.3794e+08,68458,0,6.8286e+07,4946,618.61,1
2137,2.15,12073,1,12073,1,8.0107e-06,-3.9891e-08,0,0.00030545,-1.462e-06,-6.918e+05,-13328,0,1.2029e+08,-723.77,12072,13208,1,13208,1,0.00059927,4.6877e-07,0,0.00059927,0.00010871,2.2493e+08,1.5814e+05,0,2.3579e+08,18465,13207,12073,1,12073,1,-1.1997e-05,-3.703e-08,0,0.00031681,2.2693e-06,-4.8911e+06,-12142,0,1.2886e+08,-1128.3,12072,10979,1,10979,1,-0.00057971,-4.0989e-07,0,1.1991e-05,-0.00011227,-2.3579e+08,-1.3816e+05,0,4.889e+06,-16006,10978,11538,1,11538,1,-0.00031681,-1.7516e-07,0,0.00016213,-5.4989e-05,-1.2886e+08,-58084,0,6.3568e+07,-4567.3,11537,12607,1,12607,1,0.00029357,5.9174e-08,0,0.00046685,5.9431e-05,1.1339e+08,19639,0,1.8197e+08,2764.2,12606,618.61,0,618.61,0,0.00035242,1.8864e-07,0,0.00017586,6.606e-05,1.3847e+08,63488,0,6.8543e+07,5655,618.61,1
2137,2.16,12073,1,12073,1,8.1221e-06,-2.0465e-09,0,0.00030671,-1.4788e-06,-6.9628e+05,-697.33,0,1.2075e+08,749.12,12072,13208,1,13208,1,0.00060188,6.1317e-07,0,0.00060188,0.00010915,2.2578e+08,2.0444e+05,0,2.3675e+08,27104,13207,12073,1,12073,1,-1.1984e-05,-1.3489e-08,0,0.000318,2.2783e-06,-4.8847e+06,-4456.7,0,1.2934e+08,30.529,12072,10979,1,10979,1,-0.00058207,-4.3353e-07,0,1.199e-05,-0.00011275,-2.3675e+08,-1.4585e+05,0,4.8864e+06,-13892,10978,11538,1,11538,1,-0.00031801,-1.4498e-07,0,0.00016287,-5.5218e-05,-1.2934e+08,-48100,0,6.3841e+07,-4026.9,11537,12607,1,12607,1,0.00029483,1.12e-07,0,0.00046881,5.9652e-05,1.1383e+08,37308,0,1.8267e+08,3568,12606,618.61,0,618.61,0,0.00035389,2.1428e-07,0,0.00017659,6.6335e-05,1.39e+08,71945,0,6.8803e+07,7355.3,618.61,1
2137,2.17,12073,1,12073,1,8.2244e-06,-3.7976e-09,0,0.00030817,-1.501e-06,-7.0743e+05,-1240.6,0,1.2129e+08,-708.92,12072,13208,1,13208,1,0.0006048,6.9981e-07,0,0.0006048,0.00010964,2.267e+08,2.3564e+05,0,2.3783e+08,21380,13207,12073,1,12073,1,-1.1977e-05,-2.229e-08,0,0.00031945,2.2581e-06,-4.8832e+06,-7495.1,0,1.2993e+08,-358.57,12072,10979,1,10979,1,-0.00058472,-4.6416e-07,0,1.1983e-05,-0.0001133,-2.3783e+08,-1.5758e+05,0,4.8857e+06,-21083,10978,11538,1,11538,1,-0.00031945,-1.7441e-07,0,0.0001637,-5.5513e-05,-1.2993e+08,-58016,0,6.4146e+07,-5724.6,11537,12607,1,12607,1,0.00029634,1.1648e-07,0,0.00047109,5.9932e-05,1.1436e+08,38541,0,1.8351e+08,4477.6,12606,618.61,0,618.61,0,0.00035557,2.4923e-07,0,0.00017743,6.6651e-05,1.3962e+08,83826,0,6.9105e+07,7524.3,618.61,1
2137,2.18,12073,1,12073,1,8.3772e-06,-1.1469e-09,0,0.00030994,-1.5278e-06,-7.0697e+05,-412.03,0,1.2195e+08,-209.77,12072,13208,1,13208,1,0.00060831,5.447e-07,0,0.00060831,0.00011025,2.2784e+08,1.8237e+05,0,2.3914e+08,15673,13207,12073,1,12073,1,-1.1941e-05,-1.1691e-08,0,0.00032121,2.2762e-06,-4.867e+06,-3883,0,1.3065e+08,746.49,12072,10979,1,10979,1,-0.00058793,-3.7406e-07,0,1.1944e-05,-0.00011395,-2.3914e+08,-1.2532e+05,0,4.8677e+06,-20988,10978,11538,1,11538,1,-0.00032122,-1.299e-07,0,0.00016475,-5.5814e-05,-1.3065e+08,-43292,0,6.4538e+07,-3676.4,11537,12607,1,12607,1,0.00029806,9.4191e-08,0,0.00047395,6.0257e-05,1.1497e+08,31911,0,1.8454e+08,3867.5,12606,618.61,0,618.61,0,0.00035761,1.9356e-07,0,0.00017846,6.703e-05,1.4037e+08,64920,0,6.9476e+07,5821.2,618.61,1
2137,2.19,12073,1,12073,1,8.5339e-06,6.6087e-09,0,0.00031116,-1.5571e-06,-7.0586e+05,2208,0,1.2238e+08,-425.39,12072,13208,1,13208,1,0.00061082,5.4899e-07,0,0.00061082,0.00011065,2.2856e+08,1.8587e+05,0,2.4e+08,14693,13207,12073,1,12073,1,-1.1864e-05,-4.0445e-09,0,0.00032234,2.2605e-06,-4.8368e+06,-1328.8,0,1.3111e+08,-54.383,12072,10979,1,10979,1,-0.00059007,-4.4155e-07,0,1.1868e-05,-0.00011442,-2.4e+08,-1.4824e+05,0,4.8374e+06,-14172,10978,11538,1,11538,1,-0.00032235,-1.2804e-07,0,0.00016552,-5.606e-05,-1.3111e+08,-42629,0,6.4816e+07,-4560.8,11537,12607,1,12607,1,0.00029937,1.2455e-07,0,0.00047593,6.047e-05,1.154e+08,41417,0,1.8521e+08,4015.2,12606,618.61,0,618.61,0,0.00035902,2.1312e-07,0,0.00017916,6.7295e-05,1.4087e+08,71571,0,6.9716e+07,5533.6,618.61,1
2137,2.2,12073,1,12073,1,8.645e-06,1.0868e-08,0,0.00031246,-1.5761e-06,-7.126e+05,3634,0,1.2286e+08,93.02,12072,13208,1,13208,1,0.00061339,5.8579e-07,0,0.00061339,0.0001111,2.2937e+08,1.9605e+05,0,2.4098e+08,14738,13207,12073,1,12073,1,-1.1845e-05,1.9378e-09,0,0.00032361,2.2611e-06,-4.8291e+06,620.19,0,1.3162e+08,467.78,12072,10979,1,10979,1,-0.00059246,-4.5541e-07,0,1.1849e-05,-0.00011491,-2.4098e+08,-1.5251e+05,0,4.8301e+06,-13937,10978,11538,1,11538,1,-0.00032361,-1.2755e-07,0,0.0001663,-5.6316e-05,-1.3162e+08,-41892,0,6.5098e+07,-3579,11537,12607,1,12607,1,0.00030069,1.3251e-07,0,0.00047799,6.0709e-05,1.1587e+08,43838,0,1.8595e+08,4154.1,12606,618.61,0,618.61,0,0.00036052,2.1124e-07,0,0.00017992,6.7575e-05,1.4142e+08,70914,0,6.9984e+07,4877.8,618.61,1
2137,2.21,12073,1,12073,1,8.8013e-06,2.3222e-08,0,0.00031395,-1.6115e-06,-7.057e+05,7765,0,1.2341e+08,-2665.4,12072,13208,1,13208,1,0.00061673,6.078e-07,0,0.00061673,0.00011165,2.3045e+08,2.0624e+05,0,2.4218e+08,12093,13207,12073,1,12073,1,-1.1768e-05,-5.8112e-09,0,0.00032502,2.2139e-06,-4.8012e+06,-1943.4,0,1.322e+08,-1876.8,12072,10979,1,10979,1,-0.00059542,-4.0785e-07,0,1.1773e-05,-0.00011553,-2.4218e+08,-1.3756e+05,0,4.802e+06,-25642,10978,11538,1,11538,1,-0.00032503,-1.0355e-07,0,0.00016719,-5.6653e-05,-1.322e+08,-34382,0,6.5426e+07,-6339.1,11537,12607,1,12607,1,0.00030236,1.2774e-07,0,0.00048036,6.097e-05,1.1646e+08,42298,0,1.8679e+08,1987.2,12606,618.61,0,618.61,0,0.00036223,2.0851e-07,0,0.00018078,6.7896e-05,1.4205e+08,70067,0,7.0291e+07,6009.6,618.61,1
2137,2.22,12073,1,12073,1,8.9358e-06,1.6363e-08,0,0.00031531,-1.6295e-06,-7.1049e+05,5476,0,1.239e+08,49.466,12072,13208,1,13208,1,0.00061929,6.0659e-07,0,0.00061929,0.00011208,2.312e+08,2.0292e+05,0,2.4312e+08,13527,13207,12073,1,12073,1,-1.1742e-05,-2.6181e-09,0,0.00032635,2.2408e-06,-4.7892e+06,-886.1,0,1.3274e+08,151.97,12072,10979,1,10979,1,-0.00059772,-4.1675e-07,0,1.1745e-05,-0.00011601,-2.4312e+08,-1.4001e+05,0,4.7891e+06,-14585,10978,11538,1,11538,1,-0.00032636,-1.172e-07,0,0.00016802,-5.6861e-05,-1.3274e+08,-38687,0,6.5729e+07,-4104.9,11537,12607,1,12607,1,0.00030365,1.2734e-07,0,0.00048257,6.1222e-05,1.1689e+08,42332,0,1.8757e+08,4108.5,12606,618.61,0,618.61,0,0.0003638,2.098e-07,0,0.00018157,6.8191e-05,1.4261e+08,70428,0,7.0567e+07,5246.5,618.61,1
2137,2.23,12073,1,12073,1,9.0643e-06,-7.264e-09,0,0.00031685,-1.6585e-06,-7.1792e+05,-2429.8,0,1.2447e+08,-2226.8,12072,13208,1,13208,1,0.00062228,6.2923e-07,0,0.00062228,0.00011259,2.3215e+08,2.1246e+05,0,2.4423e+08,14130,13207,12073,1,12073,1,-1.1706e-05,-2.1634e-08,0,0.00032786,2.2113e-06,-4.7754e+06,-7108.6,0,1.3335e+08,-1662.9,12072,10979,1,10979,1,-0.00060045,-4.5183e-07,0,1.1712e-05,-0.00011657,-2.4423e+08,-1.5233e+05,0,4.7762e+06,-23468,10978,11538,1,11538,1,-0.00032787,-1.5469e-07,0,0.00016893,-5.7185e-05,-1.3336e+08,-52016,0,6.6058e+07,-5819.9,11537,12607,1,12607,1,0.00030523,9.5902e-08,0,0.00048501,6.1505e-05,1.1744e+08,31489,0,1.8845e+08,2287.6,12606,618.61,0,618.61,0,0.00036558,2.2485e-07,0,0.00018246,6.8524e-05,1.4326e+08,75527,0,7.0885e+07,6123.6,618.61,1
2137,2.24,12073,1,12073,1,9.2038e-06,2.6703e-08,0,0.00031833,-1.6759e-06,-7.2421e+05,8938.7,0,1.2501e+08,1170.6,12072,13208,1,13208,1,0.00062554,6.9799e-07,0,0.00062554,0.00011315,2.3317e+08,2.334e+05,0,2.4544e+08,18334,13207,12073,1,12073,1,-1.1666e-05,-3.6243e-09,0,0.00032927,2.2298e-06,-4.7585e+06,-1173.1,0,1.3393e+08,788.95,12072,10979,1,10979,1,-0.00060342,-4.2362e-07,0,1.1669e-05,-0.00011718,-2.4544e+08,-1.4236e+05,0,4.7591e+06,-13373,10978,11538,1,11538,1,-0.00032928,-1.3716e-07,0,0.00016982,-5.7455e-05,-1.3393e+08,-45550,0,6.6379e+07,-3114.5,11537,12607,1,12607,1,0.00030678,1.62e-07,0,0.00048734,6.1777e-05,1.1798e+08,53015,0,1.8928e+08,5147.7,12606,618.61,0,618.61,0,0.00036729,2.4087e-07,0,0.00018332,6.8846e-05,1.4388e+08,80864,0,7.1187e+07,5927.8,618.61,1
2137,2.25,12073,1,12073,1,9.3688e-06,8.2967e-10,0,0.00031973,-1.7124e-06,-7.1955e+05,294.44,0,1.2552e+08,-1417.3,12072,13208,1,13208,1,0.00062811,5.1489e-07,0,0.00062811,0.00011356,2.3393e+08,1.7494e+05,0,2.4633e+08,10332,13207,12073,1,12073,1,-1.1589e-05,-1.123e-08,0,0.00033066,2.2028e-06,-4.7278e+06,-3678.2,0,1.3449e+08,-841.69,12072,10979,1,10979,1,-0.00060562,-3.7936e-07,0,1.1593e-05,-0.00011766,-2.4633e+08,-1.2718e+05,0,4.7289e+06,-16729,10978,11538,1,11538,1,-0.00033067,-1.242e-07,0,0.0001707,-5.7721e-05,-1.345e+08,-41408,0,6.6702e+07,-4582.6,11537,12607,1,12607,1,0.00030818,1.0051e-07,0,0.00048971,6.2033e-05,1.1844e+08,32886,0,1.901e+08,2540.2,12606,618.61,0,618.61,0,0.00036891,1.903e-07,0,0.00018414,6.9147e-05,1.4447e+08,63902,0,7.1473e+07,5088.7,618.61,1
2137,2.26,12073,1,12073,1,9.5047e-06,-1.2447e-08,0,0.00032141,-1.7339e-06,-7.2878e+05,-4162,0,1.2613e+08,-23.412,12072,13208,1,13208,1,0.00063177,6.7972e-07,0,0.00063177,0.00011421,2.3511e+08,2.2719e+05,0,2.4772e+08,18300,13207,12073,1,12073,1,-1.157e-05,-2.3035e-08,0,0.00033222,2.2054e-06,-4.7188e+06,-7578.8,0,1.3513e+08,-412.38,12072,10979,1,10979,1,-0.00060903,-4.579e-07,0,1.1573e-05,-0.00011835,-2.4772e+08,-1.5398e+05,0,4.7196e+06,-15874,10978,11538,1,11538,1,-0.00033223,-2.0442e-07,0,0.00017165,-5.806e-05,-1.3513e+08,-67273,0,6.7046e+07,-4667.1,11537,12607,1,12607,1,0.00031002,1.2753e-07,0,0.00049222,6.2336e-05,1.1909e+08,42719,0,1.9101e+08,4095.9,12606,618.61,0,618.61,0,0.00037084,2.566e-07,0,0.0001851,6.9511e-05,1.4517e+08,86075,0,7.1817e+07,6556.8,618.61,1
2137,2.27,12073,1,12073,1,9.6767e-06,-3.0863e-08,0,0.00032306,-1.769e-06,-7.3033e+05,-10316,0,1.2673e+08,-1559.1,12072,13208,1,13208,1,0.00063492,4.2713e-07,0,0.00063492,0.00011472,2.3603e+08,1.4541e+05,0,2.4883e+08,9889.2,13207,12073,1,12073,1,-1.15e-05,-2.7607e-08,0,0.0003339,2.182e-06,-4.6927e+06,-9080.1,0,1.3581e+08,-680.78,12072,10979,1,10979,1,-0.00061177,-3.6862e-07,0,1.15e-05,-0.00011894,-2.4883e+08,-1.2439e+05,0,4.6937e+06,-17634,10978,11538,1,11538,1,-0.0003339,-1.5366e-07,0,0.00017269,-5.8362e-05,-1.3581e+08,-51260,0,6.7425e+07,-4676.5,11537,12607,1,12607,1,0.00031166,6.0157e-08,0,0.00049502,6.2638e-05,1.1964e+08,19978,0,1.9199e+08,2508,12606,618.61,0,618.61,0,0.00037275,1.7248e-07,0,0.00018607,6.9864e-05,1.4586e+08,57932,0,7.2154e+07,5417.1,618.61,1
2137,2.28,12073,1,12073,1,9.8272e-06,3.2031e-08,0,0.00032396,-1.7903e-06,-7.2978e+05,10666,0,1.2704e+08,1112.6,12072,13208,1,13208,1,0.00063718,7.2274e-07,0,0.00063718,0.00011508,2.3671e+08,2.4146e+05,0,2.4962e+08,15659,13207,12073,1,12073,1,-1.1407e-05,-9.0658e-10,0,0.00033464,2.1873e-06,-4.6552e+06,-311.18,0,1.3611e+08,1284.6,12072,10979,1,10979,1,-0.00061371,-4.7715e-07,0,1.1411e-05,-0.00011936,-2.4962e+08,-1.6081e+05,0,4.6558e+06,-11654,10978,11538,1,11538,1,-0.00033464,-1.3805e-07,0,0.00017326,-5.8554e-05,-1.3611e+08,-46538,0,6.7624e+07,-3828.3,11537,12607,1,12607,1,0.00031271,1.8389e-07,0,0.0004964,6.2786e-05,1.2001e+08,60556,0,1.9243e+08,6090.6,12606,618.61,0,618.61,0,0.00037378,2.6116e-07,0,0.00018659,7.0062e-05,1.462e+08,87544,0,7.2319e+07,5815.5,618.61,1
2137,2.29,12073,1,12073,1,9.9527e-06,4.5515e-08,0,0.00032553,-1.8213e-06,-7.3182e+05,15207,0,1.2763e+08,-2247.3,12072,13208,1,13208,1,0.00064036,5.6914e-07,0,0.00064036,0.00011563,2.3772e+08,1.9373e+05,0,2.5081e+08,9983.7,13207,12073,1,12073,1,-1.1381e-05,1.5966e-08,0,0.0003362,2.1482e-06,-4.6449e+06,5311.5,0,1.3675e+08,-1678,12072,10979,1,10979,1,-0.00061663,-3.5922e-07,0,1.1383e-05,-0.00011995,-2.5081e+08,-1.2119e+05,0,4.6453e+06,-24028,10978,11538,1,11538,1,-0.00033621,-7.479e-08,0,0.00017418,-5.8889e-05,-1.3675e+08,-24531,0,6.7971e+07,-6179.9,11537,12607,1,12607,1,0.00031437,1.6e-07,0,0.00049893,6.3072e-05,1.2058e+08,53206,0,1.9335e+08,2862.1,12606,618.61,0,618.61,0,0.0003756,1.9427e-07,0,0.0001875,7.0399e-05,1.4688e+08,65219,0,7.2652e+07,6164.9,618.61,1
2137,2.3,12073,1,12073,1,1.0359e-05,3.5584e-10,0,0.00032872,-1.8901e-06,-7.4218e+05,138.88,0,1.2875e+08,-770.41,12072,13208,1,13208,1,0.00064552,1.8866e-08,0,0.00064552,0.00011645,2.3921e+08,6461.3,0,2.5256e+08,118.3,13207,12073,1,12073,1,-1.1169e-05,4.119e-10,0,0.00033949,2.1459e-06,-4.5626e+06,136.29,0,1.3808e+08,-754.55,12072,10979,1,10979,1,-0.00062094,-2.2476e-08,0,1.1157e-05,-0.00012092,-2.5256e+08,-7172.2,0,4.5576e+06,-1886.8,10978,11538,1,11538,1,-0.00033949,-4.6304e-09,0,0.00017634,-5.9393e-05,-1.3808e+08,-1564.1,0,6.865e+07,-1237.5,11537,12607,1,12607,1,0.00031717,5.8804e-09,0,0.00050458,6.3674e-05,1.214e+08,1963.1,0,1.953e+08,-242.83,12606,618.61,0,618.61,0,0.00037929,8.1381e-09,0,0.00018937,7.1086e-05,1.4818e+08,2690.3,0,7.3312e+07,550.07,618.61,1
2137,2.31,12073,1,12073,1,1.0654e-05,4.113e-09,0,0.00033028,-1.9425e-06,-7.4537e+05,1373.4,0,1.2926e+08,-83.5,12072,13208,1,13208,1,0.00064871,1.0737e-08,0,0.00064871,0.00011695,2.3999e+08,3676,0,2.5365e+08,197.41,13207,12073,1,12073,1,-1.1016e-05,4.0941e-09,0,0.00034084,2.1203e-06,-4.5015e+06,1346.9,0,1.3863e+08,-88.388,12072,10979,1,10979,1,-0.00062362,-1.5238e-09,0,1.1015e-05,-0.00012152,-2.5365e+08,-521.97,0,4.501e+06,-295.68,10978,11538,1,11538,1,-0.00034084,1.5423e-09,0,0.00017745,-5.9704e-05,-1.3863e+08,501.19,0,6.9016e+07,-178.68,11537,12607,1,12607,1,0.00031885,6.717e-09,0,0.00050727,6.3931e-05,1.2192e+08,2230.8,0,1.9613e+08,-1.6222,12606,618.61,0,618.61,0,0.00038109,3.0834e-09,0,0.00019029,7.1423e-05,1.4876e+08,1041.5,0,7.3592e+07,104.45,618.61,1
2137,2.32,12073,1,12073,1,1.0831e-05,-8.8366e-10,0,0.00033175,-1.9748e-06,-7.4822e+05,-292.48,0,1.2978e+08,-27.021,12072,13208,1,13208,1,0.00065169,4.2972e-09,0,0.00065169,0.00011744,2.4087e+08,1471.2,0,2.5472e+08,127.29,13207,12073,1,12073,1,-1.0938e-05,-7.0193e-10,0,0.00034224,2.1065e-06,-4.4704e+06,-232.63,0,1.392e+08,-29.695,12072,10979,1,10979,1,-0.00062624,-5.1668e-09,0,1.0938e-05,-0.00012208,-2.5472e+08,-1719.6,0,4.4702e+06,-172.25,10978,11538,1,11538,1,-0.00034224,-2.7172e-09,0,0.00017837,-5.999e-05,-1.392e+08,-898.16,0,6.9344e+07,-74.835,11537,12607,1,12607,1,0.00032037,5.2559e-10,0,0.00050967,6.4193e-05,1.2243e+08,173.04,0,1.9695e+08,15.346,12606,618.61,0,618.61,0,0.00038279,2.2001e-09,0,0.00019114,7.1741e-05,1.4936e+08,735.45,0,7.3884e+07,64.042,618.61,1
2137,2.33,12073,1,12073,1,1.0944e-05,1.3474e-08,0,0.00033185,-1.9927e-06,-7.4945e+05,4479.8,0,1.2977e+08,1124.7,12072,13208,1,13208,1,0.0006527,4.1185e-07,0,0.0006527,0.00011757,2.4103e+08,1.3703e+05,0,2.5502e+08,16304,13207,12073,1,12073,1,-1.0826e-05,4.827e-10,0,0.00034209,2.0834e-06,-4.4256e+06,158.2,0,1.3914e+08,766.43,12072,10979,1,10979,1,-0.00062698,-2.9022e-07,0,1.0826e-05,-0.00012225,-2.5502e+08,-96714,0,4.4253e+06,-8320.7,10978,11538,1,11538,1,-0.00034209,-6.4223e-08,0,0.00017847,-6.0075e-05,-1.3914e+08,-21165,0,6.9352e+07,-2105.4,11537,12607,1,12607,1,0.00032086,7.5179e-08,0,0.0005097,6.4173e-05,1.2255e+08,25117,0,1.9688e+08,3205.1,12606,618.61,0,618.61,0,0.0003829,1.3322e-07,0,0.0001912,7.1765e-05,1.4935e+08,44520,0,7.387e+07,4263.4,618.61,1
2137,2.34,12073,1,12073,1,1.1001e-05,-8.9029e-09,0,0.00033314,-2.0082e-06,-7.5312e+05,-2931.8,0,1.3027e+08,-1027.3,12072,13208,1,13208,1,0.00065587,6.3414e-07,0,0.00065587,0.00011813,2.4213e+08,2.1098e+05,0,2.5623e+08,17923,13207,12073,1,12073,1,-1.0825e-05,-2.2894e-08,0,0.00034325,2.0802e-06,-4.4266e+06,-7478.4,0,1.3961e+08,-91.289,12072,10979,1,10979,1,-0.00062995,-4.2844e-07,0,1.0818e-05,-0.00012285,-2.5623e+08,-1.4254e+05,0,4.4216e+06,-21233,10978,11538,1,11538,1,-0.00034325,-1.6361e-07,0,0.00017908,-6.0365e-05,-1.3961e+08,-54442,0,6.9587e+07,-5031.2,11537,12607,1,12607,1,0.0003224,9.8453e-08,0,0.00051142,6.4393e-05,1.2312e+08,33091,0,1.9754e+08,3354.3,12606,618.61,0,618.61,0,0.00038438,2.2502e-07,0,0.00019193,7.2045e-05,1.4992e+08,75102,0,7.4151e+07,6476.5,618.61,1
2137,2.35,12073,1,12073,1,1.1131e-05,1.3739e-08,0,0.00033453,-2.0274e-06,-7.5929e+05,4675.5,0,1.3078e+08,905.67,12072,13208,1,13208,1,0.00065875,6.1785e-07,0,0.00065875,0.00011862,2.4298e+08,2.1137e+05,0,2.5727e+08,16291,13207,12073,1,12073,1,-1.0817e-05,-8.013e-09,0,0.00034459,2.0764e-06,-4.4222e+06,-2658.2,0,1.4015e+08,1231.6,12072,10979,1,10979,1,-0.00063251,-4.0059e-07,0,1.0816e-05,-0.00012339,-2.5727e+08,-1.3325e+05,0,4.4207e+06,-17319,10978,11538,1,11538,1,-0.00034459,-1.4355e-07,0,0.00017992,-6.0634e-05,-1.4016e+08,-47197,0,6.9894e+07,-3800.9,11537,12607,1,12607,1,0.00032383,1.4012e-07,0,0.00051363,6.4654e-05,1.236e+08,45886,0,1.9832e+08,5267.5,12606,618.61,0,618.61,0,0.00038599,2.2609e-07,0,0.00019274,7.2346e-05,1.505e+08,75632,0,7.4434e+07,6097.5,618.61,1
2137,2.36,12073,1,12073,1,1.1284e-05,5.9864e-08,0,0.00033571,-2.0596e-06,-7.5801e+05,19956,0,1.312e+08,-797.91,12072,13208,1,13208,1,0.00066142,6.2761e-07,0,0.00066142,0.00011905,2.4377e+08,2.1177e+05,0,2.5822e+08,11800,13207,12073,1,12073,1,-1.0734e-05,1.9085e-08,0,0.00034572,2.059e-06,-4.3889e+06,6131.9,0,1.4062e+08,-667.43,12072,10979,1,10979,1,-0.00063484,-4.0052e-07,0,1.0728e-05,-0.00012389,-2.5822e+08,-1.3451e+05,0,4.3863e+06,-16034,10978,11538,1,11538,1,-0.00034573,-7.2376e-08,0,0.00018068,-6.088e-05,-1.4062e+08,-24174,0,7.0165e+07,-4788.8,11537,12607,1,12607,1,0.00032518,1.8285e-07,0,0.00051561,6.4863e-05,1.2406e+08,61297,0,1.99e+08,3754.1,12606,618.61,0,618.61,0,0.00038735,2.1462e-07,0,0.00019343,7.2601e-05,1.5098e+08,71756,0,7.4667e+07,5529.6,618.61,1
2137,2.37,12073,1,12073,1,1.1508e-05,-1.8849e-10,0,0.00033883,-2.1005e-06,-7.6347e+05,-43.132,0,1.3237e+08,-869.13,12072,13208,1,13208,1,0.00066622,1.9843e-08,0,0.00066622,0.00011987,2.4537e+08,6795.8,0,2.5999e+08,129.3,13207,12073,1,12073,1,-1.0683e-05,-6.349e-11,0,0.00034911,2.0587e-06,-4.3701e+06,-21.744,0,1.42e+08,-844.11,12072,10979,1,10979,1,-0.00063921,-2.4782e-08,0,1.0669e-05,-0.00012479,-2.5999e+08,-7870.4,0,4.3646e+06,-2098.6,10978,11538,1,11538,1,-0.00034911,-5.6959e-09,0,0.0001826,-6.1371e-05,-1.42e+08,-1905.1,0,7.088e+07,-1422.9,11537,12607,1,12607,1,0.00032776,5.6445e-09,0,0.00052095,6.548e-05,1.2495e+08,1865.8,0,2.0098e+08,-289.69,12606,618.61,0,618.61,0,0.00039097,9.0117e-09,0,0.00019525,7.3272e-05,1.5234e+08,2965.8,0,7.534e+07,609.65,618.61,1
2137,2.38,12073,1,12073,1,1.1811e-05,2.4657e-09,0,0.00034041,-2.154e-06,-7.6687e+05,823.11,0,1.3289e+08,-91.133,12072,13208,1,13208,1,0.00066945,8.6079e-09,0,0.00066945,0.00012038,2.4614e+08,2947,0,2.6109e+08,229.22,13207,12073,1,12073,1,-1.0523e-05,2.304e-09,0,0.00035047,2.0313e-06,-4.3064e+06,755.45,0,1.4255e+08,-93.815,12072,10979,1,10979,1,-0.00064192,-4.2753e-09,0,1.0521e-05,-0.00012539,-2.6109e+08,-1464.2,0,4.3055e+06,-375.22,10978,11538,1,11538,1,-0.00035047,1.3998e-10,0,0.00018372,-6.1686e-05,-1.4255e+08,45.391,0,7.125e+07,-201.96,11537,12607,1,12607,1,0.00032946,4.8656e-09,0,0.00052367,6.5739e-05,1.2548e+08,1613.2,0,2.0181e+08,12.817,12606,618.61,0,618.61,0,0.00039279,2.8739e-09,0,0.00019618,7.3612e-05,1.5292e+08,971.06,0,7.5622e+07,135.36,618.61,1
2137,2.39,12073,1,12073,1,1.1998e-05,-6.0232e-10,0,0.00034188,-2.1882e-06,-7.6979e+05,-199.3,0,1.3341e+08,-46.197,12072,13208,1,13208,1,0.00067243,4.633e-09,0,0.00067243,0.00012087,2.4701e+08,1544.5,0,2.6216e+08,190.23,13207,12073,1,12073,1,-1.0437e-05,-3.761e-10,0,0.00035186,2.0159e-06,-4.2724e+06,-120.48,0,1.4311e+08,-52.996,12072,10979,1,10979,1,-0.00064454,-4.7734e-09,0,1.0437e-05,-0.00012595,-2.6216e+08,-1585.8,0,4.2723e+06,-255.67,10978,11538,1,11538,1,-0.00035186,-2.1095e-09,0,0.00018466,-6.1973e-05,-1.4311e+08,-693.13,0,7.1579e+07,-107.11,11537,12607,1,12607,1,0.000331,6.4133e-10,0,0.00052608,6.5999e-05,1.2598e+08,203.73,0,2.0263e+08,6.0116,12606,618.61,0,618.61,0,0.00039448,2.0873e-09,0,0.00019704,7.393e-05,1.5352e+08,698.1,0,7.5912e+07,82.631,618.61,1
2137,2.4,12073,1,12073,1,1.2176e-05,-5.6559e-10,0,0.00034331,-2.2205e-06,-7.7262e+05,-188.77,0,1.3391e+08,16.318,12072,13208,1,13208,1,0.00067538,7.2597e-09,0,0.00067538,0.00012136,2.4786e+08,2423,0,2.632e+08,215.76,13207,12073,1,12073,1,-1.0354e-05,-2.079e-10,0,0.0003532,2.0011e-06,-4.2395e+06,-71.209,0,1.4366e+08,9.817,12072,10979,1,10979,1,-0.00064711,-6.7513e-09,0,1.0354e-05,-0.0001265,-2.632e+08,-2241.7,0,4.2395e+06,-162.51,10978,11538,1,11538,1,-0.0003532,-3.1335e-09,0,0.00018556,-6.2256e-05,-1.4366e+08,-1042.9,0,7.1894e+07,-46.891,11537,12607,1,12607,1,0.00033251,1.2745e-09,0,0.0005284,6.6251e-05,1.2648e+08,412.91,0,2.0342e+08,82.853,12606,618.61,0,618.61,0,0.00039613,3.2264e-09,0,0.00019787,7.4239e-05,1.541e+08,1076.1,0,7.6194e+07,82.72,618.61,1
2137,2.41,12073,1,12073,1,1.2349e-05,-1.1301e-09,0,0.00034478,-2.2523e-06,-7.7585e+05,-376.25,0,1.3444e+08,-13.191,12072,13208,1,13208,1,0.0006784,2.4105e-09,0,0.0006784,0.00012185,2.4874e+08,825.41,0,2.6428e+08,155.21,13207,12073,1,12073,1,-1.0277e-05,-8.1151e-10,0,0.00035459,1.9869e-06,-4.209e+06,-271.95,0,1.4423e+08,-19.617,12072,10979,1,10979,1,-0.00064976,-4.7511e-09,0,1.0276e-05,-0.00012707,-2.6428e+08,-1579.6,0,4.209e+06,-171.88,10978,11538,1,11538,1,-0.00035459,-2.4578e-09,0,0.00018648,-6.2545e-05,-1.4423e+08,-816.58,0,7.2219e+07,-64.857,11537,12607,1,12607,1,0.00033406,2.4748e-10,0,0.00053079,6.6512e-05,1.27e+08,80.83,0,2.0425e+08,33.984,12606,618.61,0,618.61,0,0.00039783,1.7701e-09,0,0.00019873,7.4557e-05,1.547e+08,591.6,0,7.6488e+07,68.627,618.61,1
2137,2.42,12073,1,12073,1,1.2448e-05,6.0131e-08,0,0.00034456,-2.2692e-06,-7.7626e+05,19959,0,1.3431e+08,573.52,12072,13208,1,13208,1,0.00067915,4.3867e-07,0,0.00067915,0.00012195,2.4881e+08,1.4389e+05,0,2.6451e+08,12966,13207,12073,1,12073,1,-1.0161e-05,3.1184e-08,0,0.0003541,1.9635e-06,-4.1626e+06,10365,0,1.4402e+08,269.64,12072,10979,1,10979,1,-0.00065032,-2.4396e-07,0,1.0161e-05,-0.0001272,-2.6451e+08,-80971,0,4.1625e+06,-7303,10978,11538,1,11538,1,-0.0003541,-1.7061e-08,0,0.00018638,-6.2618e-05,-1.4402e+08,-5423.9,0,7.216e+07,-2190.5,11537,12607,1,12607,1,0.00033443,1.2835e-07,0,0.00053029,6.6425e-05,1.2707e+08,42708,0,2.0397e+08,2537.6,12606,618.61,0,618.61,0,0.00039757,1.3133e-07,0,0.0001986,7.4512e-05,1.5454e+08,43693,0,7.6403e+07,3698.9,618.61,1
2137,2.43,12073,1,12073,1,1.2478e-05,-5.4699e-08,0,0.00034543,-2.2751e-06,-7.8118e+05,-18191,0,1.3464e+08,422.97,12072,13208,1,13208,1,0.00068118,5.4064e-07,0,0.00068118,0.00012232,2.4954e+08,1.786e+05,0,2.6531e+08,16496,13207,12073,1,12073,1,-1.0179e-05,-3.4504e-08,0,0.00035486,1.9591e-06,-4.1709e+06,-11127,0,1.4433e+08,-192.35,12072,10979,1,10979,1,-0.00065227,-5.7548e-07,0,1.0155e-05,-0.00012758,-2.6531e+08,-1.9221e+05,0,4.16e+06,-10506,10978,11538,1,11538,1,-0.00035486,-2.2598e-07,0,0.00018678,-6.2814e-05,-1.4433e+08,-75312,0,7.2312e+07,-4068,11537,12607,1,12607,1,0.00033543,8.1253e-08,0,0.0005314,6.658e-05,1.2745e+08,26474,0,2.044e+08,4185,12606,618.61,0,618.61,0,0.00039857,2.4188e-07,0,0.00019909,7.4701e-05,1.5493e+08,80706,0,7.6592e+07,5483.3,618.61,1
2137,2.44,12073,1,12073,1,1.2606e-05,-1.5635e-08,0,0.00034724,-2.2995e-06,-7.8257e+05,-5207.8,0,1.3533e+08,-13.013,12072,13208,1,13208,1,0.00068475,6.4907e-07,0,0.00068475,0.00012292,2.5064e+08,2.1537e+05,0,2.6661e+08,19312,13207,12073,1,12073,1,-1.0146e-05,-2.1781e-08,0,0.00035665,1.9578e-06,-4.1577e+06,-7076.2,0,1.4506e+08,180.91,12072,10979,1,10979,1,-0.00065547,-4.4599e-07,0,1.0148e-05,-0.00012825,-2.6661e+08,-1.4857e+05,0,4.157e+06,-16667,10978,11538,1,11538,1,-0.00035665,-1.8118e-07,0,0.0001878,-6.314e-05,-1.4506e+08,-60199,0,7.2697e+07,-4144.9,11537,12607,1,12607,1,0.00033724,1.0284e-07,0,0.00053421,6.6914e-05,1.2807e+08,33821,0,2.0544e+08,3643.3,12606,618.61,0,618.61,0,0.00040067,2.3869e-07,0,0.00020014,7.5093e-05,1.5572e+08,79670,0,7.698e+07,5786,618.61,1
2137,2.45,12073,1,12073,1,1.2896e-05,9.1584e-10,0,0.0003504,-2.3547e-06,-7.8814e+05,295.74,0,1.3649e+08,-981.3,12072,13208,1,13208,1,0.00068995,2.478e-08,0,0.00068995,0.00012378,2.5231e+08,7824.8,0,2.6847e+08,70.366,13207,12073,1,12073,1,-1.0055e-05,8.6899e-10,0,0.00036003,1.9449e-06,-4.1221e+06,289.73,0,1.4644e+08,-867.54,12072,10979,1,10979,1,-0.00066004,-2.6187e-08,0,1.0042e-05,-0.00012923,-2.6847e+08,-8270.3,0,4.1169e+06,-2609.8,10978,11538,1,11538,1,-0.00036003,-6.1726e-09,0,0.00018982,-6.3645e-05,-1.4644e+08,-2072.6,0,7.3436e+07,-1573.7,11537,12607,1,12607,1,0.00033994,8.1081e-09,0,0.00053972,6.753e-05,1.2899e+08,2660.7,0,2.0743e+08,-288.77,12606,618.61,0,618.61,0,0.00040432,1.0516e-08,0,0.00020199,7.5771e-05,1.5705e+08,3452.4,0,7.7641e+07,755.33,618.61,1
2137,2.46,12073,1,12073,1,1.3224e-05,-4.104e-10,0,0.00035201,-2.4127e-06,-7.9119e+05,-137.78,0,1.3701e+08,-158.29,12072,13208,1,13208,1,0.00069325,3.2337e-09,0,0.00069325,0.00012429,2.5306e+08,1020.1,0,2.6957e+08,59.994,13207,12073,1,12073,1,-9.869e-06,-2.7213e-10,0,0.00036142,1.9127e-06,-4.0483e+06,-87.64,0,1.47e+08,-143.03,12072,10979,1,10979,1,-0.00066276,-4.3769e-09,0,9.867e-06,-0.00012984,-2.6957e+08,-1390.4,0,4.0475e+06,-461.12,10978,11538,1,11538,1,-0.00036142,-1.5295e-09,0,0.000191,-6.3969e-05,-1.47e+08,-512.18,0,7.3819e+07,-238.18,11537,12607,1,12607,1,0.00034169,6.8799e-10,0,0.00054253,6.7792e-05,1.2952e+08,224.84,0,2.0828e+08,-56.025,12606,618.61,0,618.61,0,0.00040617,1.5918e-09,0,0.00020294,7.6118e-05,1.5764e+08,522.56,0,7.7924e+07,122.04,618.61,1
2137,2.47,12073,1,12073,1,1.3432e-05,6.2733e-10,0,0.00035348,-2.4504e-06,-7.9426e+05,207.49,0,1.3752e+08,-21.66,12072,13208,1,13208,1,0.00069627,3.6561e-09,0,0.00069627,0.00012478,2.539e+08,1211.7,0,2.7063e+08,138.8,13207,12073,1,12073,1,-9.7643e-06,4.0404e-10,0,0.00036278,1.8936e-06,-4.0069e+06,128.5,0,1.4755e+08,-19.301,12072,10979,1,10979,1,-0.00066537,-7.3557e-10,0,9.7639e-06,-0.00013041,-2.7063e+08,-251.91,0,4.0068e+06,-152.52,10978,11538,1,11538,1,-0.00036278,-1.4222e-11,0,0.00019196,-6.4261e-05,-1.4755e+08,-4.8624,0,7.4148e+07,-44.687,11537,12607,1,12607,1,0.00034325,1.063e-09,0,0.00054497,6.8048e-05,1.3003e+08,351.22,0,2.0909e+08,5.7043,12606,618.61,0,618.61,0,0.00040787,8.8798e-10,0,0.0002038,7.6436e-05,1.5823e+08,298.11,0,7.8209e+07,39.344,618.61,1
2137,2.48,12073,1,12073,1,1.362e-05,-5.3742e-10,0,0.00035491,-2.4849e-06,-7.9708e+05,-178.87,0,1.3802e+08,-20.999,12072,13208,1,13208,1,0.00069925,5.7671e-09,0,0.00069925,0.00012527,2.5474e+08,1974.3,0,2.7168e+08,213.82,13207,12073,1,12073,1,-9.6702e-06,-3.9928e-10,0,0.00036411,1.8765e-06,-3.9698e+06,-134.65,0,1.481e+08,-31.811,12072,10979,1,10979,1,-0.00066795,-5.464e-09,0,9.6702e-06,-0.00013096,-2.7168e+08,-1810,0,3.9698e+06,-208.06,10978,11538,1,11538,1,-0.00036411,-2.514e-09,0,0.00019286,-6.4548e-05,-1.481e+08,-841.89,0,7.4468e+07,-78.304,11537,12607,1,12607,1,0.00034479,9.0953e-10,0,0.0005473,6.8299e-05,1.3053e+08,305.13,0,2.0988e+08,32.248,12606,618.61,0,618.61,0,0.00040953,2.6217e-09,0,0.00020463,7.6746e-05,1.588e+08,873.31,0,7.849e+07,91.207,618.61,1
2137,2.49,12073,1,12073,1,1.3809e-05,-8.6231e-11,0,0.00035637,-2.5194e-06,-8.0026e+05,-29.368,0,1.3854e+08,-7.5108,12072,13208,1,13208,1,0.00070224,2.9581e-09,0,0.00070224,0.00012575,2.5559e+08,987.96,0,2.7274e+08,72.574,13207,12073,1,12073,1,-9.5778e-06,-5.0308e-11,0,0.00036548,1.8596e-06,-3.9334e+06,-16.079,0,1.4865e+08,-7.8803,12072,10979,1,10979,1,-0.00067055,-2.6339e-09,0,9.5775e-06,-0.00013152,-2.7274e+08,-878.14,0,3.9333e+06,-180.45,10978,11538,1,11538,1,-0.00036548,-8.7095e-10,0,0.00019379,-6.4836e-05,-1.4865e+08,-285.53,0,7.4792e+07,-33.434,11537,12607,1,12607,1,0.00034633,5.6552e-10,0,0.0005497,6.8556e-05,1.3103e+08,182.66,0,2.107e+08,25.212,12606,618.61,0,618.61,0,0.00041121,1.219e-09,0,0.00020549,7.7062e-05,1.5939e+08,406.97,0,7.8777e+07,40.182,618.61,1
2137,2.5,12073,1,12073,1,1.3999e-05,-4.7929e-10,0,0.00035782,-2.5542e-06,-8.0331e+05,-159.31,0,1.3905e+08,-7.4143,12072,13208,1,13208,1,0.00070524,2.2629e-09,0,0.00070524,0.00012624,2.5644e+08,755.35,0,2.738e+08,83.094,13207,12073,1,12073,1,-9.4829e-06,-2.8302e-10,0,0.00036684,1.8422e-06,-3.8961e+06,-92.209,0,1.4921e+08,-5.132,12072,10979,1,10979,1,-0.00067315,-3.2113e-09,0,9.4828e-06,-0.00013208,-2.738e+08,-1063.2,0,3.896e+06,-159.89,10978,11538,1,11538,1,-0.00036684,-1.3303e-09,0,0.00019472,-6.5125e-05,-1.4921e+08,-444.36,0,7.5115e+07,-29.95,11537,12607,1,12607,1,0.00034788,3.0755e-10,0,0.00055207,6.881e-05,1.3153e+08,99.86,0,2.115e+08,23.457,12606,618.61,0,618.61,0,0.00041289,1.2713e-09,0,0.00020633,7.7375e-05,1.5998e+08,423.84,0,7.9062e+07,43.91,618.61,1
2137,2.51,12073,1,12073,1,1.4191e-05,-6.2775e-10,0,0.00035928,-2.5894e-06,-8.063e+05,-208.6,0,1.3956e+08,-12.552,12072,13208,1,13208,1,0.00070825,1.4945e-09,0,0.00070825,0.00012673,2.5729e+08,511.74,0,2.7486e+08,92.073,13207,12073,1,12073,1,-9.3863e-06,-3.9146e-10,0,0.00036819,1.8245e-06,-3.858e+06,-128.54,0,1.4976e+08,-14.047,12072,10979,1,10979,1,-0.00067576,-3.2856e-09,0,9.3861e-06,-0.00013265,-2.7486e+08,-1087.4,0,3.858e+06,-145.9,10978,11538,1,11538,1,-0.00036819,-1.3901e-09,0,0.00019564,-6.5414e-05,-1.4976e+08,-459.85,0,7.5438e+07,-40.393,11537,12607,1,12607,1,0.00034943,1.8653e-10,0,0.00055445,6.9064e-05,1.3204e+08,60.404,0,2.123e+08,16.749,12606,618.61,0,618.61,0,0.00041457,1.0866e-09,0,0.00020718,7.7689e-05,1.6056e+08,361.79,0,7.9347e+07,44.758,618.61,1
2137,2.52,12073,1,12073,1,1.4384e-05,4.5343e-10,0,0.00036071,-2.6246e-06,-8.0938e+05,149.3,0,1.4006e+08,-4.7024,12072,13208,1,13208,1,0.00071119,6.9401e-09,0,0.00071119,0.00012721,2.5811e+08,2304.7,0,2.7589e+08,146.15,13207,12073,1,12073,1,-9.2872e-06,5.6232e-11,0,0.00036952,1.8065e-06,-3.819e+06,19.262,0,1.503e+08,-2.5233,12072,10979,1,10979,1,-0.00067831,-3.9557e-09,0,9.2871e-06,-0.0001332,-2.7589e+08,-1308.8,0,3.8189e+06,-230.64,10978,11538,1,11538,1,-0.00036952,-1.1267e-09,0,0.00019656,-6.5699e-05,-1.503e+08,-369.46,0,7.5757e+07,-47.15,11537,12607,1,12607,1,0.00035095,1.7413e-09,0,0.00055679,6.9315e-05,1.3253e+08,576.27,0,2.1309e+08,46.17,12606,618.61,0,618.61,0,0.00041622,2.3717e-09,0,0.00020802,7.7998e-05,1.6114e+08,788.58,0,7.9626e+07,71.47,618.61,1
2137,2.53,12073,1,12073,1,1.4578e-05,4.511e-12,0,0.00036217,-2.6601e-06,-8.1243e+05,1.4382,0,1.4057e+08,-12.251,12072,13208,1,13208,1,0.00071422,3.1854e-09,0,0.00071422,0.0001277,2.5897e+08,1077.7,0,2.7696e+08,110.24,13207,12073,1,12073,1,-9.1898e-06,4.6039e-12,0,0.00037089,1.7884e-06,-3.7807e+06,1.5738,0,1.5085e+08,-16.437,12072,10979,1,10979,1,-0.00068093,-2.299e-09,0,9.1896e-06,-0.00013376,-2.7696e+08,-760.4,0,3.7806e+06,-154.45,10978,11538,1,11538,1,-0.00037089,-7.875e-10,0,0.00019749,-6.599e-05,-1.5085e+08,-255.04,0,7.6083e+07,-38.827,11537,12607,1,12607,1,0.00035251,5.3861e-10,0,0.00055919,6.9571e-05,1.3304e+08,182.09,0,2.139e+08,21.376,12606,618.61,0,618.61,0,0.00041791,1.2205e-09,0,0.00020887,7.8315e-05,1.6172e+08,407.15,0,7.9913e+07,46.78,618.61,1
2137,2.54,12073,1,12073,1,1.4777e-05,-4.6548e-10,0,0.00036364,-2.6965e-06,-8.1539e+05,-154.32,0,1.4108e+08,-13.765,12072,13208,1,13208,1,0.00071725,1.7218e-10,0,0.00071725,0.00012819,2.5981e+08,52.591,0,2.7802e+08,21.108,13207,12073,1,12073,1,-9.0871e-06,-5.1826e-10,0,0.00037225,1.7696e-06,-3.7403e+06,-170.14,0,1.5141e+08,-8.9822,12072,10979,1,10979,1,-0.00068354,-1.0102e-09,0,9.087e-06,-0.00013433,-2.7802e+08,-333.99,0,3.7402e+06,-108.35,10978,11538,1,11538,1,-0.00037225,-7.1022e-10,0,0.00019843,-6.6282e-05,-1.5141e+08,-233.9,0,7.641e+07,-20.302,11537,12607,1,12607,1,0.00035408,-2.1708e-10,0,0.00056159,6.9826e-05,1.3355e+08,-72.151,0,2.1471e+08,-1.5503,12606,618.61,0,618.61,0,0.0004196,2.9686e-10,0,0.00020973,7.8631e-05,1.6231e+08,99.042,0,8.0199e+07,17.874,618.61,1
2137,2.55,12073,1,12073,1,1.4977e-05,-2.5852e-10,0,0.00036508,-2.7331e-06,-8.1827e+05,-85.999,0,1.4158e+08,-6.0671,12072,13208,1,13208,1,0.00072023,3.126e-09,0,0.00072023,0.00012867,2.6064e+08,1033.4,0,2.7907e+08,95.528,13207,12073,1,12073,1,-8.9821e-06,1.3554e-11,0,0.00037358,1.7503e-06,-3.699e+06,4.1509,0,1.5195e+08,-8.5326,12072,10979,1,10979,1,-0.00068611,-3.6928e-09,0,8.9821e-06,-0.00013489,-2.7907e+08,-1220.7,0,3.699e+06,-147.87,10978,11538,1,11538,1,-0.00037358,-1.2211e-09,0,0.00019936,-6.6571e-05,-1.5195e+08,-407.14,0,7.6731e+07,-42.528,11537,12607,1,12607,1,0.00035563,6.2838e-10,0,0.00056396,7.0077e-05,1.3404e+08,202.04,0,2.1551e+08,33.558,12606,618.61,0,618.61,0,0.00042126,1.5711e-09,0,0.00021057,7.8942e-05,1.6288e+08,521.26,0,8.0478e+07,47.802,618.61,1
2137,2.56,12073,1,12073,1,1.5176e-05,7.9009e-11,0,0.00036653,-2.7695e-06,-8.2138e+05,25.808,0,1.4209e+08,-2.5572,12072,13208,1,13208,1,0.00072323,4.2023e-09,0,0.00072323,0.00012916,2.6147e+08,1388.5,0,2.8012e+08,107.93,13207,12073,1,12073,1,-8.8778e-06,2.7355e-11,0,0.00037493,1.7311e-06,-3.6579e+06,8.4533,0,1.525e+08,-11.369,12072,10979,1,10979,1,-0.0006887,-2.9405e-09,0,8.8775e-06,-0.00013545,-2.8012e+08,-971.7,0,3.6579e+06,-158.64,10978,11538,1,11538,1,-0.00037493,-1.1142e-09,0,0.00020029,-6.686e-05,-1.525e+08,-361.47,0,7.7054e+07,-37.528,11537,12607,1,12607,1,0.00035718,1.023e-09,0,0.00056634,7.0329e-05,1.3454e+08,334.1,0,2.163e+08,36.248,12606,618.61,0,618.61,0,0.00042293,1.6557e-09,0,0.00021142,7.9255e-05,1.6346e+08,550.28,0,8.0761e+07,50.836,618.61,1
2137,2.57,12073,1,12073,1,1.5378e-05,-9.5669e-10,0,0.00036798,-2.8064e-06,-8.2435e+05,-316.74,0,1.4259e+08,-10.969,12072,13208,1,13208,1,0.00072624,1.9347e-09,0,0.00072624,0.00012964,2.6231e+08,662.3,0,2.8117e+08,128.27,13207,12073,1,12073,1,-8.7712e-06,-6.4722e-10,0,0.00037627,1.7115e-06,-3.6161e+06,-205.2,0,1.5304e+08,-17.034,12072,10979,1,10979,1,-0.00069129,-4.4353e-09,0,8.7711e-06,-0.00013601,-2.8117e+08,-1465.2,0,3.616e+06,-155.85,10978,11538,1,11538,1,-0.00037627,-2.1501e-09,0,0.00020123,-6.7151e-05,-1.5304e+08,-715.07,0,7.7378e+07,-44.889,11537,12607,1,12607,1,0.00035874,2.0829e-10,0,0.00056872,7.0581e-05,1.3505e+08,68.958,0,2.171e+08,28.845,12606,618.61,0,618.61,0,0.00042461,1.5739e-09,0,0.00021227,7.9568e-05,1.6404e+08,523.29,0,8.1042e+07,49.843,618.61,1
2137,2.58,12073,1,12073,1,1.5582e-05,-8.2452e-10,0,0.00036944,-2.8438e-06,-8.2744e+05,-273.74,0,1.431e+08,-11.905,12072,13208,1,13208,1,0.00072927,5.1696e-10,0,0.00072927,0.00013013,2.6314e+08,161.96,0,2.8223e+08,67.932,13207,12073,1,12073,1,-8.6628e-06,-7.2103e-10,0,0.00037762,1.6916e-06,-3.5735e+06,-236.23,0,1.5359e+08,-10.304,12072,10979,1,10979,1,-0.00069389,-2.6887e-09,0,8.6626e-06,-0.00013657,-2.8223e+08,-893.4,0,3.5734e+06,-142.04,10978,11538,1,11538,1,-0.00037762,-1.448e-09,0,0.00020217,-6.7443e-05,-1.5359e+08,-475.53,0,7.7704e+07,-30.147,11537,12607,1,12607,1,0.0003603,-1.2714e-10,0,0.00057112,7.0834e-05,1.3555e+08,-41.824,0,2.1791e+08,11.616,12606,618.61,0,618.61,0,0.00042629,8.0517e-10,0,0.00021312,7.9884e-05,1.6462e+08,268.57,0,8.1326e+07,33.811,618.61,1
2137,2.59,12073,1,12073,1,1.5788e-05,-1.102e-09,0,0.00037088,-2.8814e-06,-8.3054e+05,-365.21,0,1.436e+08,-4.8188,12072,13208,1,13208,1,0.00073227,2.5857e-09,0,0.00073227,0.00013061,2.6396e+08,881.26,0,2.8328e+08,131.62,13207,12073,1,12073,1,-8.552e-06,-8.8902e-10,0,0.00037895,1.6711e-06,-3.5299e+06,-299.55,0,1.5413e+08,-1.329,12072,10979,1,10979,1,-0.00069646,-4.9241e-09,0,8.5519e-06,-0.00013713,-2.8328e+08,-1625.6,0,3.5299e+06,-164.1,10978,11538,1,11538,1,-0.00037895,-2.6035e-09,0,0.0002031,-6.7733e-05,-1.5413e+08,-862.8,0,7.8027e+07,-48.968,11537,12607,1,12607,1,0.00036186,2.5675e-10,0,0.00057349,7.1084e-05,1.3605e+08,83.159,0,2.187e+08,39.07,12606,618.61,0,618.61,0,0.00042796,1.8296e-09,0,0.00021396,8.0196e-05,1.652e+08,607.42,0,8.1604e+07,58.53,618.61,1
2137,2.6,12073,1,12073,1,1.5994e-05,-5.1035e-10,0,0.00037233,-2.9192e-06,-8.3343e+05,-169.72,0,1.441e+08,-1.8632,12072,13208,1,13208,1,0.00073527,3.3489e-09,0,0.00073527,0.0001311,2.6478e+08,1113.7,0,2.8432e+08,109.09,13207,12073,1,12073,1,-8.4401e-06,-2.3249e-10,0,0.00038028,1.6505e-06,-3.486e+06,-72.936,0,1.5468e+08,-4.6475,12072,10979,1,10979,1,-0.00069903,-4.1892e-09,0,8.4399e-06,-0.00013769,-2.8432e+08,-1392.9,0,3.4859e+06,-154.91,10978,11538,1,11538,1,-0.00038028,-1.6005e-09,0,0.00020404,-6.8024e-05,-1.5468e+08,-527.73,0,7.8351e+07,-36.71,11537,12607,1,12607,1,0.00036341,4.7551e-10,0,0.00057588,7.1335e-05,1.3654e+08,152,0,2.1949e+08,35.453,12606,618.61,0,618.61,0,0.00042963,1.6986e-09,0,0.00021481,8.0509e-05,1.6577e+08,564.21,0,8.1885e+07,48.718,618.61,1
2137,2.61,12073,1,12073,1,1.6204e-05,-4.6578e-10,0,0.00037379,-2.9576e-06,-8.3641e+05,-154.7,0,1.4461e+08,-7.133,12072,13208,1,13208,1,0.00073829,2.5211e-09,0,0.00073829,0.00013158,2.6561e+08,862.54,0,2.8538e+08,100.49,13207,12073,1,12073,1,-8.3266e-06,-3.2926e-10,0,0.00038163,1.6295e-06,-3.4414e+06,-104.42,0,1.5522e+08,-8.8489,12072,10979,1,10979,1,-0.00070162,-3.0578e-09,0,8.3264e-06,-0.00013826,-2.8538e+08,-1011.8,0,3.4413e+06,-155.15,10978,11538,1,11538,1,-0.00038163,-1.4157e-09,0,0.00020499,-6.8317e-05,-1.5522e+08,-460.58,0,7.8678e+07,-30.442,11537,12607,1,12607,1,0.00036498,3.3598e-10,0,0.00057829,7.1587e-05,1.3704e+08,110.55,0,2.2029e+08,21.448,12606,618.61,0,618.61,0,0.00043131,1.2719e-09,0,0.00021567,8.0824e-05,1.6635e+08,422.98,0,8.2166e+07,41.576,618.61,1
2137,2.62,12073,1,12073,1,1.6415e-05,-6.748e-10,0,0.00037524,-2.9963e-06,-8.394e+05,-223.57,0,1.4511e+08,-4.8513,12072,13208,1,13208,1,0.00074131,3.1917e-09,0,0.00074131,0.00013207,2.6643e+08,1072.7,0,2.8642e+08,103.82,13207,12073,1,12073,1,-8.2105e-06,-3.8396e-10,0,0.00038296,1.6081e-06,-3.3958e+06,-125.71,0,1.5576e+08,-10.537,12072,10979,1,10979,1,-0.0007042,-4.3998e-09,0,8.2103e-06,-0.00013882,-2.8642e+08,-1451.1,0,3.3958e+06,-167.27,10978,11538,1,11538,1,-0.00038296,-1.9141e-09,0,0.00020593,-6.8609e-05,-1.5576e+08,-635.11,0,7.9002e+07,-42.292,11537,12607,1,12607,1,0.00036655,4.3135e-10,0,0.00058068,7.1837e-05,1.3754e+08,141.18,0,2.2109e+08,34.777,12606,618.61,0,618.61,0,0.00043299,1.7743e-09,0,0.00021652,8.1137e-05,1.6692e+08,588.93,0,8.2446e+07,49.736,618.61,1
2137,2.63,12073,1,12073,1,1.6628e-05,-3.2531e-10,0,0.00037669,-3.0352e-06,-8.4242e+05,-108.26,0,1.4561e+08,-8.22,12072,13208,1,13208,1,0.00074434,3.4626e-09,0,0.00074434,0.00013255,2.6725e+08,1160.4,0,2.8747e+08,112.04,13207,12073,1,12073,1,-8.0931e-06,-1.4755e-10,0,0.0003843,1.5865e-06,-3.3498e+06,-46.317,0,1.5631e+08,-12.218,12072,10979,1,10979,1,-0.00070678,-3.5199e-09,0,8.093e-06,-0.00013939,-2.8747e+08,-1160.6,0,3.3498e+06,-138.41,10978,11538,1,11538,1,-0.0003843,-1.3493e-09,0,0.00020688,-6.8902e-05,-1.5631e+08,-456.49,0,7.9329e+07,-36.545,11537,12607,1,12607,1,0.00036812,5.5093e-10,0,0.00058308,7.2088e-05,1.3804e+08,174.28,0,2.2189e+08,20.865,12606,618.61,0,618.61,0,0.00043467,1.5646e-09,0,0.00021737,8.1451e-05,1.675e+08,519.41,0,8.2726e+07,42.693,618.61,1
2137,2.64,12073,1,12073,1,1.6843e-05,-1.2341e-09,0,0.00037814,-3.0746e-06,-8.4533e+05,-408.43,0,1.4611e+08,-12.248,12072,13208,1,13208,1,0.00074736,2.0467e-09,0,0.00074736,0.00013303,2.6806e+08,700.61,0,2.8852e+08,140.68,13207,12073,1,12073,1,-7.9735e-06,-1.0128e-09,0,0.00038562,1.5643e-06,-3.3029e+06,-335.9,0,1.5685e+08,-20.961,12072,10979,1,10979,1,-0.00070936,-5.1568e-09,0,7.9732e-06,-0.00013995,-2.8852e+08,-1699.7,0,3.3028e+06,-170.47,10978,11538,1,11538,1,-0.00038562,-2.4579e-09,0,0.00020783,-6.9196e-05,-1.5685e+08,-812.06,0,7.9654e+07,-51.848,11537,12607,1,12607,1,0.00036969,1.9813e-10,0,0.00058548,7.2338e-05,1.3854e+08,62.672,0,2.2268e+08,26.566,12606,618.61,0,618.61,0,0.00043634,1.7521e-09,0,0.00021822,8.1765e-05,1.6807e+08,581.38,0,8.3005e+07,61.072,618.61,1
2137,2.65,12073,1,12073,1,1.7059e-05,-5.2897e-10,0,0.0003796,-3.1141e-06,-8.4845e+05,-176,0,1.4661e+08,-9.4508,12072,13208,1,13208,1,0.00075039,2.5187e-09,0,0.00075039,0.00013352,2.6888e+08,840.3,0,2.8957e+08,81.143,13207,12073,1,12073,1,-7.8522e-06,-3.3501e-10,0,0.00038696,1.5419e-06,-3.2553e+06,-112.51,0,1.5739e+08,-11.815,12072,10979,1,10979,1,-0.00071193,-3.4191e-09,0,7.8519e-06,-0.00014052,-2.8957e+08,-1132,0,3.2552e+06,-159.83,10978,11538,1,11538,1,-0.00038696,-1.5014e-09,0,0.00020878,-6.9489e-05,-1.5739e+08,-492.65,0,7.9981e+07,-33.431,11537,12607,1,12607,1,0.00037127,3.4137e-10,0,0.00058789,7.2589e-05,1.3904e+08,112.56,0,2.2348e+08,20.788,12606,618.61,0,618.61,0,0.00043802,1.388e-09,0,0.00021907,8.2079e-05,1.6865e+08,461.19,0,8.3284e+07,40.316,618.61,1
2137,2.66,12073,1,12073,1,1.7278e-05,-1.2122e-09,0,0.00038104,-3.1542e-06,-8.5125e+05,-400.76,0,1.4711e+08,-5.0698,12072,13208,1,13208,1,0.0007534,4.6341e-09,0,0.0007534,0.000134,2.6968e+08,1537.4,0,2.9061e+08,171.6,13207,12073,1,12073,1,-7.7288e-06,-9.3353e-10,0,0.00038827,1.5189e-06,-3.2069e+06,-299.94,0,1.5793e+08,-11.505,12072,10979,1,10979,1,-0.00071449,-6.4692e-09,0,7.7285e-06,-0.00014108,-2.9061e+08,-2130.9,0,3.2068e+06,-182.7,10978,11538,1,11538,1,-0.00038827,-3.1632e-09,0,0.00020973,-6.9782e-05,-1.5793e+08,-1043.1,0,8.0305e+07,-53.427,11537,12607,1,12607,1,0.00037284,4.5242e-10,0,0.00059027,7.2836e-05,1.3953e+08,143.8,0,2.2426e+08,56.441,12606,618.61,0,618.61,0,0.00043969,2.6007e-09,0,0.00021992,8.2391e-05,1.6921e+08,862.09,0,8.356e+07,75.189,618.61,1
2137,2.67,12073,1,12073,1,1.7497e-05,-6.3212e-10,0,0.0003825,-3.1943e-06,-8.5424e+05,-209.77,0,1.4761e+08,-19.065,12072,13208,1,13208,1,0.00075643,6.3473e-09,0,0.00075643,0.00013448,2.7049e+08,2114.4,0,2.9166e+08,190.89,13207,12073,1,12073,1,-7.6047e-06,-5.1973e-10,0,0.0003896,1.496e-06,-3.1583e+06,-175.9,0,1.5847e+08,-26.921,12072,10979,1,10979,1,-0.00071707,-5.8323e-09,0,7.6045e-06,-0.00014165,-2.9166e+08,-1922,0,3.1582e+06,-232.1,10978,11538,1,11538,1,-0.0003896,-2.7566e-09,0,0.00021068,-7.0076e-05,-1.5847e+08,-898.79,0,8.0631e+07,-64.872,11537,12607,1,12607,1,0.00037441,7.9429e-10,0,0.00059268,7.3085e-05,1.4003e+08,266.49,0,2.2506e+08,39.23,12606,618.61,0,618.61,0,0.00044137,2.8286e-09,0,0.00022077,8.2705e-05,1.6978e+08,938.06,0,8.3838e+07,82.139,618.61,1
2137,2.68,12073,1,12073,1,1.7719e-05,-9.6307e-10,0,0.00038396,-3.2349e-06,-8.574e+05,-318.53,0,1.4811e+08,-7.8917,12072,13208,1,13208,1,0.00075947,2.673e-09,0,0.00075947,0.00013496,2.713e+08,913.92,0,2.9271e+08,148.77,13207,12073,1,12073,1,-7.4783e-06,-5.6466e-10,0,0.00039094,1.4727e-06,-3.1088e+06,-184.46,0,1.5901e+08,-14.605,12072,10979,1,10979,1,-0.00071965,-5.3353e-09,0,7.478e-06,-0.00014222,-2.9271e+08,-1773.4,0,3.1087e+06,-147.35,10978,11538,1,11538,1,-0.00039094,-2.2477e-09,0,0.00021164,-7.0371e-05,-1.5901e+08,-740.99,0,8.096e+07,-48.425,11537,12607,1,12607,1,0.000376,3.2345e-10,0,0.0005951,7.3336e-05,1.4053e+08,106.87,0,2.2585e+08,33.845,12606,618.61,0,618.61,0,0.00044305,1.9401e-09,0,0.00022163,8.302e-05,1.7036e+08,644.27,0,8.4117e+07,60.913,618.61,1
2137,2.69,12073,1,12073,1,1.7945e-05,-9.2923e-10,0,0.00038542,-3.2762e-06,-8.6036e+05,-307.39,0,1.4861e+08,-18.53,12072,13208,1,13208,1,0.00076253,5.5205e-10,0,0.00076253,0.00013545,2.7211e+08,183.61,0,2.9376e+08,60.755,13207,12073,1,12073,1,-7.3493e-06,-8.8351e-10,0,0.00039227,1.4488e-06,-3.0582e+06,-287.05,0,1.5955e+08,-18.472,12072,10979,1,10979,1,-0.00072223,-2.8247e-09,0,7.3491e-06,-0.00014279,-2.9376e+08,-929.48,0,3.0582e+06,-116.9,10978,11538,1,11538,1,-0.00039227,-1.5513e-09,0,0.00021261,-7.0668e-05,-1.5955e+08,-512.31,0,8.1289e+07,-35.636,11537,12607,1,12607,1,0.00037759,-2.5356e-10,0,0.00059753,7.3586e-05,1.4103e+08,-81.093,0,2.2665e+08,1.0066,12606,618.61,0,618.61,0,0.00044475,8.3049e-10,0,0.00022249,8.3337e-05,1.7093e+08,276.41,0,8.4397e+07,29.507,618.61,1
2137,2.7,12073,1,12073,1,1.8172e-05,-8.4906e-10,0,0.00038688,-3.3178e-06,-8.6332e+05,-281.16,0,1.4911e+08,-12.267,12072,13208,1,13208,1,0.00076557,1.0819e-09,0,0.00076557,0.00013593,2.7291e+08,370.33,0,2.9481e+08,91.138,13207,12073,1,12073,1,-7.2179e-06,-7.5899e-10,0,0.0003936,1.4244e-06,-3.0068e+06,-250.2,0,1.6009e+08,-13.032,12072,10979,1,10979,1,-0.00072481,-3.2575e-09,0,7.2177e-06,-0.00014335,-2.9481e+08,-1071.5,0,3.0067e+06,-174.03,10978,11538,1,11538,1,-0.0003936,-1.7158e-09,0,0.00021357,-7.0965e-05,-1.6009e+08,-563.1,0,8.1618e+07,-37.801,11537,12607,1,12607,1,0.00037918,9.4717e-11,0,0.00059995,7.3836e-05,1.4153e+08,29.248,0,2.2745e+08,19.324,12606,618.61,0,618.61,0,0.00044643,1.0741e-09,0,0.00022335,8.3652e-05,1.715e+08,356.27,0,8.4675e+07,46.328,618.61,1
2137,2.71,12073,1,12073,1,1.84e-05,-5.4441e-10,0,0.00038832,-3.3594e-06,-8.6626e+05,-180.5,0,1.496e+08,-2.5063,12072,13208,1,13208,1,0.00076858,5.2351e-09,0,0.00076858,0.00013641,2.737e+08,1723.4,0,2.9584e+08,172.5,13207,12073,1,12073,1,-7.0847e-06,-3.0642e-10,0,0.0003949,1.3997e-06,-2.9546e+06,-97.832,0,1.6062e+08,-11.944,12072,10979,1,10979,1,-0.00072735,-5.4492e-09,0,7.0846e-06,-0.00014392,-2.9584e+08,-1795.9,0,2.9546e+06,-145.29,10978,11538,1,11538,1,-0.0003949,-2.1336e-09,0,0.00021452,-7.1257e-05,-1.6062e+08,-686.58,0,8.1942e+07,-46.992,11537,12607,1,12607,1,0.00038075,7.2004e-10,0,0.00060234,7.408e-05,1.4201e+08,229.86,0,2.2823e+08,42.536,12606,618.61,0,618.61,0,0.00044809,2.3773e-09,0,0.00022419,8.3962e-05,1.7206e+08,785.82,0,8.4947e+07,65.994,618.61,1
2137,2.72,12073,1,12073,1,1.8628e-05,-1.2173e-09,0,0.00038978,-3.4013e-06,-8.692e+05,-402.02,0,1.501e+08,-15.147,12072,13208,1,13208,1,0.00077164,3.1396e-09,0,0.00077164,0.00013689,2.745e+08,1074.7,0,2.9689e+08,168.59,13207,12073,1,12073,1,-6.9521e-06,-9.4086e-10,0,0.00039623,1.375e-06,-2.9027e+06,-316.98,0,1.6116e+08,-19.898,12072,10979,1,10979,1,-0.00072993,-5.8097e-09,0,6.9518e-06,-0.00014449,-2.9689e+08,-1909.8,0,2.9027e+06,-202.11,10978,11538,1,11538,1,-0.00039623,-2.8312e-09,0,0.00021549,-7.1555e-05,-1.6116e+08,-927.62,0,8.227e+07,-56.211,11537,12607,1,12607,1,0.00038234,3.2012e-10,0,0.00060477,7.4329e-05,1.4251e+08,106.34,0,2.2902e+08,27.786,12606,618.61,0,618.61,0,0.00044978,2.1016e-09,0,0.00022505,8.4278e-05,1.7263e+08,696.24,0,8.5225e+07,68.416,618.61,1
2137,2.73,12073,1,12073,1,1.886e-05,-9.5588e-10,0,0.00039124,-3.4437e-06,-8.7225e+05,-316.52,0,1.5059e+08,-12.691,12072,13208,1,13208,1,0.00077468,3.5037e-09,0,0.00077468,0.00013737,2.753e+08,1163.5,0,2.9793e+08,121.31,13207,12073,1,12073,1,-6.8154e-06,-6.7368e-10,0,0.00039755,1.3497e-06,-2.8493e+06,-217.91,0,1.617e+08,-9.987,12072,10979,1,10979,1,-0.00073249,-5.3059e-09,0,6.8151e-06,-0.00014506,-2.9793e+08,-1743.6,0,2.8492e+06,-179.33,10978,11538,1,11538,1,-0.00039755,-2.4943e-09,0,0.00021646,-7.1851e-05,-1.617e+08,-817.08,0,8.2599e+07,-46.907,11537,12607,1,12607,1,0.00038393,4.4129e-10,0,0.00060719,7.4577e-05,1.4301e+08,144.92,0,2.2981e+08,35.765,12606,618.61,0,618.61,0,0.00045146,2.0478e-09,0,0.0002259,8.4592e-05,1.732e+08,678.32,0,8.55e+07,61.634,618.61,1
2137,2.74,12073,1,12073,1,1.9095e-05,-3.9237e-10,0,0.0003927,-3.4867e-06,-8.7503e+05,-130.78,0,1.5109e+08,-26.704,12072,13208,1,13208,1,0.00077773,2.4543e-09,0,0.00077773,0.00013786,2.7609e+08,834.39,0,2.9898e+08,89.533,13207,12073,1,12073,1,-6.677e-06,-2.3265e-10,0,0.00039887,1.324e-06,-2.7951e+06,-74.66,0,1.6223e+08,-26.338,12072,10979,1,10979,1,-0.00073506,-3.1539e-09,0,6.6767e-06,-0.00014562,-2.9898e+08,-1036,0,2.795e+06,-170.28,10978,11538,1,11538,1,-0.00039887,-1.3429e-09,0,0.00021743,-7.2149e-05,-1.6223e+08,-445.66,0,8.2929e+07,-56.963,11537,12607,1,12607,1,0.00038553,4.9065e-10,0,0.00060962,7.4825e-05,1.435e+08,155.21,0,2.306e+08,9.4569,12606,618.61,0,618.61,0,0.00045314,1.2744e-09,0,0.00022676,8.4908e-05,1.7377e+08,422.58,0,8.5777e+07,52.219,618.61,1
2137,2.75,12073,1,12073,1,1.933e-05,-7.5204e-10,0,0.00039415,-3.5297e-06,-8.7776e+05,-248.92,0,1.5158e+08,-39.028,12072,13208,1,13208,1,0.00078078,5.0813e-09,0,0.00078078,0.00013834,2.7688e+08,1702.3,0,3.0002e+08,155.2,13207,12073,1,12073,1,-6.537e-06,-6.4232e-10,0,0.00040018,1.2978e-06,-2.7404e+06,-204.56,0,1.6277e+08,-43.912,12072,10979,1,10979,1,-0.00073762,-5.7638e-09,0,6.5368e-06,-0.00014619,-3.0002e+08,-1895.2,0,2.7403e+06,-232.65,10978,11538,1,11538,1,-0.00040018,-2.6098e-09,0,0.0002184,-7.2446e-05,-1.6277e+08,-856.33,0,8.3257e+07,-88.419,11537,12607,1,12607,1,0.00038712,6.8501e-10,0,0.00061203,7.507e-05,1.44e+08,226.41,0,2.3138e+08,6.7343,12606,618.61,0,618.61,0,0.00045482,2.4982e-09,0,0.00022761,8.5221e-05,1.7433e+08,828.4,0,8.605e+07,70.306,618.61,1
2137,2.76,12073,1,12073,1,1.9566e-05,-2.4901e-11,0,0.00039562,-3.573e-06,-8.8114e+05,-9.2201,0,1.5208e+08,-24.833,12072,13208,1,13208,1,0.00078383,8.4305e-10,0,0.00078383,0.00013882,2.7767e+08,288.71,0,3.0106e+08,62.276,13207,12073,1,12073,1,-6.397e-06,2.4925e-11,0,0.00040151,1.2719e-06,-2.6857e+06,8.0035,0,1.6331e+08,-20.723,12072,10979,1,10979,1,-0.00074018,-8.9675e-10,0,6.3967e-06,-0.00014676,-3.0106e+08,-295.89,0,2.6855e+06,-130.07,10978,11538,1,11538,1,-0.00040151,-2.2287e-10,0,0.00021938,-7.2744e-05,-1.6331e+08,-75.509,0,8.3589e+07,-43.659,11537,12607,1,12607,1,0.00038872,1.8661e-10,0,0.00061449,7.5321e-05,1.4449e+08,58.617,0,2.3218e+08,-2.2482,12606,618.61,0,618.61,0,0.00045651,3.3024e-10,0,0.00022848,8.5538e-05,1.749e+08,111.05,0,8.6328e+07,32.142,618.61,1
2137,2.77,12073,1,12073,1,1.9807e-05,-1.7942e-09,0,0.00039706,-3.6171e-06,-8.842e+05,-590.34,0,1.5256e+08,-17.105,12072,13208,1,13208,1,0.00078689,3.1005e-09,0,0.00078689,0.0001393,2.7845e+08,1036.8,0,3.021e+08,166.29,13207,12073,1,12073,1,-6.2512e-06,-1.6426e-09,0,0.0004028,1.2448e-06,-2.6287e+06,-546.03,0,1.6383e+08,-16.231,12072,10979,1,10979,1,-0.00074274,-6.801e-09,0,6.2512e-06,-0.00014734,-3.021e+08,-2231.8,0,2.6287e+06,-241.73,10978,11538,1,11538,1,-0.0004028,-3.7285e-09,0,0.00022035,-7.3042e-05,-1.6383e+08,-1217.9,0,8.3914e+07,-64.042,11537,12607,1,12607,1,0.00039032,1.144e-10,0,0.00061689,7.5563e-05,1.4498e+08,37.776,0,2.3296e+08,45.246,12606,618.61,0,618.61,0,0.00045818,2.352e-09,0,0.00022933,8.585e-05,1.7546e+08,777.06,0,8.6599e+07,79.276,618.61,1
2137,2.78,12073,1,12073,1,2.0048e-05,-4.2468e-10,0,0.00039853,-3.6612e-06,-8.8708e+05,-141.53,0,1.5306e+08,-10.055,12072,13208,1,13208,1,0.00078995,2.1929e-09,0,0.00078995,0.00013978,2.7923e+08,750.59,0,3.0314e+08,74.411,13207,12073,1,12073,1,-6.1054e-06,-2.2383e-10,0,0.00040413,1.2178e-06,-2.5717e+06,-72.302,0,1.6437e+08,-8.0525,12072,10979,1,10979,1,-0.0007453,-2.9748e-09,0,6.1052e-06,-0.00014791,-3.0314e+08,-989.74,0,2.5717e+06,-152.57,10978,11538,1,11538,1,-0.00040413,-1.286e-09,0,0.00022133,-7.3341e-05,-1.6437e+08,-423.95,0,8.4246e+07,-32.663,11537,12607,1,12607,1,0.00039192,3.4141e-10,0,0.00061935,7.5812e-05,1.4548e+08,107.03,0,2.3375e+08,21.611,12606,618.61,0,618.61,0,0.00045987,1.2009e-09,0,0.00023019,8.6167e-05,1.7602e+08,398.71,0,8.6875e+07,42.662,618.61,1
2137,2.79,12073,1,12073,1,2.0292e-05,-1.0538e-09,0,0.00039998,-3.7058e-06,-8.9012e+05,-348.08,0,1.5355e+08,-6.0739,12072,13208,1,13208,1,0.00079302,9.2511e-10,0,0.00079302,0.00014026,2.8001e+08,316.81,0,3.0419e+08,92.145,13207,12073,1,12073,1,-5.9574e-06,-9.989e-10,0,0.00040543,1.1903e-06,-2.514e+06,-325.61,0,1.649e+08,-3.4927,12072,10979,1,10979,1,-0.00074787,-3.3576e-09,0,5.9573e-06,-0.00014848,-3.0419e+08,-1107.1,0,2.5139e+06,-130.57,10978,11538,1,11538,1,-0.00040543,-1.9293e-09,0,0.00022231,-7.3641e-05,-1.649e+08,-637.2,0,8.4576e+07,-31.833,11537,12607,1,12607,1,0.00039353,-6.5689e-11,0,0.00062178,7.6057e-05,1.4597e+08,-21.666,0,2.3454e+08,21.45,12606,618.61,0,618.61,0,0.00046156,1.0578e-09,0,0.00023105,8.6482e-05,1.7659e+08,351.41,0,8.7149e+07,40.173,618.61,1
2137,2.8,12073,1,12073,1,2.0538e-05,-6.6534e-10,0,0.00040145,-3.7509e-06,-8.9302e+05,-220.41,0,1.5404e+08,-8.4028,12072,13208,1,13208,1,0.00079608,3.5999e-10,0,0.00079608,0.00014074,2.8079e+08,107.13,0,3.0522e+08,52.456,13207,12073,1,12073,1,-5.8071e-06,-6.0519e-10,0,0.00040674,1.1623e-06,-2.4553e+06,-194.88,0,1.6544e+08,-6.3413,12072,10979,1,10979,1,-0.00075042,-1.9625e-09,0,5.807e-06,-0.00014905,-3.0522e+08,-655.76,0,2.4552e+06,-124.22,10978,11538,1,11538,1,-0.00040674,-1.1447e-09,0,0.0002233,-7.3941e-05,-1.6544e+08,-381.63,0,8.4907e+07,-24.365,11537,12607,1,12607,1,0.00039514,-1.0369e-10,0,0.00062423,7.6303e-05,1.4646e+08,-33.581,0,2.3533e+08,9.3883,12606,618.61,0,618.61,0,0.00046324,6.096e-10,0,0.00023191,8.6798e-05,1.7715e+08,203.46,0,8.7422e+07,26.449,618.61,1
2137,2.81,12073,1,12073,1,2.0787e-05,-9.4013e-10,0,0.0004029,-3.7963e-06,-8.959e+05,-309.9,0,1.5453e+08,-5.8376,12072,13208,1,13208,1,0.00079915,1.764e-09,0,0.00079915,0.00014122,2.8156e+08,582.93,0,3.0626e+08,97.706,13207,12073,1,12073,1,-5.655e-06,-7.0513e-10,0,0.00040804,1.1339e-06,-2.3959e+06,-230.86,0,1.6597e+08,-11.265,12072,10979,1,10979,1,-0.00075297,-3.9761e-09,0,5.6548e-06,-0.00014962,-3.0626e+08,-1305,0,2.3959e+06,-166.25,10978,11538,1,11538,1,-0.00040804,-2.0059e-09,0,0.00022428,-7.4241e-05,-1.6597e+08,-656.92,0,8.5236e+07,-34.33,11537,12607,1,12607,1,0.00039675,1.0259e-10,0,0.00062667,7.6548e-05,1.4695e+08,31.767,0,2.3611e+08,22.355,12606,618.61,0,618.61,0,0.00046492,1.4012e-09,0,0.00023277,8.7112e-05,1.7771e+08,462.78,0,8.7694e+07,44.558,618.61,1
2137,2.82,12073,1,12073,1,2.1035e-05,-6.0051e-11,0,0.00040434,-3.8418e-06,-8.9867e+05,-20.979,0,1.5501e+08,12.684,12072,13208,1,13208,1,0.00080219,9.3934e-09,0,0.00080219,0.00014169,2.8233e+08,3077.2,0,3.0729e+08,250.45,13207,12073,1,12073,1,-5.5011e-06,1.0062e-10,0,0.00040933,1.1032e-06,-2.3359e+06,32.924,0,1.6649e+08,-0.37826,12072,10979,1,10979,1,-0.0007555,-8.5826e-09,0,5.5007e-06,-0.00015019,-3.0729e+08,-2811.6,0,2.3358e+06,-1063,10978,11538,1,11538,1,-0.00040933,-2.6541e-09,0,0.00022526,-7.4538e-05,-1.6649e+08,-873.66,0,8.5563e+07,-76.058,11537,12607,1,12607,1,0.00039834,2.2517e-09,0,0.00062908,7.6789e-05,1.4744e+08,733.41,0,2.3688e+08,114.93,12606,618.61,0,618.61,0,0.00046659,4.0817e-09,0,0.00023362,8.7423e-05,1.7826e+08,1344.5,0,8.7962e+07,126.5,618.61,1
2137,2.83,12073,1,12073,1,2.1286e-05,-6.241e-10,0,0.00040582,-3.8877e-06,-9.0178e+05,-205.83,0,1.5551e+08,-33.564,12072,13208,1,13208,1,0.00080529,1.8149e-09,0,0.00080529,0.00014218,2.8311e+08,621.53,0,3.0834e+08,105.77,13207,12073,1,12073,1,-5.3472e-06,-4.8713e-10,0,0.00041065,1.0746e-06,-2.2759e+06,-158.86,0,1.6703e+08,-31.098,12072,10979,1,10979,1,-0.00075808,-3.2797e-09,0,5.3467e-06,-0.00015077,-3.0834e+08,-1076.7,0,2.2758e+06,-987.01,10978,11538,1,11538,1,-0.00041065,-1.256e-09,0,0.00022625,-7.4842e-05,-1.6703e+08,-415.77,0,8.5898e+07,-59.477,11537,12607,1,12607,1,0.00039997,1.9038e-10,0,0.00063156,7.7038e-05,1.4794e+08,60.845,0,2.3768e+08,5.2172,12606,618.61,0,618.61,0,0.00046829,1.0794e-09,0,0.00023449,8.7742e-05,1.7883e+08,358.85,0,8.8239e+07,84.002,618.61,1
2137,2.84,12073,1,12073,1,2.1541e-05,-1.2226e-09,0,0.00040728,-3.9344e-06,-9.0478e+05,-402.29,0,1.5599e+08,-12.935,12072,13208,1,13208,1,0.00080837,1.1529e-09,0,0.00080837,0.00014265,2.8387e+08,394.72,0,3.0938e+08,108.56,13207,12073,1,12073,1,-5.1877e-06,-9.9784e-10,0,0.00041195,1.0456e-06,-2.2136e+06,-317.4,0,1.6755e+08,-15.668,12072,10979,1,10979,1,-0.00076063,-4.4623e-09,0,5.1874e-06,-0.00015134,-3.0938e+08,-1460.7,0,2.2135e+06,-866.67,10978,11538,1,11538,1,-0.00041195,-2.2677e-09,0,0.00022725,-7.5143e-05,-1.6755e+08,-749.03,0,8.6229e+07,-39.921,11537,12607,1,12607,1,0.00040159,1.3998e-11,0,0.00063401,7.7281e-05,1.4843e+08,4.3828,0,2.3846e+08,19.784,12606,618.61,0,618.61,0,0.00046998,1.3983e-09,0,0.00023535,8.8057e-05,1.7938e+08,462.74,0,8.851e+07,61.797,618.61,1
2137,2.85,12073,1,12073,1,2.1797e-05,9.3372e-12,0,0.00040874,-3.9812e-06,-9.0776e+05,1.3717,0,1.5648e+08,-20.713,12072,13208,1,13208,1,0.00081144,9.5345e-10,0,0.00081144,0.00014313,2.8464e+08,326.51,0,3.1041e+08,73.669,13207,12073,1,12073,1,-5.0276e-06,4.9282e-12,0,0.00041326,1.0156e-06,-2.1514e+06,1.5397,0,1.6809e+08,-12.367,12072,10979,1,10979,1,-0.00076318,-8.9589e-10,0,5.0275e-06,-0.00015192,-3.1041e+08,-302.71,0,2.1513e+06,-716.7,10978,11538,1,11538,1,-0.00041326,-2.3582e-10,0,0.00022824,-7.5445e-05,-1.6809e+08,-78.382,0,8.6562e+07,-25.031,11537,12607,1,12607,1,0.00040321,2.0709e-10,0,0.00063647,7.7527e-05,1.4892e+08,64.409,0,2.3925e+08,3.3783,12606,618.61,0,618.61,0,0.00047167,3.0226e-10,0,0.00023622,8.8374e-05,1.7994e+08,100.56,0,8.8782e+07,78.554,618.61,1
2137,2.86,12073,1,12073,1,2.2056e-05,-2.1644e-09,0,0.00041019,-4.0287e-06,-9.1053e+05,-710.58,0,1.5697e+08,-28.835,12072,13208,1,13208,1,0.00081454,1.7938e-09,0,0.00081454,0.00014361,2.8541e+08,610.38,0,3.1146e+08,161.77,13207,12073,1,12073,1,-4.8654e-06,-1.8145e-09,0,0.00041454,9.8548e-07,-2.0881e+06,-602.7,0,1.6861e+08,-24.478,12072,10979,1,10979,1,-0.00076574,-7.7586e-09,0,4.8653e-06,-0.0001525,-3.1146e+08,-2537.9,0,2.0881e+06,-662.65,10978,11538,1,11538,1,-0.00041454,-4.1916e-09,0,0.00022923,-7.5748e-05,-1.6861e+08,-1363.7,0,8.6891e+07,-70.483,11537,12607,1,12607,1,0.00040483,3.4512e-11,0,0.0006389,7.7767e-05,1.4941e+08,10.55,0,2.4002e+08,34.75,12606,618.61,0,618.61,0,0.00047335,2.4434e-09,0,0.00023707,8.8687e-05,1.805e+08,804.81,0,8.9051e+07,99.146,618.61,1
2137,2.87,12073,1,12073,1,2.2315e-05,-8.4419e-10,0,0.00041166,-4.0761e-06,-9.1351e+05,-279.62,0,1.5745e+08,-28.959,12072,13208,1,13208,1,0.00081761,1.3396e-09,0,0.00081761,0.00014409,2.8616e+08,458.63,0,3.1249e+08,90.383,13207,12073,1,12073,1,-4.7011e-06,-6.8997e-10,0,0.00041584,9.5533e-07,-2.0241e+06,-225.25,0,1.6914e+08,-16.331,12072,10979,1,10979,1,-0.00076828,-3.4738e-09,0,4.7008e-06,-0.00015307,-3.1249e+08,-1135.8,0,2.024e+06,-480.56,10978,11538,1,11538,1,-0.00041584,-1.8083e-09,0,0.00023023,-7.605e-05,-1.6914e+08,-595.31,0,8.7224e+07,-44.908,11537,12607,1,12607,1,0.00040645,1.3125e-10,0,0.00064137,7.8012e-05,1.499e+08,42.087,0,2.4081e+08,6.4263,12606,618.61,0,618.61,0,0.00047504,1.1412e-09,0,0.00023794,8.9003e-05,1.8106e+08,378.17,0,8.9323e+07,68.774,618.61,1
2137,2.88,12073,1,12073,1,2.2577e-05,3.0448e-10,0,0.00041312,-4.124e-06,-9.1647e+05,98.077,0,1.5794e+08,-7.7622,12072,13208,1,13208,1,0.00082068,4.5348e-09,0,0.00082068,0.00014456,2.8691e+08,1482.4,0,3.1352e+08,118.97,13207,12073,1,12073,1,-4.5354e-06,1.8473e-10,0,0.00041713,9.2461e-07,-1.9595e+06,56.896,0,1.6966e+08,-9.4316,12072,10979,1,10979,1,-0.0007708,-2.4353e-09,0,4.5352e-06,-0.00015364,-3.1352e+08,-795.99,0,1.9595e+06,-417.73,10978,11538,1,11538,1,-0.00041713,-7.0597e-10,0,0.00023123,-7.6352e-05,-1.6966e+08,-229.05,0,8.7557e+07,-37.646,11537,12607,1,12607,1,0.00040807,1.0261e-09,0,0.00064383,7.8255e-05,1.5039e+08,333.88,0,2.4159e+08,35.16,12606,618.61,0,618.61,0,0.00047672,1.522e-09,0,0.0002388,8.9318e-05,1.8161e+08,500.94,0,8.9592e+07,61.865,618.61,1
2137,2.89,12073,1,12073,1,2.284e-05,-1.3512e-10,0,0.00041457,-4.1721e-06,-9.1958e+05,-44.386,0,1.5842e+08,6.1691,12072,13208,1,13208,1,0.00082375,5.6712e-09,0,0.00082375,0.00014504,2.8767e+08,1861.9,0,3.1455e+08,162.94,13207,12073,1,12073,1,-4.3685e-06,1.8302e-11,0,0.00041842,8.938e-07,-1.8945e+06,6.1431,0,1.7018e+08,-6.2099,12072,10979,1,10979,1,-0.00077334,-5.2426e-09,0,4.3683e-06,-0.00015422,-3.1455e+08,-1713,0,1.8945e+06,-223.96,10978,11538,1,11538,1,-0.00041842,-1.7693e-09,0,0.00023223,-7.6654e-05,-1.7018e+08,-584.77,0,8.7887e+07,-42.962,11537,12607,1,12607,1,0.00040969,1.2813e-09,0,0.00064628,7.8496e-05,1.5087e+08,415.31,0,2.4236e+08,59.504,12606,618.61,0,618.61,0,0.00047839,2.5144e-09,0,0.00023966,8.9632e-05,1.8216e+08,827.63,0,8.9859e+07,66.58,618.61,1
2137,2.9,12073,1,12073,1,2.3106e-05,-2.514e-10,0,0.00041604,-4.2209e-06,-9.2234e+05,-82.99,0,1.5891e+08,-21.264,12072,13208,1,13208,1,0.00082687,1.0996e-09,0,0.00082687,0.00014552,2.8843e+08,376.55,0,3.1559e+08,43.38,13207,12073,1,12073,1,-4.1987e-06,-1.4158e-10,0,0.00041972,8.625e-07,-1.8285e+06,-44.951,0,1.7072e+08,-20.795,12072,10979,1,10979,1,-0.0007759,-1.8271e-09,0,4.1985e-06,-0.0001548,-3.1559e+08,-611.46,0,1.8284e+06,-135.54,10978,11538,1,11538,1,-0.00041972,-6.3019e-10,0,0.00023324,-7.696e-05,-1.7072e+08,-207.06,0,8.8223e+07,-39.122,11537,12607,1,12607,1,0.00041133,1.8675e-10,0,0.00064877,7.8741e-05,1.5136e+08,61.23,0,2.4315e+08,0.41765,12606,618.61,0,618.61,0,0.0004801,5.9773e-10,0,0.00024053,8.995e-05,1.8272e+08,198.59,0,9.0132e+07,29.522,618.61,1
2137,2.91,12073,1,12073,1,2.3376e-05,1.4203e-09,0,0.0004175,-4.2702e-06,-9.2536e+05,464.45,0,1.5939e+08,-1.488,12072,13208,1,13208,1,0.00082996,3.9093e-09,0,0.00082996,0.000146,2.8918e+08,1308.1,0,3.1662e+08,101.33,13207,12073,1,12073,1,-4.0252e-06,1.3371e-09,0,0.00042101,8.304e-07,-1.761e+06,433.76,0,1.7124e+08,5.1569,12072,10979,1,10979,1,-0.00077845,-4.4505e-10,0,4.025e-06,-0.00015538,-3.1662e+08,-152.43,0,1.7609e+06,-361.64,10978,11538,1,11538,1,-0.00042101,5.743e-10,0,0.00023425,-7.7264e-05,-1.7124e+08,182.96,0,8.8556e+07,-16.467,11537,12607,1,12607,1,0.00041297,2.2498e-09,0,0.00065123,7.8982e-05,1.5185e+08,738.83,0,2.4393e+08,25.866,12606,618.61,0,618.61,0,0.00048179,1.0724e-09,0,0.0002414,9.0266e-05,1.8327e+08,353.17,0,9.04e+07,47.747,618.61,1
2137,2.92,12073,1,12073,1,2.3646e-05,7.9362e-11,0,0.00041896,-4.3196e-06,-9.2818e+05,27.414,0,1.5987e+08,-3.2292,12072,13208,1,13208,1,0.00083304,3.8946e-09,0,0.00083304,0.00014647,2.8992e+08,1303,0,3.1765e+08,123.46,13207,12073,1,12073,1,-3.8503e-06,1.1169e-10,0,0.00042229,7.9818e-07,-1.693e+06,33.869,0,1.7176e+08,-0.83545,12072,10979,1,10979,1,-0.00078096,-2.7936e-09,0,3.8501e-06,-0.00015595,-3.1765e+08,-934.66,0,1.6929e+06,-440.28,10978,11538,1,11538,1,-0.00042229,-7.1134e-10,0,0.00023526,-7.7567e-05,-1.7176e+08,-225.04,0,8.8888e+07,-24.903,11537,12607,1,12607,1,0.00041459,6.3263e-10,0,0.00065369,7.9223e-05,1.5234e+08,210.14,0,2.447e+08,32.788,12606,618.61,0,618.61,0,0.00048346,1.2778e-09,0,0.00024226,9.058e-05,1.8382e+08,420.1,0,9.0667e+07,61.342,618.61,1
2137,2.93,12073,1,12073,1,2.3917e-05,-6.1704e-10,0,0.00042042,-4.3693e-06,-9.3111e+05,-201.58,0,1.6035e+08,-8.698,12072,13208,1,13208,1,0.00083614,3.094e-09,0,0.00083614,0.00014695,2.9066e+08,1035,0,3.1868e+08,97.855,13207,12073,1,12073,1,-3.6752e-06,-4.587e-10,0,0.00042357,7.6573e-07,-1.6249e+06,-142.99,0,1.7228e+08,-4.9382,12072,10979,1,10979,1,-0.00078351,-4.0064e-09,0,3.6749e-06,-0.00015653,-3.1868e+08,-1340.1,0,1.6248e+06,-560.15,10978,11538,1,11538,1,-0.00042357,-1.6272e-09,0,0.00023627,-7.7873e-05,-1.7228e+08,-527.4,0,8.9221e+07,-31.815,11537,12607,1,12607,1,0.00041623,2.8175e-10,0,0.00065616,7.9464e-05,1.5283e+08,92.308,0,2.4548e+08,28.903,12606,618.61,0,618.61,0,0.00048515,1.3901e-09,0,0.00024312,9.0896e-05,1.8437e+08,457.46,0,9.0935e+07,72.284,618.61,1
2137,2.94,12073,1,12073,1,2.4192e-05,1.9623e-09,0,0.00042189,-4.4195e-06,-9.3405e+05,640.89,0,1.6083e+08,3.3466,12072,13208,1,13208,1,0.00083926,6.1215e-09,0,0.00083926,0.00014742,2.9141e+08,2047.2,0,3.1972e+08,181.07,13207,12073,1,12073,1,-3.4963e-06,1.9095e-09,0,0.00042485,7.3275e-07,-1.5554e+06,619.15,0,1.728e+08,6.7712,12072,10979,1,10979,1,-0.00078606,-7.7278e-10,0,3.4962e-06,-0.00015711,-3.1972e+08,-264.68,0,1.5554e+06,-879.01,10978,11538,1,11538,1,-0.00042485,6.6296e-10,0,0.00023728,-7.818e-05,-1.728e+08,215.23,0,8.9555e+07,-21.241,11537,12607,1,12607,1,0.00041788,3.1912e-09,0,0.00065864,7.9705e-05,1.5331e+08,1041.1,0,2.4625e+08,37.994,12606,618.61,0,618.61,0,0.00048684,1.5307e-09,0,0.00024399,9.1212e-05,1.8492e+08,503.53,0,9.1203e+07,80.55,618.61,1
2137,2.95,12073,1,12073,1,2.4469e-05,1.1411e-09,0,0.00042335,-4.4702e-06,-9.3694e+05,375.48,0,1.6131e+08,-1.3093,12072,13208,1,13208,1,0.00084236,3.8099e-09,0,0.00084236,0.0001479,2.9214e+08,1275.5,0,3.2075e+08,120.48,13207,12073,1,12073,1,-3.3146e-06,1.0602e-09,0,0.00042614,7.0056e-07,-1.4848e+06,344.3,0,1.7332e+08,2.6079,12072,10979,1,10979,1,-0.00078858,-6.4388e-10,0,3.3143e-06,-0.00015769,-3.2075e+08,-220.5,0,1.4847e+06,-904.19,10978,11538,1,11538,1,-0.00042614,1.8778e-10,0,0.0002383,-7.8485e-05,-1.7332e+08,58.991,0,8.9889e+07,-22.13,11537,12607,1,12607,1,0.00041952,2.0288e-09,0,0.00066112,7.9946e-05,1.538e+08,665.95,0,2.4703e+08,22.496,12606,618.61,0,618.61,0,0.00048853,1.0335e-09,0,0.00024486,9.1528e-05,1.8547e+08,342.56,0,9.147e+07,54.839,618.61,1
2137,2.96,12073,1,12073,1,2.4748e-05,-5.2463e-10,0,0.00042481,-4.5212e-06,-9.3988e+05,-169.43,0,1.6179e+08,-3.9555,12072,13208,1,13208,1,0.00084545,3.7654e-09,0,0.00084545,0.00014837,2.9288e+08,1259,0,3.2177e+08,102.73,13207,12073,1,12073,1,-3.1321e-06,-2.0299e-10,0,0.00042741,6.6557e-07,-1.4139e+06,-65.649,0,1.7384e+08,-6.1238,12072,10979,1,10979,1,-0.0007911,-4.5657e-09,0,3.1319e-06,-0.00015826,-3.2177e+08,-1528.1,0,1.4139e+06,-967.85,10978,11538,1,11538,1,-0.00042741,-1.5835e-09,0,0.00023931,-7.879e-05,-1.7384e+08,-506.46,0,9.0223e+07,-30.771,11537,12607,1,12607,1,0.00042116,4.838e-10,0,0.00066359,8.0186e-05,1.5428e+08,156.28,0,2.478e+08,30.597,12606,618.61,0,618.61,0,0.00049022,1.527e-09,0,0.00024572,9.1843e-05,1.8602e+08,500.38,0,9.1736e+07,69.563,618.61,1
2137,2.97,12073,1,12073,1,2.5029e-05,1.8739e-10,0,0.00042628,-4.5726e-06,-9.4274e+05,60.534,0,1.6227e+08,-9.0586,12072,13208,1,13208,1,0.00084856,3.1362e-09,0,0.00084856,0.00014885,2.9361e+08,1035.1,0,3.228e+08,98.43,13207,12073,1,12073,1,-2.9483e-06,1.13e-10,0,0.0004287,6.3393e-07,-1.3424e+06,36.236,0,1.7437e+08,-8.3055,12072,10979,1,10979,1,-0.00079364,-1.7287e-09,0,2.9481e-06,-0.00015885,-3.228e+08,-563.87,0,1.3423e+06,-168.76,10978,11538,1,11538,1,-0.0004287,-5.3863e-10,0,0.00024034,-7.9098e-05,-1.7437e+08,-174.41,0,9.0559e+07,-37.315,11537,12607,1,12607,1,0.00042281,6.5248e-10,0,0.00066609,8.0427e-05,1.5477e+08,209.83,0,2.4858e+08,25.795,12606,618.61,0,618.61,0,0.00049191,1.0588e-09,0,0.00024659,9.216e-05,1.8657e+08,348.7,0,9.2003e+07,45.715,618.61,1
2137,2.98,12073,1,12073,1,2.5312e-05,-4.9517e-10,0,0.00042774,-4.6245e-06,-9.4562e+05,-161.85,0,1.6274e+08,-5.5264,12072,13208,1,13208,1,0.00085167,2.4273e-09,0,0.00085167,0.00014932,2.9434e+08,816.9,0,3.2383e+08,108.62,13207,12073,1,12073,1,-2.7606e-06,-2.4517e-10,0,0.00042997,5.9961e-07,-1.2695e+06,-78.529,0,1.7488e+08,-7.2659,12072,10979,1,10979,1,-0.00079617,-3.3478e-09,0,2.7604e-06,-0.00015943,-3.2383e+08,-1093.9,0,1.2695e+06,-169.39,10978,11538,1,11538,1,-0.00042997,-1.4247e-09,0,0.00024136,-7.9405e-05,-1.7488e+08,-458.89,0,9.0893e+07,-36.305,11537,12607,1,12607,1,0.00042446,3.4666e-10,0,0.00066857,8.0666e-05,1.5525e+08,108.23,0,2.4935e+08,29.087,12606,618.61,0,618.61,0,0.0004936,1.3581e-09,0,0.00024746,9.2475e-05,1.8711e+08,446.36,0,9.2268e+07,43.624,618.61,1
2137,2.99,12073,1,12073,1,2.5597e-05,-3.8755e-10,0,0.00042919,-4.6766e-06,-9.4845e+05,-127.26,0,1.6322e+08,10.514,12072,13208,1,13208,1,0.00085478,3.5952e-09,0,0.00085478,0.00014979,2.9507e+08,1188,0,3.2486e+08,166.26,13207,12073,1,12073,1,-2.5713e-06,-3.6514e-11,0,0.00043124,5.6503e-07,-1.1961e+06,-12.418,0,1.754e+08,-3.2444,12072,10979,1,10979,1,-0.00079869,-4.3546e-09,0,2.571e-06,-0.00016001,-3.2486e+08,-1441.8,0,1.196e+06,-142.96,10978,11538,1,11538,1,-0.00043124,-1.5679e-09,0,0.00024238,-7.9712e-05,-1.754e+08,-494.93,0,9.1227e+07,-27.822,11537,12607,1,12607,1,0.0004261,6.4534e-10,0,0.00067104,8.0904e-05,1.5574e+08,206.21,0,2.5012e+08,46.322,12606,618.61,0,618.61,0,0.00049528,1.7956e-09,0,0.00024833,9.279e-05,1.8765e+08,589.08,0,9.2533e+07,57.892,618.61,1
2137,3,12073,1,12073,1,2.5884e-05,1.2389e-09,0,0.00043067,-4.7291e-06,-9.5151e+05,403.46,0,1.637e+08,14.821,12072,13208,1,13208,1,0.00085792,6.1866e-09,0,0.00085792,0.00015027,2.958e+08,2013.1,0,3.2589e+08,153.83,13207,12073,1,12073,1,-2.3805e-06,6.0889e-10,0,0.00043252,5.3008e-07,-1.122e+06,198.58,0,1.7592e+08,15.003,12072,10979,1,10979,1,-0.00080123,-1.6937e-09,0,2.3802e-06,-0.00016059,-3.2589e+08,-578.62,0,1.1219e+06,-242.69,10978,11538,1,11538,1,-0.00043252,-1.923e-10,0,0.00024341,-8.0022e-05,-1.7592e+08,-59.559,0,9.1563e+07,-27.251,11537,12607,1,12607,1,0.00042777,2.5785e-09,0,0.00067354,8.1145e-05,1.5622e+08,836.99,0,2.509e+08,60.01,12606,618.61,0,618.61,0,0.00049698,1.9097e-09,0,0.0002492,9.3108e-05,1.882e+08,627.31,0,9.2799e+07,57.037,618.61,1
2137,3.01,12073,1,12073,1,2.6176e-05,-1.0423e-10,0,0.00043214,-4.7825e-06,-9.5435e+05,-32.69,0,1.6418e+08,-16.2,12072,13208,1,13208,1,0.00086104,5.5654e-10,0,0.00086104,0.00015075,2.9653e+08,173.87,0,3.2692e+08,29.846,13207,12073,1,12073,1,-2.186e-06,-2.3916e-11,0,0.0004338,4.9468e-07,-1.0465e+06,-7.8667,0,1.7644e+08,-15.482,12072,10979,1,10979,1,-0.00080376,-1.2924e-09,0,2.1857e-06,-0.00016117,-3.2692e+08,-405.71,0,1.0464e+06,-76.124,10978,11538,1,11538,1,-0.0004338,-2.7257e-10,0,0.00024445,-8.0332e-05,-1.7644e+08,-86.393,0,9.1903e+07,-26.853,11537,12607,1,12607,1,0.00042943,1.0163e-10,0,0.00067606,8.1386e-05,1.5671e+08,33.556,0,2.5168e+08,-4.843,12606,618.61,0,618.61,0,0.00049869,3.6572e-10,0,0.00025008,9.3426e-05,1.8875e+08,116.09,0,9.3067e+07,14.952,618.61,1
2137,3.02,12073,1,12073,1,2.6469e-05,-5.6014e-10,0,0.0004336,-4.8362e-06,-9.5722e+05,-182.48,0,1.6465e+08,-4.1681,12072,13208,1,13208,1,0.00086417,4.585e-10,0,0.00086417,0.00015122,2.9725e+08,157.04,0,3.2795e+08,60.36,13207,12073,1,12073,1,-1.9891e-06,-4.5369e-10,0,0.00043506,4.5858e-07,-9.7019e+05,-150.71,0,1.7695e+08,-4.0806,12072,10979,1,10979,1,-0.00080628,-2.0723e-09,0,1.9891e-06,-0.00016176,-3.2795e+08,-673.79,0,9.7018e+05,-162.38,10978,11538,1,11538,1,-0.00043506,-1.0566e-09,0,0.00024548,-8.0641e-05,-1.7695e+08,-341.89,0,9.2238e+07,-21.935,11537,12607,1,12607,1,0.00043109,3.4784e-13,0,0.00067855,8.1623e-05,1.5719e+08,0.12106,0,2.5245e+08,16.878,12606,618.61,0,618.61,0,0.00050037,6.2915e-10,0,0.00025095,9.3742e-05,1.8929e+08,205.68,0,9.333e+07,31.07,618.61,1
2137,3.03,12073,1,12073,1,2.6763e-05,5.5374e-10,0,0.00043506,-4.8899e-06,-9.6017e+05,179.79,0,1.6512e+08,1.5417,12072,13208,1,13208,1,0.00086728,1.6247e-09,0,0.00086728,0.00015169,2.9796e+08,528.09,0,3.2897e+08,61.427,13207,12073,1,12073,1,-1.7911e-06,5.0884e-10,0,0.00043632,4.224e-07,-8.934e+05,163.45,0,1.7747e+08,6.8354,12072,10979,1,10979,1,-0.00080879,-4.3324e-10,0,1.791e-06,-0.00016234,-3.2897e+08,-148.36,0,8.9337e+05,-141.16,10978,11538,1,11538,1,-0.00043632,9.974e-11,0,0.00024651,-8.0949e-05,-1.7747e+08,31.625,0,9.2573e+07,-5.4773,11537,12607,1,12607,1,0.00043275,9.8256e-10,0,0.00068105,8.186e-05,1.5767e+08,317.89,0,2.5322e+08,16.308,12606,618.61,0,618.61,0,0.00050206,5.0369e-10,0,0.00025182,9.4057e-05,1.8983e+08,164.64,0,9.3592e+07,25.503,618.61,1
2137,3.04,12073,1,12073,1,2.7059e-05,6.3596e-10,0,0.00043653,-4.9441e-06,-9.6299e+05,207.64,0,1.6559e+08,3.7661,12072,13208,1,13208,1,0.00087041,2.4075e-09,0,0.00087041,0.00015216,2.9868e+08,786.35,0,3.2999e+08,56.481,13207,12073,1,12073,1,-1.5915e-06,4.452e-10,0,0.00043759,3.8586e-07,-8.1604e+05,145.59,0,1.7798e+08,4.8676,12072,10979,1,10979,1,-0.00081131,-3.9287e-10,0,1.5913e-06,-0.00016292,-3.2999e+08,-133.87,0,8.1596e+05,-117.41,10978,11538,1,11538,1,-0.00043759,1.0815e-10,0,0.00024755,-8.126e-05,-1.7798e+08,34.29,0,9.2909e+07,-8.9402,11537,12607,1,12607,1,0.00043441,1.0813e-09,0,0.00068355,8.2097e-05,1.5815e+08,351.08,0,2.5398e+08,20.73,12606,618.61,0,618.61,0,0.00050375,6.4982e-10,0,0.00025269,9.4374e-05,1.9037e+08,213.64,0,9.3856e+07,24.357,618.61,1
2137,3.05,12073,1,12073,1,2.7357e-05,-3.1087e-10,0,0.00043799,-4.9987e-06,-9.6588e+05,-100.53,0,1.6606e+08,-1.0702,12072,13208,1,13208,1,0.00087354,1.7352e-09,0,0.00087354,0.00015263,2.9939e+08,592.43,0,3.3101e+08,82.314,13207,12073,1,12073,1,-1.389e-06,-9.0225e-11,0,0.00043885,3.4878e-07,-7.3758e+05,-30.34,0,1.7849e+08,-4.1506,12072,10979,1,10979,1,-0.00081382,-2.4945e-09,0,1.3888e-06,-0.00016351,-3.3101e+08,-810.15,0,7.375e+05,-155.06,10978,11538,1,11538,1,-0.00043885,-9.9189e-10,0,0.00024859,-8.1569e-05,-1.7849e+08,-320.12,0,9.3245e+07,-23.487,11537,12607,1,12607,1,0.00043607,3.2653e-10,0,0.00068604,8.2334e-05,1.5863e+08,102.57,0,2.5475e+08,22.761,12606,618.61,0,618.61,0,0.00050544,9.7213e-10,0,0.00025356,9.4689e-05,1.9091e+08,317.88,0,9.4118e+07,37.674,618.61,1
2137,3.06,12073,1,12073,1,2.7658e-05,-1.7338e-10,0,0.00043946,-5.0537e-06,-9.6873e+05,-57.034,0,1.6654e+08,-4.1438,12072,13208,1,13208,1,0.00087667,2.6447e-09,0,0.00087667,0.00015311,3.001e+08,872.52,0,3.3204e+08,135.13,13207,12073,1,12073,1,-1.1847e-06,-1.0909e-10,0,0.00044011,3.113e-07,-6.5842e+05,-34.697,0,1.7901e+08,-3.2928,12072,10979,1,10979,1,-0.00081634,-2.2944e-09,0,1.1845e-06,-0.00016409,-3.3204e+08,-745.49,0,6.5836e+05,-155.88,10978,11538,1,11538,1,-0.00044011,-9.7851e-10,0,0.00024963,-8.188e-05,-1.7901e+08,-318.35,0,9.3581e+07,-30.006,11537,12607,1,12607,1,0.00043774,4.0089e-10,0,0.00068855,8.257e-05,1.5912e+08,121.42,0,2.5552e+08,28.993,12606,618.61,0,618.61,0,0.00050713,1.0994e-09,0,0.00025443,9.5006e-05,1.9145e+08,360.45,0,9.438e+07,43.575,618.61,1
2137,3.07,12073,1,12073,1,2.7961e-05,8.5198e-10,0,0.00044093,-5.1091e-06,-9.7173e+05,276.72,0,1.6701e+08,6.848,12072,13208,1,13208,1,0.00087983,2.6039e-09,0,0.00087983,0.00015358,3.0081e+08,844.98,0,3.3307e+08,99.52,13207,12073,1,12073,1,-9.7805e-07,7.2894e-10,0,0.00044137,2.7359e-07,-5.7838e+05,234.47,0,1.7952e+08,9.4916,12072,10979,1,10979,1,-0.00081887,-4.2873e-10,0,9.7792e-07,-0.00016468,-3.3307e+08,-146.82,0,5.7834e+05,-148.21,10978,11538,1,11538,1,-0.00044137,1.2784e-10,0,0.00025068,-8.2193e-05,-1.7952e+08,40.785,0,9.392e+07,-10.058,11537,12607,1,12607,1,0.00043942,1.5128e-09,0,0.00069107,8.2808e-05,1.596e+08,492.35,0,2.5629e+08,25.294,12606,618.61,0,618.61,0,0.00050883,7.7966e-10,0,0.00025531,9.5324e-05,1.9199e+08,255.7,0,9.4644e+07,30.655,618.61,1
2137,3.08,12073,1,12073,1,2.8268e-05,-2.3685e-10,0,0.00044239,-5.1653e-06,-9.7431e+05,-76.054,0,1.6748e+08,-6.4718,12072,13208,1,13208,1,0.00088295,2.6041e-09,0,0.00088295,0.00015405,3.0151e+08,860.32,0,3.3408e+08,78.527,13207,12073,1,12073,1,-7.6696e-07,-5.9965e-11,0,0.00044262,2.3496e-07,-4.9664e+05,-20.381,0,1.8003e+08,-10.193,12072,10979,1,10979,1,-0.00082136,-2.8495e-09,0,7.6679e-07,-0.00016526,-3.3408e+08,-932.9,0,4.9659e+05,-133.14,10978,11538,1,11538,1,-0.00044262,-1.0978e-09,0,0.00025172,-8.2504e-05,-1.8003e+08,-355.48,0,9.4256e+07,-33.987,11537,12607,1,12607,1,0.00044109,4.8827e-10,0,0.00069357,8.3043e-05,1.6008e+08,156.75,0,2.5705e+08,24.526,12606,618.61,0,618.61,0,0.00051052,1.2617e-09,0,0.00025618,9.5639e-05,1.9253e+08,412.34,0,9.4904e+07,40.303,618.61,1
2137,3.09,12073,1,12073,1,2.8574e-05,1.2153e-09,0,0.00044386,-5.2213e-06,-9.7744e+05,394.9,0,1.6794e+08,1.0904,12072,13208,1,13208,1,0.0008861,3.4185e-09,0,0.0008861,0.00015452,3.0221e+08,1111.1,0,3.351e+08,102.38,13207,12073,1,12073,1,-5.5719e-07,1.1206e-09,0,0.00044387,1.9649e-07,-4.1545e+05,356.43,0,1.8054e+08,3.2806,12072,10979,1,10979,1,-0.00082388,-2.1326e-10,0,5.5701e-07,-0.00016585,-3.351e+08,-73.044,0,4.1539e+05,-166.51,10978,11538,1,11538,1,-0.00044387,4.9896e-10,0,0.00025277,-8.2817e-05,-1.8054e+08,156.39,0,9.4594e+07,-12.953,11537,12607,1,12607,1,0.00044277,1.9062e-09,0,0.00069608,8.3278e-05,1.6056e+08,615.43,0,2.5782e+08,22.561,12606,618.61,0,618.61,0,0.00051221,8.9345e-10,0,0.00025706,9.5956e-05,1.9307e+08,294,0,9.5166e+07,32.521,618.61,1
2137,3.1,12073,1,12073,1,2.8885e-05,-1.0008e-09,0,0.00044533,-5.2782e-06,-9.8033e+05,-323.69,0,1.6842e+08,-7.7979,12072,13208,1,13208,1,0.00088926,5.4267e-10,0,0.00088926,0.000155,3.0291e+08,185.87,0,3.3613e+08,80.646,13207,12073,1,12073,1,-3.4318e-07,-9.119e-10,0,0.00044514,1.5739e-07,-3.3264e+05,-290.99,0,1.8105e+08,-8.3339,12072,10979,1,10979,1,-0.00082641,-2.9185e-09,0,3.43e-07,-0.00016644,-3.3613e+08,-945.91,0,3.3258e+05,-164.04,10978,11538,1,11538,1,-0.00044514,-1.6377e-09,0,0.00025382,-8.3131e-05,-1.8105e+08,-529.77,0,9.4933e+07,-35.376,11537,12607,1,12607,1,0.00044446,-3.3147e-10,0,0.00069862,8.3515e-05,1.6104e+08,-104.92,0,2.5859e+08,20.488,12606,618.61,0,618.61,0,0.00051392,8.5098e-10,0,0.00025794,9.6274e-05,1.936e+08,277.05,0,9.5428e+07,40.375,618.61,1
2137,3.11,12073,1,12073,1,2.9198e-05,5.0845e-11,0,0.00044679,-5.3355e-06,-9.8306e+05,15.373,0,1.6888e+08,1.9562,12072,13208,1,13208,1,0.00089239,4.4369e-09,0,0.00089239,0.00015546,3.036e+08,1449.6,0,3.3714e+08,152.07,13207,12073,1,12073,1,-1.257e-07,9.3775e-11,0,0.00044638,1.1751e-07,-2.4851e+05,29.746,0,1.8156e+08,-1.9039,12072,10979,1,10979,1,-0.00082889,-3.1423e-09,0,1.2548e-07,-0.00016702,-3.3714e+08,-1018,0,2.4843e+05,-187.97,10978,11538,1,11538,1,-0.00044638,-1.1023e-09,0,0.00025487,-8.3443e-05,-1.8156e+08,-353.25,0,9.527e+07,-33.218,11537,12607,1,12607,1,0.00044613,8.4632e-10,0,0.00070112,8.3749e-05,1.6151e+08,272.36,0,2.5935e+08,44.77,12606,618.61,0,618.61,0,0.0005156,1.6881e-09,0,0.00025881,9.6589e-05,1.9414e+08,550.93,0,9.5686e+07,55.39,618.61,1
2137,3.12,12073,1,12073,1,2.9512e-05,2.1066e-10,0,0.00044826,-5.3929e-06,-9.8591e+05,67.845,0,1.6935e+08,-6.2578,12072,13208,1,13208,1,0.00089554,2.7191e-09,0,0.00089554,0.00015593,3.0429e+08,905.5,0,3.3816e+08,71.11,13207,12073,1,12073,1,9.1415e-08,1.2874e-10,0,0.00044781,7.7776e-08,-1.6453e+05,39.076,0,1.8206e+08,-3.8268,12072,10979,1,10979,1,-0.00083139,-2.1482e-09,0,9.0394e-08,-0.00016761,-3.3816e+08,-712.13,0,1.6447e+05,-169.16,10978,11538,1,11538,1,-0.00044763,-4.1194e-10,0,0.00025575,-8.3756e-05,-1.8206e+08,-129.92,0,9.5608e+07,-26.583,11537,12607,1,12607,1,0.00044781,8.0239e-10,0,0.00070347,8.3983e-05,1.6199e+08,259.56,0,2.6011e+08,21.759,12606,618.61,0,618.61,0,0.00051729,1.0121e-09,0,0.00025967,9.6906e-05,1.9467e+08,332.45,0,9.5946e+07,36.338,618.61,1
2137,3.13,12073,1,12073,1,2.9829e-05,2.6372e-09,0,0.00044975,-5.4509e-06,-9.8874e+05,856.23,0,1.6981e+08,4.4105,12072,13208,1,13208,1,0.00089873,9.0456e-09,0,0.00089873,0.00015641,3.05e+08,2930,0,3.3919e+08,229.37,13207,12073,1,12073,1,3.1207e-07,2.2494e-09,0,0.00044949,3.7218e-08,-79256,724.51,0,1.8257e+08,1.526,12072,10979,1,10979,1,-0.00083393,-8.4294e-10,0,3.108e-07,-0.0001682,-3.3919e+08,-288.72,0,79152,-314.53,10978,11538,1,11538,1,-0.00044887,1.0106e-09,0,0.00025636,-8.4073e-05,-1.8257e+08,313.46,0,9.5947e+07,-25.356,11537,12607,1,12607,1,0.00044952,3.8745e-09,0,0.00070555,8.4217e-05,1.6247e+08,1262.6,0,2.6087e+08,36.11,12606,618.61,0,618.61,0,0.000519,2.1986e-09,0,0.00026053,9.7224e-05,1.952e+08,720.12,0,9.6207e+07,69.943,618.61,1
2137,3.14,12073,1,12073,1,3.0149e-05,-4.1304e-10,0,0.00045123,-5.5095e-06,-9.9162e+05,-130.12,0,1.7028e+08,-7.8487,12072,13208,1,13208,1,0.00090185,3.6867e-09,0,0.00090185,0.00015687,3.0567e+08,1248.3,0,3.402e+08,130.51,13207,12073,1,12073,1,5.3694e-07,-9.8542e-11,0,0.00045119,-3.7197e-09,7687.1,-29.949,0,1.8308e+08,-15.87,12072,10979,1,10979,1,-0.00083641,-4.4249e-09,0,5.3386e-07,-0.00016879,-3.402e+08,-1431.4,0,6594.3,-181.91,10978,11538,1,11538,1,-0.00045012,-1.6257e-09,0,0.00025698,-8.4385e-05,-1.8308e+08,-520.59,0,9.6286e+07,-51.342,11537,12607,1,12607,1,0.00045119,6.7391e-10,0,0.00070763,8.4451e-05,1.6295e+08,224.64,0,2.6163e+08,31.294,12606,618.61,0,618.61,0,0.00052068,1.8934e-09,0,0.00026137,9.7539e-05,1.9573e+08,618.06,0,9.6464e+07,55.58,618.61,1
2137,3.15,12073,1,12073,1,3.047e-05,-7.2159e-10,0,0.00045272,-5.5683e-06,-9.9454e+05,-234.09,0,1.7075e+08,-4.7205,12072,13208,1,13208,1,0.00090504,2.5238e-09,0,0.00090504,0.00015735,3.0636e+08,856.71,0,3.4122e+08,109.8,13207,12073,1,12073,1,7.6026e-07,-2.6908e-10,0,0.00045288,-4.4752e-08,93956,-87.552,0,1.8359e+08,-12.195,12072,10979,1,10979,1,-0.00083893,-4.6918e-09,0,7.5928e-07,-0.00016938,-3.4122e+08,-1517.5,0,93587,-154,10978,11538,1,11538,1,-0.00045137,-1.9036e-09,0,0.0002576,-8.4703e-05,-1.8359e+08,-611.46,0,9.6626e+07,-41.169,11537,12607,1,12607,1,0.0004529,4.5733e-10,0,0.00070972,8.4686e-05,1.6343e+08,145.79,0,2.624e+08,32.426,12606,618.61,0,618.61,0,0.00052239,1.7562e-09,0,0.00026223,9.7858e-05,1.9627e+08,574.42,0,9.6714e+07,50.022,618.61,1
2137,3.16,12073,1,12073,1,3.0796e-05,-2.4322e-10,0,0.0004542,-5.6278e-06,-9.9721e+05,-80.394,0,1.7122e+08,-9.5668,12072,13208,1,13208,1,0.00090819,3.8903e-09,0,0.00090819,0.00015781,3.0704e+08,1284.9,0,3.4223e+08,119.61,13207,12073,1,12073,1,9.8964e-07,2.6017e-11,0,0.00045458,-8.666e-08,1.8257e+05,8.9016,0,1.8409e+08,-13.997,12072,10979,1,10979,1,-0.00084141,-4.1998e-09,0,9.8815e-07,-0.00016997,-3.4223e+08,-1381.7,0,1.82e+05,-164.42,10978,11538,1,11538,1,-0.0004526,-1.3342e-09,0,0.00025821,-8.5018e-05,-1.8409e+08,-426.42,0,9.6965e+07,-44.965,11537,12607,1,12607,1,0.00045459,7.0137e-10,0,0.0007118,8.4918e-05,1.639e+08,227.55,0,2.6316e+08,26.731,12606,618.61,0,618.61,0,0.00052408,1.7363e-09,0,0.00026308,9.8174e-05,1.968e+08,567.93,0,9.696e+07,47.075,618.61,1
2137,3.17,12073,1,12073,1,3.1121e-05,5.692e-10,0,0.00045569,-5.6874e-06,-1.0001e+06,183.37,0,1.7169e+08,-1.0213,12072,13208,1,13208,1,0.00091136,4.794e-09,0,0.00091136,0.00015828,3.0772e+08,1571.8,0,3.4325e+08,152.81,13207,12073,1,12073,1,1.2188e-06,2.906e-10,0,0.00045628,-1.287e-07,2.7105e+05,91.802,0,1.8459e+08,-5.4881,12072,10979,1,10979,1,-0.00084391,-2.1587e-09,0,1.2171e-06,-0.00017056,-3.4325e+08,-711.44,0,2.7041e+05,-185.17,10978,11538,1,11538,1,-0.00045384,-4.4995e-10,0,0.00025882,-8.5333e-05,-1.8459e+08,-147.24,0,9.7305e+07,-33.397,11537,12607,1,12607,1,0.00045629,1.5103e-09,0,0.00071388,8.5152e-05,1.6438e+08,483.06,0,2.6392e+08,34.585,12606,618.61,0,618.61,0,0.00052578,1.5838e-09,0,0.00026393,9.8492e-05,1.9733e+08,518.27,0,9.7207e+07,54.442,618.61,1
2137,3.18,12073,1,12073,1,3.1452e-05,6.5069e-10,0,0.00045719,-5.7479e-06,-1.003e+06,211.08,0,1.7216e+08,-15.541,12072,13208,1,13208,1,0.00091455,1.7844e-09,0,0.00091455,0.00015875,3.084e+08,602.08,0,3.4428e+08,46.293,13207,12073,1,12073,1,1.4513e-06,6.9438e-10,0,0.000458,-1.7126e-07,3.6082e+05,225.62,0,1.851e+08,-13.473,12072,10979,1,10979,1,-0.00084643,-2.5314e-10,0,1.4504e-06,-0.00017115,-3.4428e+08,-86.7,0,3.6047e+05,-145.19,10978,11538,1,11538,1,-0.00045509,3.0231e-10,0,0.00025943,-8.5653e-05,-1.851e+08,96.323,0,9.7649e+07,-29.269,11537,12607,1,12607,1,0.000458,9.6327e-10,0,0.00071598,8.5386e-05,1.6486e+08,309.93,0,2.6469e+08,-0.56417,12606,618.61,0,618.61,0,0.00052749,4.4678e-10,0,0.00026479,9.8812e-05,1.9786e+08,146.93,0,9.7456e+07,22.9,618.61,1
2137,3.19,12073,1,12073,1,3.1785e-05,2.9903e-10,0,0.00045868,-5.8089e-06,-1.0058e+06,97.982,0,1.7263e+08,-4.7518,12072,13208,1,13208,1,0.00091773,2.1055e-09,0,0.00091773,0.00015922,3.0908e+08,688.86,0,3.4529e+08,83.41,13207,12073,1,12073,1,1.6882e-06,8.7594e-11,0,0.00045971,-2.1462e-07,4.5225e+05,28.593,0,1.856e+08,-3.2382,12072,10979,1,10979,1,-0.00084892,-1.5252e-10,0,1.6872e-06,-0.00017175,-3.4529e+08,-48.186,0,4.5184e+05,-159.92,10978,11538,1,11538,1,-0.00045633,2.7263e-12,0,0.00026004,-8.5971e-05,-1.856e+08,0.85018,0,9.799e+07,-15.888,11537,12607,1,12607,1,0.00045971,3.7617e-10,0,0.00071806,8.5619e-05,1.6533e+08,122.58,0,2.6545e+08,9.8292,12606,618.61,0,618.61,0,0.00052919,4.9022e-10,0,0.00026565,9.913e-05,1.9839e+08,160.82,0,9.7702e+07,27.611,618.61,1
2137,3.2,12073,1,12073,1,3.2119e-05,-1.3117e-10,0,0.00046015,-5.8699e-06,-1.0086e+06,-41.592,0,1.7309e+08,0.79156,12072,13208,1,13208,1,0.00092088,4.7649e-09,0,0.00092088,0.00015968,3.0974e+08,1553.2,0,3.4629e+08,116.6,13207,12073,1,12073,1,1.9261e-06,-7.7634e-11,0,0.0004614,-2.5822e-07,5.4402e+05,-23.821,0,1.861e+08,-4.3295,12072,10979,1,10979,1,-0.00085139,-3.7968e-09,0,1.9251e-06,-0.00017233,-3.4629e+08,-1225.5,0,5.4365e+05,-186.97,10978,11538,1,11538,1,-0.00045754,-1.526e-09,0,0.00026063,-8.6286e-05,-1.861e+08,-485.98,0,9.8327e+07,-39.239,11537,12607,1,12607,1,0.0004614,8.6541e-10,0,0.0007201,8.5847e-05,1.658e+08,281.84,0,2.6619e+08,44.974,12606,618.61,0,618.61,0,0.00053087,1.9439e-09,0,0.00026649,9.9444e-05,1.9891e+08,631.57,0,9.7943e+07,53.678,618.61,1
2137,3.21,12073,1,12073,1,3.2453e-05,-1.3165e-09,0,0.00046164,-5.931e-06,-1.0115e+06,-426.53,0,1.7355e+08,-22.591,12072,13208,1,13208,1,0.00092408,8.4035e-10,0,0.00092408,0.00016015,3.1041e+08,287.79,0,3.4731e+08,93.536,13207,12073,1,12073,1,2.1637e-06,-1.1035e-09,0,0.0004631,-3.0179e-07,6.3564e+05,-345.68,0,1.866e+08,-19.97,12072,10979,1,10979,1,-0.0008539,-4.4197e-09,0,2.1617e-06,-0.00017293,-3.4731e+08,-1425.8,0,6.3493e+05,-200.27,10978,11538,1,11538,1,-0.00045878,-2.3083e-09,0,0.00026123,-8.6605e-05,-1.866e+08,-751.56,0,9.8667e+07,-54.636,11537,12607,1,12607,1,0.00046312,-1.6429e-10,0,0.00072217,8.6079e-05,1.6628e+08,-49.105,0,2.6695e+08,10.086,12606,618.61,0,618.61,0,0.00053257,1.3119e-09,0,0.00026735,9.9762e-05,1.9944e+08,429.29,0,9.8189e+07,49.654,618.61,1
2137,3.22,12073,1,12073,1,3.2791e-05,2.2655e-09,0,0.00046313,-5.9928e-06,-1.0143e+06,730.53,0,1.7402e+08,15.359,12072,13208,1,13208,1,0.00092726,9.3606e-09,0,0.00092726,0.00016062,3.1108e+08,3018.8,0,3.4833e+08,239.93,13207,12073,1,12073,1,2.4061e-06,1.7459e-09,0,0.00046481,-3.4604e-07,7.2913e+05,562.48,0,1.871e+08,16.314,12072,10979,1,10979,1,-0.00085639,-1.7701e-09,0,2.4035e-06,-0.00017352,-3.4833e+08,-606.14,0,7.2815e+05,-340.62,10978,11538,1,11538,1,-0.00046,1.5061e-10,0,0.00026182,-8.6924e-05,-1.871e+08,46.274,0,9.9007e+07,-37.611,11537,12607,1,12607,1,0.00046483,3.9224e-09,0,0.00072422,8.6308e-05,1.6675e+08,1267.7,0,2.677e+08,65.865,12606,618.61,0,618.61,0,0.00053427,2.5067e-09,0,0.0002682,0.00010008,1.9996e+08,815.03,0,9.8432e+07,85.383,618.61,1
2137,3.23,12073,1,12073,1,3.3132e-05,1.1342e-09,0,0.00046463,-6.0553e-06,-1.0171e+06,370.3,0,1.7449e+08,-7.801,12072,13208,1,13208,1,0.00093045,3.1965e-09,0,0.00093045,0.00016109,3.1174e+08,1053.8,0,3.4934e+08,69.711,13207,12073,1,12073,1,2.6503e-06,1.0745e-09,0,0.00046654,-3.9083e-07,8.2325e+05,347.83,0,1.876e+08,-9.4424,12072,10979,1,10979,1,-0.00085888,-2.9638e-10,0,2.6476e-06,-0.00017412,-3.4934e+08,-83.911,0,8.2219e+05,-135.09,10978,11538,1,11538,1,-0.00046124,5.1265e-10,0,0.00026243,-8.7244e-05,-1.876e+08,169.23,0,9.9351e+07,-23.869,11537,12607,1,12607,1,0.00046655,1.6704e-09,0,0.00072632,8.6542e-05,1.6722e+08,549.39,0,2.6847e+08,7.6204,12606,618.61,0,618.61,0,0.00053598,8.0155e-10,0,0.00026906,0.0001004,2.0049e+08,267.53,0,9.8678e+07,28.45,618.61,1
2137,3.24,12073,1,12073,1,3.3478e-05,2.773e-09,0,0.00046612,-6.1185e-06,-1.02e+06,899.18,0,1.7495e+08,6.7869,12072,13208,1,13208,1,0.00093367,6.9104e-09,0,0.00093367,0.00016156,3.1241e+08,2226.6,0,3.5036e+08,228.29,13207,12073,1,12073,1,2.8987e-06,2.9856e-09,0,0.00046825,-4.3842e-07,9.188e+05,944.14,0,1.881e+08,3.7386,12072,10979,1,10979,1,-0.00086139,-9.4098e-10,0,2.8961e-06,-0.00017472,-3.5036e+08,-322.29,0,9.1785e+05,-1009.5,10978,11538,1,11538,1,-0.00046246,1.1914e-09,0,0.00026302,-8.7566e-05,-1.881e+08,376.69,0,9.9691e+07,-25.786,11537,12607,1,12607,1,0.00046828,4.2934e-09,0,0.00072837,8.677e-05,1.677e+08,1398.7,0,2.6921e+08,44.439,12606,618.61,0,618.61,0,0.00053768,1.9541e-09,0,0.00026992,0.00010072,2.0101e+08,640.1,0,9.8921e+07,102.84,618.61,1
2137,3.25,12073,1,12073,1,3.3823e-05,2.1111e-09,0,0.0004676,-6.1817e-06,-1.0228e+06,688.32,0,1.7541e+08,15.196,12072,13208,1,13208,1,0.00093685,9.1118e-09,0,0.00093685,0.00016202,3.1305e+08,2934.7,0,3.5136e+08,249.36,13207,12073,1,12073,1,3.1497e-06,1.3079e-09,0,0.00046996,-4.8389e-07,1.0155e+06,430.01,0,1.8859e+08,18.768,12072,10979,1,10979,1,-0.00086385,-1.2128e-09,0,3.1445e-06,-0.00017531,-3.5136e+08,-388.38,0,1.0135e+06,-820.78,10978,11538,1,11538,1,-0.00046368,7.9699e-12,0,0.00026361,-8.7885e-05,-1.8859e+08,2.6997,0,1.0003e+08,-30.705,11537,12607,1,12607,1,0.00047,3.7612e-09,0,0.00073043,8.6999e-05,1.6817e+08,1229.7,0,2.6997e+08,65.374,12606,618.61,0,618.61,0,0.00053937,2.5028e-09,0,0.00027077,0.00010103,2.0153e+08,817.66,0,9.9161e+07,107.54,618.61,1
2137,3.26,12073,1,12073,1,3.4171e-05,2.2021e-09,0,0.00046909,-6.2453e-06,-1.0255e+06,717.42,0,1.7587e+08,7.4229,12072,13208,1,13208,1,0.00094005,1.0553e-08,0,0.00094005,0.00016249,3.1371e+08,3397.4,0,3.5237e+08,267.63,13207,12073,1,12073,1,3.4007e-06,1.284e-09,0,0.00047168,-5.2952e-07,1.1122e+06,422.94,0,1.8909e+08,12.546,12072,10979,1,10979,1,-0.00086634,-2.5933e-09,0,3.3959e-06,-0.00017591,-3.5237e+08,-834.89,0,1.1104e+06,-745.31,10978,11538,1,11538,1,-0.00046489,-2.9192e-10,0,0.0002642,-8.8206e-05,-1.8909e+08,-92.054,0,1.0037e+08,-53.168,11537,12607,1,12607,1,0.00047172,4.3887e-09,0,0.00073249,8.7228e-05,1.6864e+08,1401.6,0,2.7072e+08,83.163,12606,618.61,0,618.61,0,0.00054107,3.0681e-09,0,0.00027162,0.00010135,2.0205e+08,1001.2,0,9.9403e+07,110,618.61,1
2137,3.27,12073,1,12073,1,3.4521e-05,2.0839e-09,0,0.00047058,-6.3094e-06,-1.0284e+06,679.79,0,1.7633e+08,16.817,12072,13208,1,13208,1,0.00094325,9.5651e-09,0,0.00094325,0.00016296,3.1436e+08,3078,0,3.5338e+08,321.61,13207,12073,1,12073,1,3.655e-06,1.3315e-09,0,0.00047341,-5.7558e-07,1.2101e+06,425.84,0,1.8958e+08,15.035,12072,10979,1,10979,1,-0.00086882,-2.1608e-09,0,3.6495e-06,-0.0001765,-3.5338e+08,-717.57,0,1.208e+06,-479.72,10978,11538,1,11538,1,-0.00046611,-2.1015e-10,0,0.00026479,-8.8528e-05,-1.8958e+08,-64.498,0,1.0072e+08,-45.511,11537,12607,1,12607,1,0.00047345,3.9596e-09,0,0.00073455,8.7458e-05,1.6911e+08,1297.2,0,2.7147e+08,70.875,12606,618.61,0,618.61,0,0.00054277,2.7322e-09,0,0.00027248,0.00010167,2.0257e+08,894.04,0,9.9645e+07,98.437,618.61,1
2137,3.28,12073,1,12073,1,3.4873e-05,2.4042e-09,0,0.00047205,-6.3738e-06,-1.0313e+06,783.23,0,1.7678e+08,30.326,12072,13208,1,13208,1,0.00094643,1.7094e-08,0,0.00094643,0.00016342,3.15e+08,5509.3,0,3.5438e+08,449.78,13207,12073,1,12073,1,3.9123e-06,6.5924e-10,0,0.00047512,-6.2234e-07,1.3092e+06,204.99,0,1.9007e+08,33.168,12072,10979,1,10979,1,-0.00087128,-6.3764e-09,0,3.9056e-06,-0.0001771,-3.5438e+08,-2057.2,0,1.3066e+06,-523.53,10978,11538,1,11538,1,-0.00046731,-1.1282e-09,0,0.00026536,-8.8847e-05,-1.9007e+08,-351.1,0,1.0105e+08,-77.584,11537,12607,1,12607,1,0.00047517,5.5041e-09,0,0.00073657,8.7683e-05,1.6958e+08,1754.5,0,2.7221e+08,125.13,12606,618.61,0,618.61,0,0.00054445,5.1168e-09,0,0.00027333,0.00010198,2.0308e+08,1665.4,0,9.9882e+07,151.31,618.61,1
2137,3.29,12073,1,12073,1,3.523e-05,1.48e-09,0,0.00047358,-6.4391e-06,-1.0339e+06,484.16,0,1.7726e+08,-38.656,12072,13208,1,13208,1,0.00094967,3.6443e-09,0,0.00094967,0.00016389,3.1566e+08,1206.9,0,3.554e+08,122.62,13207,12073,1,12073,1,4.1691e-06,1.5922e-09,0,0.00047689,-6.6882e-07,1.4079e+06,505.67,0,1.9058e+08,-36.584,12072,10979,1,10979,1,-0.00087379,-7.8825e-10,0,4.1634e-06,-0.0001777,-3.554e+08,-230.7,0,1.4057e+06,-325.98,10978,11538,1,11538,1,-0.00046856,4.3603e-10,0,0.00026596,-8.9173e-05,-1.9058e+08,135.52,0,1.0141e+08,-72.162,11537,12607,1,12607,1,0.00047692,2.5483e-09,0,0.00073869,8.7918e-05,1.7005e+08,835.62,0,2.7298e+08,5.9779,12606,618.61,0,618.61,0,0.0005462,1.2139e-09,0,0.0002742,0.00010231,2.0362e+08,400.75,0,1.0013e+08,64.843,618.61,1
2137,3.3,12073,1,12073,1,3.5593e-05,-1.4164e-09,0,0.00047507,-6.5056e-06,-1.0364e+06,-451.75,0,1.7771e+08,-36.431,12072,13208,1,13208,1,0.00095285,4.6888e-09,0,0.00095285,0.00016435,3.1629e+08,1543.9,0,3.564e+08,198.78,13207,12073,1,12073,1,4.4348e-06,-1.2909e-09,0,0.00047863,-7.1672e-07,1.5101e+06,-421,0,1.9107e+08,-22.524,12072,10979,1,10979,1,-0.00087625,-6.3301e-09,0,4.4309e-06,-0.00017829,-3.564e+08,-2084.1,0,1.5085e+06,-594.34,10978,11538,1,11538,1,-0.00046976,-3.4026e-09,0,0.00026653,-8.9494e-05,-1.9107e+08,-1087.5,0,1.0175e+08,-88.899,11537,12607,1,12607,1,0.00047864,3.9324e-10,0,0.00074072,8.8143e-05,1.7052e+08,125.57,0,2.7373e+08,18.829,12606,618.61,0,618.61,0,0.00054789,2.3485e-09,0,0.00027506,0.00010262,2.0413e+08,758.97,0,1.0037e+08,95.547,618.61,1
2137,3.31,12073,1,12073,1,3.5953e-05,-9.5582e-10,0,0.00047657,-6.5714e-06,-1.0397e+06,-310.77,0,1.7817e+08,-27.184,12072,13208,1,13208,1,0.00095609,1.1794e-09,0,0.00095609,0.00016482,3.1694e+08,388.18,0,3.5742e+08,84.259,13207,12073,1,12073,1,4.6967e-06,-8.6873e-10,0,0.00048037,-7.6426e-07,1.6106e+06,-271.08,0,1.9157e+08,-12.894,12072,10979,1,10979,1,-0.00087874,-3.4551e-09,0,4.6922e-06,-0.0001789,-3.5742e+08,-1136.9,0,1.6091e+06,-748.64,10978,11538,1,11538,1,-0.00047099,-1.6739e-09,0,0.00026713,-8.982e-05,-1.9157e+08,-546.37,0,1.0209e+08,-51.389,11537,12607,1,12607,1,0.00048039,-1.6133e-10,0,0.00074281,8.8374e-05,1.7099e+08,-49.679,0,2.7449e+08,11.594,12606,618.61,0,618.61,0,0.00054961,9.5972e-10,0,0.00027592,0.00010295,2.0465e+08,316.42,0,1.0061e+08,89.261,618.61,1
2137,3.32,12073,1,12073,1,3.632e-05,1.3002e-09,0,0.00047807,-6.6384e-06,-1.0424e+06,416.73,0,1.7863e+08,19.104,12072,13208,1,13208,1,0.00095931,6.8005e-09,0,0.00095931,0.00016528,3.1757e+08,2239.2,0,3.5842e+08,221.77,13207,12073,1,12073,1,4.9657e-06,7.696e-10,0,0.00048212,-8.1259e-07,1.7141e+06,246.26,0,1.9206e+08,19.656,12072,10979,1,10979,1,-0.00088122,-2.0741e-09,0,4.963e-06,-0.0001795,-3.5842e+08,-682.39,0,1.7131e+06,-1141.6,10978,11538,1,11538,1,-0.00047219,-6.4944e-11,0,0.0002677,-9.0144e-05,-1.9206e+08,-20.288,0,1.0244e+08,-14.308,11537,12607,1,12607,1,0.00048214,2.4414e-09,0,0.00074486,8.86e-05,1.7146e+08,782.98,0,2.7523e+08,60.359,12606,618.61,0,618.61,0,0.00055131,1.6848e-09,0,0.00027678,0.00010326,2.0517e+08,546.67,0,1.0085e+08,86.03,618.61,1
2137,3.33,12073,1,12073,1,3.6687e-05,1.5214e-09,0,0.00047956,-6.7055e-06,-1.0452e+06,492.67,0,1.7909e+08,-0.47959,12072,13208,1,13208,1,0.00096253,5.6059e-09,0,0.00096253,0.00016574,3.182e+08,1843.1,0,3.5943e+08,144.09,13207,12073,1,12073,1,5.2354e-06,1.2135e-09,0,0.00048387,-8.6178e-07,1.8175e+06,380.85,0,1.9255e+08,0.21562,12072,10979,1,10979,1,-0.00088368,-3.725e-10,0,5.2333e-06,-0.0001801,-3.5943e+08,-127.58,0,1.8169e+06,-1247.4,10978,11538,1,11538,1,-0.0004734,4.9607e-10,0,0.00026827,-9.0469e-05,-1.9255e+08,154.83,0,1.0278e+08,-27.201,11537,12607,1,12607,1,0.00048388,2.5142e-09,0,0.0007469,8.8827e-05,1.7193e+08,811.14,0,2.7598e+08,35.187,12606,618.61,0,618.61,0,0.00055302,1.2208e-09,0,0.00027764,0.00010358,2.0568e+08,402.22,0,1.0109e+08,84.599,618.61,1
2137,3.34,12073,1,12073,1,3.7055e-05,-1.1136e-09,0,0.00048105,-6.7729e-06,-1.048e+06,-354.64,0,1.7954e+08,-7.6008,12072,13208,1,13208,1,0.00096575,3.4074e-09,0,0.00096575,0.00016621,3.1883e+08,1158.5,0,3.6043e+08,199.84,13207,12073,1,12073,1,5.5072e-06,-8.4561e-10,0,0.00048561,-9.076e-07,1.9221e+06,-263.1,0,1.9303e+08,-2.932,12072,10979,1,10979,1,-0.00088615,-5.647e-09,0,5.5049e-06,-0.0001807,-3.6043e+08,-1811.5,0,1.9212e+06,-281.15,10978,11538,1,11538,1,-0.0004746,-2.8722e-09,0,0.00026884,-9.0793e-05,-1.9303e+08,-915.12,0,1.0313e+08,-68.316,11537,12607,1,12607,1,0.00048562,4.6135e-10,0,0.00074894,8.9052e-05,1.7239e+08,147.58,0,2.7672e+08,48.804,12606,618.61,0,618.61,0,0.00055472,2.1086e-09,0,0.0002785,0.0001039,2.0619e+08,679.92,0,1.0132e+08,83.913,618.61,1
2137,3.35,12073,1,12073,1,3.7425e-05,-8.9764e-10,0,0.00048254,-6.8405e-06,-1.0507e+06,-290.94,0,1.7999e+08,1.5174,12072,13208,1,13208,1,0.00096895,4.8439e-09,0,0.00096895,0.00016667,3.1945e+08,1585,0,3.6142e+08,183.59,13207,12073,1,12073,1,5.7809e-06,-2.2392e-10,0,0.00048734,-9.5644e-07,2.0271e+06,-71.087,0,1.9352e+08,-1.588,12072,10979,1,10979,1,-0.00088859,-6.861e-09,0,5.7788e-06,-0.00018129,-3.6142e+08,-2211.5,0,2.0263e+06,-209.96,10978,11538,1,11538,1,-0.00047579,-2.7998e-09,0,0.0002694,-9.1117e-05,-1.9352e+08,-913.58,0,1.0347e+08,-53.422,11537,12607,1,12607,1,0.00048736,8.9987e-10,0,0.00075097,8.9276e-05,1.7285e+08,273.7,0,2.7729e+08,56.951,12606,618.61,0,618.61,0,0.00055641,2.7529e-09,0,0.00027935,0.00010422,2.067e+08,892.68,0,1.0156e+08,78.099,618.61,1
2137,3.36,12073,1,12073,1,3.7799e-05,-5.9781e-10,0,0.00048406,-6.9088e-06,-1.0537e+06,-195.19,0,1.8045e+08,-13.897,12072,13208,1,13208,1,0.00097222,2.1477e-09,0,0.00097222,0.00016714,3.2009e+08,735.16,0,3.6244e+08,126.7,13207,12073,1,12073,1,6.0569e-06,-5.1883e-10,0,0.00048912,-1.0059e-06,2.1329e+06,-164.02,0,1.9402e+08,-4.5306,12072,10979,1,10979,1,-0.0008911,-2.957e-09,0,6.0535e-06,-0.0001819,-3.6244e+08,-971.08,0,2.1316e+06,-242.58,10978,11538,1,11538,1,-0.00047701,-1.4298e-09,0,0.00026999,-9.1447e-05,-1.9402e+08,-461.7,0,1.0382e+08,-49.68,11537,12607,1,12607,1,0.00048914,1.9721e-10,0,0.00075305,8.9507e-05,1.7333e+08,60.956,0,2.7789e+08,28.021,12606,618.61,0,618.61,0,0.00055814,1.0971e-09,0,0.00028023,0.00010454,2.0722e+08,360.21,0,1.018e+08,57.782,618.61,1
2137,3.37,12073,1,12073,1,3.818e-05,1.674e-09,0,0.00048556,-6.9785e-06,-1.0564e+06,536.03,0,1.8091e+08,8.311,12072,13208,1,13208,1,0.00097546,5.0676e-09,0,0.00097546,0.0001676,3.2071e+08,1636.8,0,3.6345e+08,161.77,13207,12073,1,12073,1,6.34e-06,1.495e-09,0,0.00049089,-1.0562e-06,2.2415e+06,476.68,0,1.945e+08,8.7554,12072,10979,1,10979,1,-0.00089356,-4.1487e-10,0,6.3376e-06,-0.00018251,-3.6345e+08,-132.18,0,2.2406e+06,-246.66,10978,11538,1,11538,1,-0.00047821,7.4781e-10,0,0.00027055,-9.1775e-05,-1.945e+08,236.65,0,1.0416e+08,-14.786,11537,12607,1,12607,1,0.0004909,2.418e-09,0,0.00075509,8.9731e-05,1.7379e+08,776.95,0,2.7845e+08,30.799,12606,618.61,0,618.61,0,0.00055985,1.2483e-09,0,0.00028109,0.00010486,2.0773e+08,405.13,0,1.0203e+08,47.353,618.61,1
2137,3.38,12073,1,12073,1,3.8561e-05,7.3484e-10,0,0.00048706,-7.0481e-06,-1.0591e+06,238.59,0,1.8136e+08,-3.0555,12072,13208,1,13208,1,0.0009787,1.8781e-09,0,0.0009787,0.00016806,3.2132e+08,616.11,0,3.6445e+08,60.171,13207,12073,1,12073,1,6.6233e-06,7.8402e-10,0,0.00049265,-1.1067e-06,2.35e+06,249.78,0,1.9499e+08,-3.323,12072,10979,1,10979,1,-0.00089602,-1.9871e-10,0,6.6214e-06,-0.00018311,-3.6445e+08,-55.138,0,2.3493e+06,-132.86,10978,11538,1,11538,1,-0.00047941,3.8323e-10,0,0.00027111,-9.2103e-05,-1.9499e+08,114.73,0,1.0451e+08,-16.701,11537,12607,1,12607,1,0.00049266,1.0051e-09,0,0.00075714,8.9957e-05,1.7426e+08,332.56,0,2.7903e+08,11.797,12606,618.61,0,618.61,0,0.00056156,4.6785e-10,0,0.00028196,0.00010518,2.0824e+08,156.01,0,1.0227e+08,24.335,618.61,1
2137,3.39,12073,1,12073,1,3.8944e-05,3.7852e-10,0,0.00048856,-7.1182e-06,-1.0618e+06,123.81,0,1.8181e+08,-13.426,12072,13208,1,13208,1,0.00098193,1.7029e-09,0,0.00098193,0.00016852,3.2193e+08,574.46,0,3.6544e+08,80.227,13207,12073,1,12073,1,6.9087e-06,2.631e-10,0,0.00049442,-1.1576e-06,2.4594e+06,87.742,0,1.9548e+08,-14.791,12072,10979,1,10979,1,-0.00089847,-8.3453e-11,0,6.9074e-06,-0.00018371,-3.6544e+08,-24.924,0,2.4588e+06,-105.02,10978,11538,1,11538,1,-0.0004806,1.1025e-10,0,0.00027167,-9.243e-05,-1.9548e+08,33.313,0,1.0486e+08,-28.256,11537,12607,1,12607,1,0.00049442,5.0902e-10,0,0.00075918,9.0181e-05,1.7472e+08,164.57,0,2.7959e+08,-1.2126,12606,618.61,0,618.61,0,0.00056327,3.9071e-10,0,0.00028282,0.0001055,2.0875e+08,129.01,0,1.025e+08,24.901,618.61,1
2137,3.4,12073,1,12073,1,3.9327e-05,-1.0136e-09,0,0.00049004,-7.1882e-06,-1.0644e+06,-323.47,0,1.8225e+08,-8.6371,12072,13208,1,13208,1,0.00098517,7.1281e-09,0,0.00098517,0.00016898,3.2254e+08,2317.2,0,3.6644e+08,303.74,13207,12073,1,12073,1,7.1959e-06,-5.0815e-10,0,0.00049616,-1.209e-06,2.5693e+06,-150.1,0,1.9595e+08,-27.557,12072,10979,1,10979,1,-0.00090092,-8.2894e-09,0,7.1947e-06,-0.00018431,-3.6644e+08,-2651.9,0,2.5689e+06,-252.02,10978,11538,1,11538,1,-0.00048177,-3.6747e-09,0,0.00027221,-9.2757e-05,-1.9595e+08,-1188.8,0,1.052e+08,-78.703,11537,12607,1,12607,1,0.00049618,1.1619e-09,0,0.00076117,9.04e-05,1.7518e+08,355.47,0,2.8014e+08,66.264,12606,618.61,0,618.61,0,0.00056495,3.6049e-09,0,0.00028367,0.00010581,2.0925e+08,1160.6,0,1.0273e+08,100.16,618.61,1
2137,3.41,12073,1,12073,1,3.9712e-05,-5.7592e-10,0,0.00049156,-7.2588e-06,-1.0673e+06,-187.88,0,1.8271e+08,-35.431,12072,13208,1,13208,1,0.00098843,7.3234e-10,0,0.00098843,0.00016944,3.2316e+08,250.8,0,3.6744e+08,77.851,13207,12073,1,12073,1,7.4851e-06,-6.4723e-10,0,0.00049794,-1.2602e-06,2.68e+06,-203.55,0,1.9644e+08,-34.915,12072,10979,1,10979,1,-0.00090339,-1.5246e-09,0,7.4814e-06,-0.00018492,-3.6744e+08,-513.66,0,2.6786e+06,-171.91,10978,11538,1,11538,1,-0.00048298,-1.0855e-09,0,0.00027278,-9.3087e-05,-1.9644e+08,-355.21,0,1.0555e+08,-64.591,11537,12607,1,12607,1,0.00049796,-2.1427e-11,0,0.00076324,9.0628e-05,1.7565e+08,-6.6137,0,2.8072e+08,-5.038,12606,618.61,0,618.61,0,0.00056668,5.8793e-10,0,0.00028455,0.00010614,2.0976e+08,191.71,0,1.0297e+08,41.751,618.61,1
2137,3.42,12073,1,12073,1,4.0105e-05,-2.2649e-09,0,0.00049305,-7.3305e-06,-1.0701e+06,-729.08,0,1.8316e+08,-39.061,12072,13208,1,13208,1,0.0009917,2.6447e-09,0,0.0009917,0.00016991,3.2377e+08,892.78,0,3.6845e+08,194.29,13207,12073,1,12073,1,7.7795e-06,-1.916e-09,0,0.0004997,-1.313e-06,2.7926e+06,-609.98,0,1.9692e+08,-33.144,12072,10979,1,10979,1,-0.00090586,-8.7105e-09,0,7.777e-06,-0.00018553,-3.6845e+08,-2784,0,2.7916e+06,-336.24,10978,11538,1,11538,1,-0.00048415,-4.5755e-09,0,0.00027332,-9.3419e-05,-1.9692e+08,-1473.8,0,1.0589e+08,-102.53,11537,12607,1,12607,1,0.00049974,2.1564e-10,0,0.00076525,9.0848e-05,1.7611e+08,67.14,0,2.8127e+08,17.622,12606,618.61,0,618.61,0,0.00056838,2.8366e-09,0,0.00028541,0.00010645,2.1027e+08,915.91,0,1.032e+08,90.148,618.61,1
2137,3.43,12073,1,12073,1,4.0497e-05,2.1799e-10,0,0.00049456,-7.4021e-06,-1.073e+06,62.848,0,1.8361e+08,-11.549,12072,13208,1,13208,1,0.00099494,3.7086e-09,0,0.00099494,0.00017036,3.2436e+08,1200.1,0,3.6944e+08,142.17,13207,12073,1,12073,1,8.0756e-06,1.7911e-10,0,0.00050149,-1.3651e-06,2.9058e+06,54.865,0,1.9741e+08,-4.0534,12072,10979,1,10979,1,-0.00090829,-2.308e-09,0,8.0707e-06,-0.00018613,-3.6944e+08,-761.02,0,2.9039e+06,-187.52,10978,11538,1,11538,1,-0.00048535,-8.3753e-10,0,0.00027388,-9.3747e-05,-1.9741e+08,-276.97,0,1.0624e+08,-49.152,11537,12607,1,12607,1,0.00050151,9.5145e-10,0,0.0007673,9.1073e-05,1.7657e+08,292.83,0,2.8184e+08,21.04,12606,618.61,0,618.61,0,0.0005701,1.4022e-09,0,0.00028628,0.00010677,2.1077e+08,455.26,0,1.0344e+08,52.356,618.61,1
2137,3.44,12073,1,12073,1,4.0891e-05,-2.2395e-09,0,0.00049604,-7.4742e-06,-1.0756e+06,-719.64,0,1.8405e+08,0.379,12072,13208,1,13208,1,0.00099819,8.7205e-09,0,0.00099819,0.00017082,3.2496e+08,2841.3,0,3.7043e+08,382.31,13207,12073,1,12073,1,8.3736e-06,-1.6889e-09,0,0.00050324,-1.4186e-06,3.0197e+06,-528.86,0,1.9787e+08,-8.1246,12072,10979,1,10979,1,-0.00091075,-1.2922e-08,0,8.3702e-06,-0.00018674,-3.7043e+08,-4144.2,0,3.0184e+06,-370.01,10978,11538,1,11538,1,-0.0004865,-6.2426e-09,0,0.00027441,-9.4077e-05,-1.9787e+08,-1999.5,0,1.0658e+08,-105.4,11537,12607,1,12607,1,0.00050328,1.2544e-09,0,0.00076928,9.129e-05,1.7703e+08,384.42,0,2.8238e+08,106.98,12606,618.61,0,618.61,0,0.00057178,5.075e-09,0,0.00028713,0.00010709,2.1127e+08,1637,0,1.0367e+08,147.58,618.61,1
2137,3.45,12073,1,12073,1,4.1289e-05,-5.8156e-10,0,0.00049756,-7.5469e-06,-1.0784e+06,-193.58,0,1.845e+08,-36.87,12072,13208,1,13208,1,0.0010015,8.1662e-10,0,0.0010015,0.00017128,3.2556e+08,279.62,0,3.7143e+08,126.32,13207,12073,1,12073,1,8.6734e-06,-4.9435e-10,0,0.00050505,-1.4713e-06,3.1342e+06,-149.98,0,1.9837e+08,-31.109,12072,10979,1,10979,1,-0.0009132,-1.9595e-09,0,8.6678e-06,-0.00018735,-3.7143e+08,-670.71,0,3.132e+06,-201.85,10978,11538,1,11538,1,-0.00048771,-1.2443e-09,0,0.00027498,-9.441e-05,-1.9837e+08,-410.88,0,1.0693e+08,-81.866,11537,12607,1,12607,1,0.00050507,2.3336e-11,0,0.00077136,9.1518e-05,1.7749e+08,7.5521,0,2.8295e+08,4.1604,12606,618.61,0,618.61,0,0.00057352,7.2934e-10,0,0.00028801,0.00010741,2.1178e+08,242.77,0,1.039e+08,61.02,618.61,1
2137,3.46,12073,1,12073,1,4.1693e-05,3.3863e-09,0,0.00049906,-7.6208e-06,-1.0811e+06,1081.6,0,1.8494e+08,24.713,12072,13208,1,13208,1,0.0010047,8.6659e-09,0,0.0010047,0.00017175,3.2616e+08,2771.1,0,3.7243e+08,251.05,13207,12073,1,12073,1,8.9789e-06,3.4481e-09,0,0.00050683,-1.5257e-06,3.2509e+06,1078,0,1.9884e+08,13.602,12072,10979,1,10979,1,-0.00091566,-1.0902e-09,0,8.9762e-06,-0.00018796,-3.7243e+08,-373.4,0,3.2498e+06,-312.33,10978,11538,1,11538,1,-0.00048887,1.4533e-09,0,0.00027551,-9.4743e-05,-1.9884e+08,441.37,0,1.0728e+08,-20.954,11537,12607,1,12607,1,0.00050686,5.2526e-09,0,0.00077335,9.1736e-05,1.7796e+08,1688.2,0,2.8349e+08,69.951,12606,618.61,0,618.61,0,0.00057523,2.4284e-09,0,0.00028887,0.00010773,2.1228e+08,783.72,0,1.0413e+08,79.439,618.61,1
2137,3.47,12073,1,12073,1,4.2096e-05,1.2242e-09,0,0.00050056,-7.6945e-06,-1.0839e+06,399.37,0,1.8539e+08,3.4554,12072,13208,1,13208,1,0.001008,5.1363e-09,0,0.001008,0.0001722,3.2674e+08,1677.3,0,3.7342e+08,195.5,13207,12073,1,12073,1,9.286e-06,8.1226e-10,0,0.00050862,-1.5802e-06,3.368e+06,258.24,0,1.9932e+08,3.9827,12072,10979,1,10979,1,-0.00091809,-2.4087e-09,0,9.2814e-06,-0.00018857,-3.7342e+08,-768.28,0,3.3662e+06,-186.7,10978,11538,1,11538,1,-0.00049005,-2.4491e-10,0,0.00027605,-9.5074e-05,-1.9932e+08,-73.151,0,1.0763e+08,-56.69,11537,12607,1,12607,1,0.00050864,2.781e-09,0,0.00077539,9.1958e-05,1.7841e+08,892.74,0,2.8404e+08,59.114,12606,618.61,0,618.61,0,0.00057694,1.8736e-09,0,0.00028974,0.00010805,2.1278e+08,609.77,0,1.0436e+08,77.882,618.61,1
2137,3.48,12073,1,12073,1,4.2502e-05,6.7184e-10,0,0.00050206,-7.7687e-06,-1.0865e+06,220.22,0,1.8583e+08,6.0219,12072,13208,1,13208,1,0.0010112,8.2574e-09,0,0.0010112,0.00017266,3.2732e+08,2690.4,0,3.7441e+08,242.48,13207,12073,1,12073,1,9.5946e-06,3.8164e-10,0,0.0005104,-1.6352e-06,3.4857e+06,124.4,0,1.9979e+08,-9.4979,12072,10979,1,10979,1,-0.00092051,-4.7483e-09,0,9.5907e-06,-0.00018917,-3.7441e+08,-1533.2,0,3.4842e+06,-199.8,10978,11538,1,11538,1,-0.00049122,-1.3536e-09,0,0.00027659,-9.5405e-05,-1.9979e+08,-402.33,0,1.0798e+08,-53.781,11537,12607,1,12607,1,0.00051042,2.3552e-09,0,0.0007774,9.2178e-05,1.7887e+08,758.61,0,2.8459e+08,66.493,12606,618.61,0,618.61,0,0.00057864,2.9786e-09,0,0.0002906,0.00010837,2.1328e+08,961.75,0,1.0459e+08,82.206,618.61,1
2137,3.49,12073,1,12073,1,4.2912e-05,-1.2824e-09,0,0.00050359,-7.8437e-06,-1.0893e+06,-408.18,0,1.8628e+08,-32.294,12072,13208,1,13208,1,0.0010146,7.6208e-10,0,0.0010146,0.00017312,3.2792e+08,261.01,0,3.7542e+08,83.16,13207,12073,1,12073,1,9.9046e-06,-1.1571e-09,0,0.00051222,-1.6903e-06,3.6038e+06,-355.6,0,2.0028e+08,-30.416,12072,10979,1,10979,1,-0.000923,-4.2212e-09,0,9.9027e-06,-0.00018979,-3.7542e+08,-1350.4,0,3.6031e+06,-216.8,10978,11538,1,11538,1,-0.00049241,-2.0495e-09,0,0.00027713,-9.5742e-05,-2.0028e+08,-655.97,0,1.0833e+08,-63.151,11537,12607,1,12607,1,0.00051223,-3.5634e-10,0,0.00077945,9.2402e-05,1.7933e+08,-113.33,0,2.8514e+08,-0.73548,12606,618.61,0,618.61,0,0.00058038,1.1555e-09,0,0.00029149,0.00010869,2.1378e+08,374.32,0,1.0483e+08,47.457,618.61,1
2137,3.5,12073,1,12073,1,4.3329e-05,-1.4624e-10,0,0.0005051,-7.9198e-06,-1.092e+06,-49.521,0,1.8672e+08,-21.332,12072,13208,1,13208,1,0.0010179,1.8816e-09,0,0.0010179,0.00017358,3.285e+08,636.32,0,3.7641e+08,106.29,13207,12073,1,12073,1,1.0224e-05,3.6814e-11,0,0.00051402,-1.7468e-06,3.7253e+06,12.525,0,2.0075e+08,-18.371,12072,10979,1,10979,1,-0.00092543,-2.2646e-09,0,1.0221e-05,-0.0001904,-3.7641e+08,-727.74,0,3.7244e+06,-191.34,10978,11538,1,11538,1,-0.00049358,-7.7193e-10,0,0.00027767,-9.6077e-05,-2.0075e+08,-249.94,0,1.0868e+08,-46.985,11537,12607,1,12607,1,0.00051404,4.3243e-10,0,0.00078147,9.2622e-05,1.7979e+08,135.51,0,2.8568e+08,10.139,12606,618.61,0,618.61,0,0.0005821,8.7543e-10,0,0.00029236,0.00010902,2.1428e+08,283.25,0,1.0505e+08,43.887,618.61,1
2137,3.51,12073,1,12073,1,4.3744e-05,3.0834e-09,0,0.0005066,-7.9956e-06,-1.0948e+06,983.49,0,1.8716e+08,9.4509,12072,13208,1,13208,1,0.0010212,7.9438e-09,0,0.0010212,0.00017404,3.2908e+08,2498.3,0,3.7741e+08,219.08,13207,12073,1,12073,1,1.0541e-05,2.8315e-09,0,0.00051582,-1.803e-06,3.8461e+06,913.47,0,2.0122e+08,9.9452,12072,10979,1,10979,1,-0.00092788,-8.7131e-10,0,1.0539e-05,-0.00019102,-3.7741e+08,-298.42,0,3.8454e+06,-273.22,10978,11538,1,11538,1,-0.00049473,1.1708e-09,0,0.00027819,-9.6413e-05,-2.0122e+08,372.84,0,1.0903e+08,-47.502,11537,12607,1,12607,1,0.00051584,4.9782e-09,0,0.00078346,9.2839e-05,1.8025e+08,1597.2,0,2.8621e+08,76.551,12606,618.61,0,618.61,0,0.00058381,2.2855e-09,0,0.00029323,0.00010933,2.1478e+08,736.58,0,1.0528e+08,91.641,618.61,1
2137,3.52,12073,1,12073,1,4.4163e-05,1.949e-10,0,0.00050812,-8.0722e-06,-1.0975e+06,69.107,0,1.8761e+08,-15.764,12072,13208,1,13208,1,0.0010244,1.1733e-09,0,0.0010244,0.0001745,3.2965e+08,401.74,0,3.7839e+08,51.489,13207,12073,1,12073,1,1.0863e-05,2.2342e-10,0,0.00051764,-1.86e-06,3.9685e+06,71.557,0,2.0171e+08,-13.898,12072,10979,1,10979,1,-0.00093031,-5.8584e-10,0,1.0859e-05,-0.00019163,-3.7839e+08,-167.51,0,3.9669e+06,-96.853,10978,11538,1,11538,1,-0.00049592,-5.2103e-11,0,0.00027873,-9.6749e-05,-2.0171e+08,-14.597,0,1.0938e+08,-35.641,11537,12607,1,12607,1,0.00051765,4.5726e-10,0,0.00078551,9.3062e-05,1.8071e+08,156.17,0,2.8676e+08,2.7886,12606,618.61,0,618.61,0,0.00058554,3.4999e-10,0,0.00029411,0.00010966,2.1528e+08,113.6,0,1.0551e+08,25.776,618.61,1
2137,3.53,12073,1,12073,1,4.4585e-05,8.9676e-11,0,0.00050962,-8.1493e-06,-1.1003e+06,31.077,0,1.8804e+08,-0.15548,12072,13208,1,13208,1,0.0010277,2.3461e-09,0,0.0010277,0.00017495,3.3022e+08,764.23,0,3.7938e+08,75.565,13207,12073,1,12073,1,1.1186e-05,-2.3974e-11,0,0.00051944,-1.9174e-06,4.0915e+06,-7.5126,0,2.0217e+08,-2.4525,12072,10979,1,10979,1,-0.00093273,-9.4163e-10,0,1.1185e-05,-0.00019224,-3.7938e+08,-295.5,0,4.0909e+06,-139.61,10978,11538,1,11538,1,-0.00049707,-4.2979e-10,0,0.00027925,-9.7083e-05,-2.0217e+08,-132.83,0,1.0973e+08,-15.334,11537,12607,1,12607,1,0.00051945,3.5912e-10,0,0.00078751,9.3278e-05,1.8116e+08,116.57,0,2.8729e+08,11.317,12606,618.61,0,618.61,0,0.00058724,7.2467e-10,0,0.00029497,0.00010998,2.1577e+08,232.73,0,1.0574e+08,27.325,618.61,1
2137,3.54,12073,1,12073,1,4.5007e-05,-1.3614e-09,0,0.00051113,-8.2266e-06,-1.103e+06,-432.52,0,1.8848e+08,-11.729,12072,13208,1,13208,1,0.001031,3.271e-09,0,0.001031,0.00017541,3.3079e+08,1064.9,0,3.8037e+08,148.21,13207,12073,1,12073,1,1.1511e-05,-1.028e-09,0,0.00052125,-1.9751e-06,4.2148e+06,-318.03,0,2.0264e+08,-21.837,12072,10979,1,10979,1,-0.00093518,-6.2101e-09,0,1.151e-05,-0.00019286,-3.8037e+08,-1973.4,0,4.2145e+06,-252.81,10978,11538,1,11538,1,-0.00049823,-3.2156e-09,0,0.00027977,-9.7422e-05,-2.0264e+08,-1010.7,0,1.1008e+08,-62.826,11537,12607,1,12607,1,0.00052127,2.7876e-10,0,0.0007895,9.3495e-05,1.8162e+08,87.907,0,2.8782e+08,43.311,12606,618.61,0,618.61,0,0.00058896,2.2767e-09,0,0.00029584,0.0001103,2.1626e+08,728.24,0,1.0596e+08,72.227,618.61,1
2137,3.55,12073,1,12073,1,4.5434e-05,1.9274e-09,0,0.00051264,-8.3047e-06,-1.1053e+06,610.75,0,1.8892e+08,-3.4548,12072,13208,1,13208,1,0.0010343,5.1514e-09,0,0.0010343,0.00017587,3.3136e+08,1647.1,0,3.8136e+08,173.46,13207,12073,1,12073,1,1.1842e-05,1.9402e-09,0,0.00052307,-2.0333e-06,4.3405e+06,607.99,0,2.0311e+08,-14.292,12072,10979,1,10979,1,-0.00093761,-7.9857e-10,0,1.1839e-05,-0.00019347,-3.8136e+08,-273.51,0,4.3393e+06,-264.12,10978,11538,1,11538,1,-0.00049938,5.7773e-10,0,0.00028029,-9.7759e-05,-2.0311e+08,175.33,0,1.1043e+08,-50.883,11537,12607,1,12607,1,0.00052308,3.2157e-09,0,0.00079151,9.3713e-05,1.8207e+08,1021.9,0,2.8835e+08,37.074,12606,618.61,0,618.61,0,0.00059068,1.5654e-09,0,0.00029672,0.00011062,2.1675e+08,502.75,0,1.0619e+08,69.744,618.61,1
2137,3.56,12073,1,12073,1,4.5865e-05,1.6487e-09,0,0.00051415,-8.3833e-06,-1.108e+06,530.43,0,1.8936e+08,12.659,12072,13208,1,13208,1,0.0010376,6.8531e-09,0,0.0010376,0.00017632,3.3192e+08,2200.4,0,3.8235e+08,339.03,13207,12073,1,12073,1,1.2175e-05,1.3682e-09,0,0.00052488,-2.0927e-06,4.467e+06,434.39,0,2.0358e+08,-1.3174,12072,10979,1,10979,1,-0.00094005,-1.641e-09,0,1.2171e-05,-0.00019409,-3.8235e+08,-561.91,0,4.4655e+06,-387.62,10978,11538,1,11538,1,-0.00050054,-7.5546e-11,0,0.0002808,-9.8098e-05,-2.0358e+08,-22.498,0,1.1078e+08,-52.07,11537,12607,1,12607,1,0.00052491,2.9726e-09,0,0.00079351,9.393e-05,1.8253e+08,960.13,0,2.8887e+08,64.97,12606,618.61,0,618.61,0,0.00059239,2.0042e-09,0,0.00029759,0.00011094,2.1725e+08,648.46,0,1.0641e+08,102.94,618.61,1
2137,3.57,12073,1,12073,1,4.6297e-05,-4.294e-10,0,0.00051567,-8.4623e-06,-1.1112e+06,-130.32,0,1.898e+08,-11.574,12072,13208,1,13208,1,0.0010409,9.0516e-10,0,0.0010409,0.00017678,3.3248e+08,309.92,0,3.8334e+08,90.456,13207,12073,1,12073,1,1.2508e-05,-3.8988e-10,0,0.00052672,-2.1514e-06,4.5932e+06,-120.13,0,2.0406e+08,-6.3469,12072,10979,1,10979,1,-0.00094247,-1.6774e-09,0,1.2504e-05,-0.0001947,-3.8334e+08,-498.74,0,4.5919e+06,-151.98,10978,11538,1,11538,1,-0.00050171,-9.2762e-10,0,0.00028133,-9.8436e-05,-2.0406e+08,-294.49,0,1.1113e+08,-36.199,11537,12607,1,12607,1,0.00052672,9.7216e-11,0,0.00079554,9.415e-05,1.8298e+08,31.296,0,2.894e+08,14.872,12606,618.61,0,618.61,0,0.00059412,6.1156e-10,0,0.00029847,0.00011126,2.1774e+08,189.86,0,1.0664e+08,37.421,618.61,1
2137,3.58,12073,1,12073,1,4.6734e-05,-2.7177e-10,0,0.00051718,-8.5423e-06,-1.1137e+06,-86.246,0,1.9023e+08,-11.966,12072,13208,1,13208,1,0.0010443,1.1414e-09,0,0.0010443,0.00017723,3.3303e+08,383.91,0,3.8433e+08,78.703,13207,12073,1,12073,1,1.2846e-05,-5.0123e-11,0,0.00052855,-2.2114e-06,4.7214e+06,-15.772,0,2.0453e+08,-10.789,12072,10979,1,10979,1,-0.0009449,-2.1406e-09,0,1.2846e-05,-0.00019532,-3.8433e+08,-678.93,0,4.7212e+06,-199.63,10978,11538,1,11538,1,-0.00050285,-7.967e-10,0,0.00028184,-9.8776e-05,-2.0453e+08,-251.9,0,1.1148e+08,-33.401,11537,12607,1,12607,1,0.00052855,2.9397e-10,0,0.00079754,9.4366e-05,1.8343e+08,89.93,0,2.8993e+08,12.437,12606,618.61,0,618.61,0,0.00059584,7.3689e-10,0,0.00029935,0.00011158,2.1823e+08,234.83,0,1.0687e+08,38.402,618.61,1
2137,3.59,12073,1,12073,1,4.7172e-05,3.248e-09,0,0.00051869,-8.6221e-06,-1.1164e+06,1032.6,0,1.9066e+08,56.353,12072,13208,1,13208,1,0.0010476,1.0281e-08,0,0.0010476,0.00017769,3.3359e+08,3265.2,0,3.8532e+08,396.8,13207,12073,1,12073,1,1.3187e-05,2.9256e-09,0,0.00053036,-2.2717e-06,4.8503e+06,901.62,0,2.0499e+08,45.128,12072,10979,1,10979,1,-0.00094734,-1.4315e-09,0,1.3185e-05,-0.00019594,-3.8532e+08,-490.18,0,4.8498e+06,-416.8,10978,11538,1,11538,1,-0.00050398,4.5951e-10,0,0.00028234,-9.9117e-05,-2.0499e+08,136.22,0,1.1183e+08,-16.26,11537,12607,1,12607,1,0.00053039,5.7305e-09,0,0.00079951,9.4578e-05,1.8389e+08,1807.5,0,2.9043e+08,127.07,12606,618.61,0,618.61,0,0.00059755,3.0543e-09,0,0.00030022,0.0001119,2.1871e+08,979.62,0,1.0709e+08,113.24,618.61,1
2137,3.6,12073,1,12073,1,4.7613e-05,-1.4974e-09,0,0.0005202,-8.7029e-06,-1.1188e+06,-467.08,0,1.911e+08,-57.737,12072,13208,1,13208,1,0.0010509,2.1232e-09,0,0.0010509,0.00017814,3.3414e+08,726.94,0,3.8629e+08,161.95,13207,12073,1,12073,1,1.3533e-05,-1.4899e-09,0,0.0005322,-2.3326e-06,4.9811e+06,-455.62,0,2.0545e+08,-56.732,12072,10979,1,10979,1,-0.00094974,-4.5784e-09,0,1.3527e-05,-0.00019655,-3.8629e+08,-1415.1,0,4.9789e+06,-232.3,10978,11538,1,11538,1,-0.00050513,-2.9149e-09,0,0.00028285,-9.9455e-05,-2.0545e+08,-921.8,0,1.1218e+08,-98.532,11537,12607,1,12607,1,0.00053221,-5.9634e-11,0,0.00080151,9.4794e-05,1.8434e+08,-18.166,0,2.9095e+08,-19.268,12606,618.61,0,618.61,0,0.00059927,1.6751e-09,0,0.0003011,0.00011222,2.192e+08,528.8,0,1.0731e+08,72.462,618.61,1
2137,3.61,12073,1,12073,1,4.8056e-05,2.8728e-09,0,0.00052171,-8.7838e-06,-1.1217e+06,910.65,0,1.9153e+08,31.684,12072,13208,1,13208,1,0.0010542,7.5029e-09,0,0.0010542,0.0001786,3.3468e+08,2388.7,0,3.8728e+08,298.21,13207,12073,1,12073,1,1.3876e-05,2.894e-09,0,0.00053402,-2.3936e-06,5.1109e+06,914.09,0,2.0592e+08,11.898,12072,10979,1,10979,1,-0.00095217,-1.268e-09,0,1.3874e-05,-0.00019718,-3.8728e+08,-434.22,0,5.1102e+06,-326.04,10978,11538,1,11538,1,-0.00050627,7.3008e-10,0,0.00028335,-9.9797e-05,-2.0592e+08,234.88,0,1.1253e+08,-35.17,11537,12607,1,12607,1,0.00053405,4.9085e-09,0,0.0008035,9.5009e-05,1.8479e+08,1565,0,2.9146e+08,84.374,12606,618.61,0,618.61,0,0.00060099,2.3421e-09,0,0.00030197,0.00011254,2.1969e+08,750.44,0,1.0753e+08,99.876,618.61,1
2137,3.62,12073,1,12073,1,4.8502e-05,5.2941e-10,0,0.00052323,-8.8654e-06,-1.1245e+06,176.05,0,1.9196e+08,-2.6849,12072,13208,1,13208,1,0.0010575,4.1202e-09,0,0.0010575,0.00017905,3.3521e+08,1336.4,0,3.8826e+08,133.28,13207,12073,1,12073,1,1.4226e-05,1.9684e-10,0,0.00053587,-2.4555e-06,5.2432e+06,58.254,0,2.0638e+08,-2.9849,12072,10979,1,10979,1,-0.00095456,-1.8653e-09,0,1.4222e-05,-0.00019779,-3.8826e+08,-590.45,0,5.2415e+06,-132.51,10978,11538,1,11538,1,-0.00050742,-4.3587e-10,0,0.00028386,-0.00010014,-2.0638e+08,-131.11,0,1.1289e+08,-34.796,11537,12607,1,12607,1,0.00053588,1.3941e-09,0,0.00080551,9.5225e-05,1.8524e+08,452.92,0,2.9198e+08,27.617,12606,618.61,0,618.61,0,0.00060271,1.3973e-09,0,0.00030285,0.00011287,2.2017e+08,451.65,0,1.0776e+08,43.347,618.61,1
2137,3.63,12073,1,12073,1,4.8952e-05,4.2711e-10,0,0.00052474,-8.9477e-06,-1.1273e+06,139.63,0,1.9239e+08,-3.892,12072,13208,1,13208,1,0.0010609,4.5032e-09,0,0.0010609,0.0001795,3.3575e+08,1468.2,0,3.8924e+08,109.38,13207,12073,1,12073,1,1.4577e-05,7.551e-11,0,0.00053771,-2.5177e-06,5.3756e+06,23.699,0,2.0685e+08,-4.7575,12072,10979,1,10979,1,-0.00095698,-1.7815e-09,0,1.4575e-05,-0.00019841,-3.8924e+08,-563.64,0,5.3747e+06,-165.51,10978,11538,1,11538,1,-0.00050856,-5.662e-10,0,0.00028436,-0.00010048,-2.0685e+08,-178.4,0,1.1324e+08,-30.665,11537,12607,1,12607,1,0.00053772,1.2123e-09,0,0.0008075,9.5439e-05,1.8569e+08,381.96,0,2.9249e+08,28.527,12606,618.61,0,618.61,0,0.00060443,1.4478e-09,0,0.00030373,0.00011319,2.2066e+08,466.77,0,1.0798e+08,43.632,618.61,1
2137,3.64,12073,1,12073,1,4.9406e-05,1.0992e-10,0,0.00052626,-9.0306e-06,-1.1298e+06,37.337,0,1.9282e+08,-10.352,12072,13208,1,13208,1,0.0010642,4.1577e-09,0,0.0010642,0.00017996,3.3629e+08,1342.4,0,3.9022e+08,197.41,13207,12073,1,12073,1,1.4932e-05,-7.5223e-11,0,0.00053956,-2.5807e-06,5.5096e+06,-23.73,0,2.0731e+08,-13.413,12072,10979,1,10979,1,-0.0009594,-3.0769e-09,0,1.493e-05,-0.00019903,-3.9022e+08,-972.97,0,5.5089e+06,-169.52,10978,11538,1,11538,1,-0.0005097,-1.3304e-09,0,0.00028486,-0.00010082,-2.0731e+08,-406.47,0,1.1359e+08,-53.204,11537,12607,1,12607,1,0.00053957,1.4277e-09,0,0.00080949,9.5653e-05,1.8614e+08,442.87,0,2.93e+08,25.683,12606,618.61,0,618.61,0,0.00060616,1.8601e-09,0,0.00030461,0.00011351,2.2114e+08,597.65,0,1.082e+08,62.738,618.61,1
2137,3.65,12073,1,12073,1,4.9863e-05,1.3224e-09,0,0.00052778,-9.1141e-06,-1.1324e+06,420.7,0,1.9325e+08,-2.3784,12072,13208,1,13208,1,0.0010676,5.1423e-09,0,0.0010676,0.00018041,3.3683e+08,1650.5,0,3.9121e+08,201.89,13207,12073,1,12073,1,1.5291e-05,1.3033e-09,0,0.00054141,-2.6442e-06,5.645e+06,402.5,0,2.0777e+08,-6.8168,12072,10979,1,10979,1,-0.00096182,-2.525e-09,0,1.5289e-05,-0.00019966,-3.9121e+08,-864.58,0,5.6441e+06,-243.72,10978,11538,1,11538,1,-0.00051083,-1.4692e-10,0,0.00028535,-0.00010117,-2.0777e+08,-41.059,0,1.1394e+08,-53.755,11537,12607,1,12607,1,0.00054143,2.6493e-09,0,0.00081146,9.5866e-05,1.8659e+08,842.39,0,2.935e+08,40.785,12606,618.61,0,618.61,0,0.00060788,1.6996e-09,0,0.00030549,0.00011383,2.2162e+08,548.46,0,1.0842e+08,70.076,618.61,1
2137,3.66,12073,1,12073,1,5.0323e-05,2.9683e-09,0,0.0005293,-9.1981e-06,-1.1351e+06,946.33,0,1.9368e+08,-2.9728,12072,13208,1,13208,1,0.0010709,8.4805e-09,0,0.0010709,0.00018087,3.3736e+08,2713,0,3.922e+08,210.71,13207,12073,1,12073,1,1.5654e-05,2.7711e-09,0,0.00054326,-2.7082e-06,5.7813e+06,872.53,0,2.0823e+08,-4.8138,12072,10979,1,10979,1,-0.00096425,-7.4098e-10,0,1.565e-05,-0.00020029,-3.922e+08,-253.8,0,5.7799e+06,-229,10978,11538,1,11538,1,-0.00051196,1.2713e-09,0,0.00028584,-0.00010151,-2.0823e+08,397.56,0,1.143e+08,-40.685,11537,12607,1,12607,1,0.00054329,4.5146e-09,0,0.00081345,9.6078e-05,1.8704e+08,1447.7,0,2.94e+08,37.173,12606,618.61,0,618.61,0,0.00060961,2.1525e-09,0,0.00030638,0.00011415,2.2211e+08,698.79,0,1.0864e+08,59.757,618.61,1
2137,3.67,12073,1,12073,1,5.0787e-05,-7.8054e-10,0,0.00053083,-9.283e-06,-1.1378e+06,-237.71,0,1.9411e+08,-31.897,12072,13208,1,13208,1,0.0010743,4.3414e-10,0,0.0010743,0.00018132,3.3789e+08,148.69,0,3.9317e+08,101.97,13207,12073,1,12073,1,1.602e-05,-4.2918e-10,0,0.00054514,-2.7731e-06,5.919e+06,-125.86,0,2.0869e+08,-23.29,12072,10979,1,10979,1,-0.00096664,-3.6979e-09,0,1.6014e-05,-0.00020091,-3.9317e+08,-1119.5,0,5.9169e+06,-130.11,10978,11538,1,11538,1,-0.0005131,-1.2482e-09,0,0.00028634,-0.00010186,-2.0869e+08,-390.76,0,1.1465e+08,-53.912,11537,12607,1,12607,1,0.00054514,-2.2946e-11,0,0.00081546,9.6294e-05,1.8748e+08,-7.65,0,2.945e+08,-7.5486,12606,618.61,0,618.61,0,0.00061135,9.9165e-10,0,0.00030727,0.00011448,2.2259e+08,305.63,0,1.0886e+08,38.008,618.61,1
2137,3.68,12073,1,12073,1,5.1254e-05,1.3271e-10,0,0.00053235,-9.3684e-06,-1.1405e+06,43.652,0,1.9454e+08,14.126,12072,13208,1,13208,1,0.0010776,3.7244e-09,0,0.0010776,0.00018177,3.3841e+08,1185.1,0,3.9415e+08,191.65,13207,12073,1,12073,1,1.6386e-05,-5.8315e-11,0,0.000547,-2.838e-06,6.0567e+06,-16.668,0,2.0915e+08,12.358,12072,10979,1,10979,1,-0.00096906,-1.7307e-09,0,1.6386e-05,-0.00020153,-3.9415e+08,-545.2,0,6.0565e+06,-146.33,10978,11538,1,11538,1,-0.00051423,-7.3932e-10,0,0.00028682,-0.0001022,-2.0915e+08,-228.62,0,1.1501e+08,-32.215,11537,12607,1,12607,1,0.00054701,5.8214e-10,0,0.00081744,9.6506e-05,1.8793e+08,177.06,0,2.95e+08,52.83,12606,618.61,0,618.61,0,0.00061308,1.1999e-09,0,0.00030815,0.0001148,2.2307e+08,379.92,0,1.0908e+08,62.091,618.61,1
2137,3.69,12073,1,12073,1,5.1724e-05,9.733e-10,0,0.00053388,-9.4542e-06,-1.1432e+06,308.25,0,1.9496e+08,-0.0078963,12072,13208,1,13208,1,0.001081,2.0787e-09,0,0.001081,0.00018222,3.3893e+08,653.09,0,3.9513e+08,61.092,13207,12073,1,12073,1,1.6757e-05,1.0649e-09,0,0.00054887,-2.9039e-06,6.196e+06,336.25,0,2.0961e+08,-0.6528,12072,10979,1,10979,1,-0.00097147,-3.9177e-10,0,1.6757e-05,-0.00020216,-3.9513e+08,-134.18,0,6.1958e+06,-97.445,10978,11538,1,11538,1,-0.00051535,4.5696e-10,0,0.00028731,-0.00010255,-2.0961e+08,138.7,0,1.1536e+08,-14.405,11537,12607,1,12607,1,0.00054888,1.5067e-09,0,0.00081941,9.6717e-05,1.8838e+08,484.09,0,2.9549e+08,12.929,12606,618.61,0,618.61,0,0.0006148,6.6249e-10,0,0.00030904,0.00011512,2.2355e+08,211.32,0,1.093e+08,23.958,618.61,1
2137,3.7,12073,1,12073,1,5.2196e-05,2.3209e-09,0,0.00053539,-9.5403e-06,-1.1456e+06,738.41,0,1.9538e+08,34.154,12072,13208,1,13208,1,0.0010844,7.8845e-09,0,0.0010844,0.00018267,3.3945e+08,2497.3,0,3.9611e+08,331.59,13207,12073,1,12073,1,1.7133e-05,2.0244e-09,0,0.00055072,-2.9707e-06,6.3369e+06,639.07,0,2.1006e+08,26.886,12072,10979,1,10979,1,-0.00097387,-1.1261e-09,0,1.713e-05,-0.00020279,-3.9611e+08,-385.69,0,6.3357e+06,-373.32,10978,11538,1,11538,1,-0.00051646,3.1686e-10,0,0.00028778,-0.0001029,-2.1006e+08,94.675,0,1.1571e+08,-20.752,11537,12607,1,12607,1,0.00055075,4.0922e-09,0,0.00082136,9.6925e-05,1.8882e+08,1299.4,0,2.9597e+08,83.322,12606,618.61,0,618.61,0,0.00061652,2.2515e-09,0,0.00030992,0.00011544,2.2402e+08,720.61,0,1.0952e+08,96.748,618.61,1
2137,3.71,12073,1,12073,1,5.2667e-05,1.4623e-09,0,0.00053689,-9.6265e-06,-1.1483e+06,472.64,0,1.958e+08,22.676,12072,13208,1,13208,1,0.0010877,8.8284e-09,0,0.0010877,0.00018312,3.3995e+08,2830.6,0,3.9708e+08,344.44,13207,12073,1,12073,1,1.7509e-05,7.8087e-10,0,0.00055257,-3.0373e-06,6.4778e+06,247.57,0,2.1051e+08,8.2428,12072,10979,1,10979,1,-0.00097625,-2.4021e-09,0,1.7503e-05,-0.00020341,-3.9708e+08,-756.8,0,6.4754e+06,-308.02,10978,11538,1,11538,1,-0.00051757,-4.2284e-10,0,0.00028825,-0.00010324,-2.1051e+08,-122.07,0,1.1606e+08,-37.045,11537,12607,1,12607,1,0.00055261,2.7708e-09,0,0.00082332,9.7134e-05,1.8926e+08,886.57,0,2.9646e+08,67.933,12606,618.61,0,618.61,0,0.00061823,2.408e-09,0,0.00031079,0.00011576,2.2449e+08,774.06,0,1.0973e+08,98.515,618.61,1
2137,3.72,12073,1,12073,1,5.3144e-05,-3.6896e-10,0,0.00053844,-9.7138e-06,-1.1511e+06,-107.98,0,1.9623e+08,-32.088,12072,13208,1,13208,1,0.0010911,8.1587e-10,0,0.0010911,0.00018357,3.4047e+08,279.39,0,3.9806e+08,89.254,13207,12073,1,12073,1,1.7885e-05,-2.2331e-10,0,0.00055448,-3.1039e-06,6.6187e+06,-69.122,0,2.1098e+08,-32.648,12072,10979,1,10979,1,-0.00097866,-1.6444e-09,0,1.788e-05,-0.00020403,-3.9806e+08,-476.46,0,6.6168e+06,-120.05,10978,11538,1,11538,1,-0.00051871,-7.7166e-10,0,0.00028874,-0.00010359,-2.1098e+08,-234.11,0,1.1643e+08,-56.515,11537,12607,1,12607,1,0.00055448,5.7041e-11,0,0.00082534,9.7349e-05,1.8971e+08,18.998,0,2.9696e+08,-10.266,12606,618.61,0,618.61,0,0.00061998,5.3892e-10,0,0.00031169,0.00011609,2.2497e+08,161.32,0,1.0995e+08,32.07,618.61,1
2137,3.73,12073,1,12073,1,5.3626e-05,2.2955e-09,0,0.00053994,-9.8018e-06,-1.1537e+06,728.42,0,1.9664e+08,42.173,12072,13208,1,13208,1,0.0010945,1.2517e-08,0,0.0010945,0.00018402,3.4097e+08,3980.3,0,3.9903e+08,418.67,13207,12073,1,12073,1,1.8269e-05,1.0346e-09,0,0.00055633,-3.1724e-06,6.7622e+06,326.82,0,2.1142e+08,30.825,12072,10979,1,10979,1,-0.00098105,-2.3101e-09,0,1.8267e-05,-0.00020466,-3.9903e+08,-727.05,0,6.7614e+06,-415.93,10978,11538,1,11538,1,-0.0005198,-1.9754e-10,0,0.0002892,-0.00010394,-2.1142e+08,-59,0,1.1677e+08,-27.103,11537,12607,1,12607,1,0.00055636,4.1307e-09,0,0.00082726,9.7553e-05,1.9015e+08,1282.5,0,2.9742e+08,83.306,12606,618.61,0,618.61,0,0.00062169,3.3657e-09,0,0.00031257,0.00011641,2.2544e+08,1073.6,0,1.1016e+08,121.02,618.61,1
2137,3.74,12073,1,12073,1,5.4109e-05,7.984e-10,0,0.00054148,-9.8901e-06,-1.1563e+06,260.64,0,1.9707e+08,-15.24,12072,13208,1,13208,1,0.0010979,4.5751e-09,0,0.0010979,0.00018447,3.4148e+08,1503.7,0,4.0001e+08,136.03,13207,12073,1,12073,1,1.8655e-05,2.4827e-10,0,0.00055823,-3.2406e-06,6.9061e+06,80.045,0,2.1188e+08,-20.429,12072,10979,1,10979,1,-0.00098345,-6.3731e-10,0,1.865e-05,-0.00020529,-4.0001e+08,-167.52,0,6.9042e+06,-173.56,10978,11538,1,11538,1,-0.00052093,-1.5566e-11,0,0.00028968,-0.00010429,-2.1188e+08,-4.5447,0,1.1713e+08,-36.506,11537,12607,1,12607,1,0.00055825,1.2756e-09,0,0.00082927,9.7767e-05,1.906e+08,412.99,0,2.9792e+08,4.0445,12606,618.61,0,618.61,0,0.00062344,1.1657e-09,0,0.00031347,0.00011673,2.2592e+08,382.77,0,1.1038e+08,41.488,618.61,1
2137,3.75,12073,1,12073,1,5.4599e-05,1.9619e-09,0,0.00054301,-9.9797e-06,-1.1589e+06,625.79,0,1.9749e+08,11.661,12072,13208,1,13208,1,0.0011013,9.8318e-09,0,0.0011013,0.00018492,3.4198e+08,3144.3,0,4.0098e+08,399.98,13207,12073,1,12073,1,1.9046e-05,8.8617e-10,0,0.00056012,-3.3106e-06,7.0522e+06,278.62,0,2.1233e+08,2.0855,12072,10979,1,10979,1,-0.00098586,-1.4256e-09,0,1.9042e-05,-0.00020593,-4.0098e+08,-448.23,0,7.0506e+06,-421.11,10978,11538,1,11538,1,-0.00052203,-1.8267e-10,0,0.00029014,-0.00010464,-2.1233e+08,-55.683,0,1.1749e+08,-47.015,11537,12607,1,12607,1,0.00056015,3.6586e-09,0,0.00083122,9.7974e-05,1.9104e+08,1132.7,0,2.9839e+08,58.31,12606,618.61,0,618.61,0,0.00062516,2.7279e-09,0,0.00031435,0.00011706,2.2639e+08,876.19,0,1.106e+08,114.67,618.61,1
2137,3.76,12073,1,12073,1,5.5091e-05,1.0765e-09,0,0.00054455,-1.007e-05,-1.1617e+06,349.14,0,1.9791e+08,-12.151,12072,13208,1,13208,1,0.0011046,2.3997e-09,0,0.0011046,0.00018537,3.4247e+08,821.26,0,4.0196e+08,59.824,13207,12073,1,12073,1,1.9439e-05,1.1893e-09,0,0.00056202,-3.3799e-06,7.1984e+06,368.56,0,2.1278e+08,-8.7966,12072,10979,1,10979,1,-0.00098826,-5.4598e-10,0,1.9433e-05,-0.00020656,-4.0196e+08,-145.23,0,7.1965e+06,-80.832,10978,11538,1,11538,1,-0.00052315,3.4991e-10,0,0.00029062,-0.000105,-2.1278e+08,109.75,0,1.1785e+08,-27.642,11537,12607,1,12607,1,0.00056204,1.8236e-09,0,0.0008332,9.8185e-05,1.9148e+08,590.54,0,2.9887e+08,6.4611,12606,618.61,0,618.61,0,0.00062691,8.413e-10,0,0.00031525,0.00011738,2.2686e+08,275.79,0,1.1082e+08,26.216,618.61,1
2137,3.77,12073,1,12073,1,5.5586e-05,-1.8996e-10,0,0.00054607,-1.016e-05,-1.1645e+06,-52.434,0,1.9833e+08,6.006,12072,13208,1,13208,1,0.001108,3.128e-09,0,0.001108,0.00018582,3.4296e+08,1027.1,0,4.0292e+08,158.4,13207,12073,1,12073,1,1.9834e-05,-8.0304e-11,0,0.00056392,-3.4503e-06,7.3459e+06,-22.982,0,2.1323e+08,3.8093,12072,10979,1,10979,1,-0.00099062,-2.8869e-09,0,1.9831e-05,-0.00020718,-4.0292e+08,-900.43,0,7.3444e+06,-112.33,10978,11538,1,11538,1,-0.00052425,-1.2747e-09,0,0.00029107,-0.00010535,-2.1323e+08,-393.79,0,1.182e+08,-30.641,11537,12607,1,12607,1,0.00056392,6.0922e-10,0,0.00083515,9.8391e-05,1.9192e+08,201.71,0,2.9934e+08,43.161,12606,618.61,0,618.61,0,0.00062863,1.4121e-09,0,0.00031614,0.0001177,2.2733e+08,446.42,0,1.1103e+08,51.752,618.61,1
2137,3.78,12073,1,12073,1,5.6082e-05,1.5684e-09,0,0.00054759,-1.0251e-05,-1.1669e+06,496.46,0,1.9874e+08,14.553,12072,13208,1,13208,1,0.0011114,5.6324e-09,0,0.0011114,0.00018627,3.4345e+08,1786.9,0,4.0389e+08,193.73,13207,12073,1,12073,1,2.0231e-05,1.3444e-09,0,0.0005658,-3.5213e-06,7.4934e+06,419.77,0,2.1367e+08,8.8839,12072,10979,1,10979,1,-0.00099301,-1.1177e-09,0,2.0229e-05,-0.00020782,-4.0389e+08,-382.7,0,7.4928e+06,-239.66,10978,11538,1,11538,1,-0.00052534,8.2353e-11,0,0.00029153,-0.0001057,-2.1367e+08,27.428,0,1.1856e+08,-22.025,11537,12607,1,12607,1,0.00056582,2.849e-09,0,0.0008371,9.8597e-05,1.9236e+08,907.47,0,2.998e+08,50.382,12606,618.61,0,618.61,0,0.00063036,1.6534e-09,0,0.00031703,0.00011803,2.2779e+08,529.94,0,1.1124e+08,62.061,618.61,1
2137,3.79,12073,1,12073,1,5.6582e-05,-5.4649e-10,0,0.00054913,-1.0342e-05,-1.1695e+06,-165.84,0,1.9916e+08,-18.742,12072,13208,1,13208,1,0.0011148,1.1955e-09,0,0.0011148,0.00018671,3.4394e+08,409.33,0,4.0486e+08,60.006,13207,12073,1,12073,1,2.0633e-05,-5.5713e-10,0,0.00056772,-3.5927e-06,7.6426e+06,-173.11,0,2.1412e+08,-19.866,12072,10979,1,10979,1,-0.00099539,-1.6767e-09,0,2.063e-05,-0.00020845,-4.0486e+08,-508.79,0,7.6415e+06,-108.65,10978,11538,1,11538,1,-0.00052645,-1.1421e-09,0,0.00029199,-0.00010605,-2.1412e+08,-354.6,0,1.1875e+08,-35.139,11537,12607,1,12607,1,0.00056772,-1.4373e-12,0,0.00083907,9.8806e-05,1.928e+08,-0.49124,0,3.0028e+08,-6.2403,12606,618.61,0,618.61,0,0.0006321,6.8453e-10,0,0.00031793,0.00011835,2.2826e+08,213.78,0,1.1146e+08,27.013,618.61,1
2137,3.8,12073,1,12073,1,5.7087e-05,1.5669e-09,0,0.00055065,-1.0434e-05,-1.1719e+06,494.86,0,1.9957e+08,2.2166,12072,13208,1,13208,1,0.0011182,5.9172e-09,0,0.0011182,0.00018716,3.4442e+08,1864.2,0,4.0584e+08,150.44,13207,12073,1,12073,1,2.1038e-05,1.2774e-09,0,0.00056962,-3.6651e-06,7.793e+06,398.13,0,2.1457e+08,1.0876,12072,10979,1,10979,1,-0.00099779,-8.7391e-10,0,2.1037e-05,-0.00020909,-4.0584e+08,-299.23,0,7.7926e+06,-205.17,10978,11538,1,11538,1,-0.00052754,1.3094e-10,0,0.00029244,-0.00010641,-2.1457e+08,43.119,0,1.1894e+08,-31.969,11537,12607,1,12607,1,0.00056963,2.819e-09,0,0.00084101,9.901e-05,1.9324e+08,894,0,3.0074e+08,37.275,12606,618.61,0,618.61,0,0.00063383,1.6439e-09,0,0.00031882,0.00011868,2.2873e+08,524.36,0,1.1167e+08,50.659,618.61,1
2137,3.81,12073,1,12073,1,5.7593e-05,1.529e-09,0,0.00055219,-1.0527e-05,-1.1747e+06,488.76,0,1.9999e+08,-3.3635,12072,13208,1,13208,1,0.0011217,3.6573e-09,0,0.0011217,0.00018761,3.449e+08,1205.3,0,4.0681e+08,123.25,13207,12073,1,12073,1,2.1448e-05,1.544e-09,0,0.00057152,-3.7382e-06,7.9447e+06,479.18,0,2.1501e+08,-4.3603,12072,10979,1,10979,1,-0.0010002,-6.2544e-10,0,2.1444e-05,-0.00020972,-4.0681e+08,-197.65,0,7.9432e+06,-114.85,10978,11538,1,11538,1,-0.00052864,5.1692e-10,0,0.00029289,-0.00010676,-2.1501e+08,163.22,0,1.1912e+08,-30.594,11537,12607,1,12607,1,0.00057155,2.553e-09,0,0.00084297,9.9217e-05,1.9368e+08,824.81,0,3.012e+08,22.814,12606,618.61,0,618.61,0,0.00063557,1.1875e-09,0,0.00031972,0.000119,2.2919e+08,386.79,0,1.1188e+08,37.082,618.61,1
2137,3.82,12073,1,12073,1,5.8103e-05,-3.3159e-10,0,0.00055371,-1.062e-05,-1.1775e+06,-95.904,0,2.004e+08,17.757,12072,13208,1,13208,1,0.001125,3.5869e-09,0,0.001125,0.00018805,3.4537e+08,1158.4,0,4.0777e+08,186.19,13207,12073,1,12073,1,2.1859e-05,-2.6316e-10,0,0.00057344,-3.8114e-06,8.0968e+06,-84.457,0,2.1546e+08,11.431,12072,10979,1,10979,1,-0.0010025,-3.0103e-09,0,2.1854e-05,-0.00021035,-4.0777e+08,-932.25,0,8.0951e+06,-134.37,10978,11538,1,11538,1,-0.00052973,-1.5052e-09,0,0.00029333,-0.00010712,-2.1546e+08,-459.92,0,1.193e+08,-24.93,11537,12607,1,12607,1,0.00057345,5.0976e-10,0,0.00084492,9.9422e-05,1.9411e+08,160.93,0,3.0166e+08,57.206,12606,618.61,0,618.61,0,0.0006373,1.4648e-09,0,0.00032061,0.00011932,2.2966e+08,460.58,0,1.1209e+08,61.588,618.61,1
2137,3.83,12073,1,12073,1,5.8615e-05,-3.5636e-10,0,0.00055524,-1.0714e-05,-1.1802e+06,-111.61,0,2.0081e+08,6.0841,12072,13208,1,13208,1,0.0011284,3.0323e-09,0,0.0011284,0.0001885,3.4584e+08,987.38,0,4.0873e+08,144.19,13207,12073,1,12073,1,2.227e-05,-3.4608e-10,0,0.00057535,-3.8854e-06,8.249e+06,-103.7,0,2.159e+08,7.3887,12072,10979,1,10979,1,-0.0010049,-2.5338e-09,0,2.2269e-05,-0.00021099,-4.0873e+08,-801.6,0,8.2487e+06,-134.11,10978,11538,1,11538,1,-0.00053081,-1.2674e-09,0,0.00029378,-0.00010747,-2.159e+08,-399.19,0,1.1948e+08,-29.844,11537,12607,1,12607,1,0.00057536,3.2467e-10,0,0.00084685,9.9626e-05,1.9454e+08,99.686,0,3.0211e+08,45.808,12606,618.61,0,618.61,0,0.00063903,1.1372e-09,0,0.0003215,0.00011965,2.3012e+08,362.96,0,1.123e+08,53.784,618.61,1
2137,3.84,12073,1,12073,1,5.9131e-05,2.083e-09,0,0.00055678,-1.0808e-05,-1.1824e+06,653.46,0,2.0122e+08,-10.981,12072,13208,1,13208,1,0.0011319,5.1047e-09,0,0.0011319,0.00018895,3.4632e+08,1612.2,0,4.097e+08,177.43,13207,12073,1,12073,1,2.2688e-05,2.1878e-09,0,0.00057727,-3.9603e-06,8.4032e+06,657.87,0,2.1634e+08,-10.738,12072,10979,1,10979,1,-0.0010073,-8.0477e-10,0,2.2687e-05,-0.00021163,-4.097e+08,-275.63,0,8.4027e+06,-191.26,10978,11538,1,11538,1,-0.00053189,6.5045e-10,0,0.00029422,-0.00010783,-2.1634e+08,200.45,0,1.1966e+08,-54.658,11537,12607,1,12607,1,0.00057729,3.5e-09,0,0.0008488,9.983e-05,1.9498e+08,1100.2,0,3.0256e+08,25.461,12606,618.61,0,618.61,0,0.00064077,1.6058e-09,0,0.0003224,0.00011997,2.3058e+08,510.66,0,1.1251e+08,67.91,618.61,1
2137,3.85,12073,1,12073,1,5.9652e-05,-7.0108e-12,0,0.00055831,-1.0903e-05,-1.1849e+06,5.8374,0,2.0163e+08,-16.392,12072,13208,1,13208,1,0.0011353,2.4995e-09,0,0.0011353,0.00018939,3.4678e+08,814.52,0,4.1066e+08,144.71,13207,12073,1,12073,1,2.3112e-05,5.8732e-11,0,0.0005792,-4.0362e-06,8.5596e+06,19.293,0,2.1678e+08,-21.226,12072,10979,1,10979,1,-0.0010096,-2.737e-09,0,2.3108e-05,-0.00021226,-4.1066e+08,-846.29,0,8.5581e+06,-142.05,10978,11538,1,11538,1,-0.00053298,-9.1274e-10,0,0.00029466,-0.00010819,-2.1678e+08,-284.41,0,1.1984e+08,-51.817,11537,12607,1,12607,1,0.00057921,9.9628e-10,0,0.00085075,0.00010003,1.9542e+08,315.58,0,3.0302e+08,16.355,12606,618.61,0,618.61,0,0.00064251,1.3145e-09,0,0.0003233,0.00012029,2.3104e+08,416.02,0,1.1272e+08,50.632,618.61,1
2137,3.86,12073,1,12073,1,6.0176e-05,-1.4435e-09,0,0.00055986,-1.0999e-05,-1.1878e+06,-450.36,0,2.0204e+08,-0.42927,12072,13208,1,13208,1,0.0011388,5.7183e-10,0,0.0011388,0.00018984,3.4725e+08,195.85,0,4.1164e+08,94.249,13207,12073,1,12073,1,2.3535e-05,-1.3487e-09,0,0.00058114,-4.1119e-06,8.7153e+06,-424.57,0,2.1722e+08,-1.1528,12072,10979,1,10979,1,-0.001012,-3.8353e-09,0,2.3533e-05,-0.00021291,-4.1164e+08,-1203.9,0,8.7148e+06,-95.04,10978,11538,1,11538,1,-0.00053407,-2.4157e-09,0,0.0002951,-0.00010855,-2.1722e+08,-752.52,0,1.2002e+08,-23.717,11537,12607,1,12607,1,0.00058115,-4.5521e-10,0,0.0008527,0.00010024,1.9586e+08,-140.86,0,3.0347e+08,20.829,12606,618.61,0,618.61,0,0.00064426,1.1552e-09,0,0.00032421,0.00012062,2.315e+08,365.03,0,1.1293e+08,34.88,618.61,1
2137,3.87,12073,1,12073,1,6.0705e-05,2.653e-09,0,0.00056138,-1.1096e-05,-1.1902e+06,828.67,0,2.0245e+08,-15.642,12072,13208,1,13208,1,0.0011422,6.6639e-09,0,0.0011422,0.00019028,3.477e+08,2083.7,0,4.126e+08,225.59,13207,12073,1,12073,1,2.3965e-05,2.8121e-09,0,0.00058306,-4.1895e-06,8.8736e+06,868.36,0,2.1765e+08,-16.126,12072,10979,1,10979,1,-0.0010144,-1.1782e-09,0,2.3963e-05,-0.00021355,-4.126e+08,-403.53,0,8.8729e+06,-230.26,10978,11538,1,11538,1,-0.00053513,8.4572e-10,0,0.00029552,-0.0001089,-2.1765e+08,255.54,0,1.2019e+08,-69.2,11537,12607,1,12607,1,0.00058309,4.5068e-09,0,0.00085461,0.00010044,1.9629e+08,1413.9,0,3.039e+08,36.008,12606,618.61,0,618.61,0,0.00064599,2.0959e-09,0,0.0003251,0.00012094,2.3196e+08,662.92,0,1.1314e+08,88.153,618.61,1
2137,3.88,12073,1,12073,1,6.1234e-05,-3.5207e-11,0,0.00056293,-1.1193e-05,-1.193e+06,-1.0218,0,2.0286e+08,6.4838,12072,13208,1,13208,1,0.0011456,2.7243e-09,0,0.0011456,0.00019073,3.4816e+08,879.1,0,4.1355e+08,104.58,13207,12073,1,12073,1,2.4397e-05,-6.1155e-11,0,0.00058501,-4.2667e-06,9.0323e+06,-19.078,0,2.181e+08,0.5422,12072,10979,1,10979,1,-0.0010168,-1.9162e-09,0,2.4392e-05,-0.00021418,-4.1355e+08,-580.05,0,9.0302e+06,-114.93,10978,11538,1,11538,1,-0.00053623,-8.3863e-10,0,0.00029596,-0.00010926,-2.181e+08,-247.25,0,1.2037e+08,-20.66,11537,12607,1,12607,1,0.00058502,5.3894e-10,0,0.00085658,0.00010065,1.9672e+08,177.45,0,3.0435e+08,32.322,12606,618.61,0,618.61,0,0.00064774,1.0559e-09,0,0.00032601,0.00012127,2.3242e+08,332.33,0,1.1335e+08,37.172,618.61,1
2137,3.89,12073,1,12073,1,6.1769e-05,-5.1812e-12,0,0.00056446,-1.129e-05,-1.1954e+06,1.0241,0,2.0326e+08,-1.6897,12072,13208,1,13208,1,0.0011491,2.6751e-09,0,0.0011491,0.00019117,3.486e+08,855.76,0,4.1452e+08,73.409,13207,12073,1,12073,1,2.4832e-05,-1.8239e-11,0,0.00058695,-4.345e-06,9.1918e+06,-6.236,0,2.1853e+08,-2.7521,12072,10979,1,10979,1,-0.0010191,-1.668e-09,0,2.483e-05,-0.00021482,-4.1452e+08,-520.3,0,9.191e+06,-96.389,10978,11538,1,11538,1,-0.00053729,-6.513e-10,0,0.00029638,-0.00010962,-2.1853e+08,-204,0,1.2054e+08,-23.382,11537,12607,1,12607,1,0.00058696,4.1327e-10,0,0.00085851,0.00010085,1.9715e+08,126.55,0,3.0479e+08,21.743,12606,618.61,0,618.61,0,0.00064948,8.8383e-10,0,0.00032691,0.0001216,2.3287e+08,280.54,0,1.1355e+08,33.32,618.61,1
2137,3.9,12073,1,12073,1,6.2306e-05,2.1713e-09,0,0.000566,-1.1389e-05,-1.198e+06,681.31,0,2.0367e+08,-3.2544,12072,13208,1,13208,1,0.0011526,6.3801e-09,0,0.0011526,0.00019162,3.4906e+08,1989.2,0,4.1548e+08,215.65,13207,12073,1,12073,1,2.5269e-05,1.9805e-09,0,0.00058889,-4.4238e-06,9.3521e+06,606.97,0,2.1896e+08,-0.94171,12072,10979,1,10979,1,-0.0010215,-8.0158e-10,0,2.5268e-05,-0.00021547,-4.1548e+08,-274.53,0,9.3515e+06,-218.84,10978,11538,1,11538,1,-0.00053835,4.6909e-10,0,0.0002968,-0.00010999,-2.1896e+08,140.12,0,1.2071e+08,-48.488,11537,12607,1,12607,1,0.00058891,3.8475e-09,0,0.00086042,0.00010105,1.9758e+08,1210.1,0,3.0522e+08,46.324,12606,618.61,0,618.61,0,0.00065122,1.9042e-09,0,0.00032782,0.00012192,2.3332e+08,606.64,0,1.1376e+08,66.751,618.61,1
2137,3.91,12073,1,12073,1,6.2847e-05,5.2613e-10,0,0.00056755,-1.1487e-05,-1.2006e+06,173.81,0,2.0407e+08,-13.243,12072,13208,1,13208,1,0.001156,1.7752e-09,0,0.001156,0.00019206,3.495e+08,594.75,0,4.1644e+08,60.719,13207,12073,1,12073,1,2.5712e-05,3.5923e-10,0,0.00059085,-4.5035e-06,9.5142e+06,118.56,0,2.194e+08,-12.226,12072,10979,1,10979,1,-0.0010239,-2.3963e-10,0,2.5707e-05,-0.00021611,-4.1644e+08,-61.508,0,9.5124e+06,-100.63,10978,11538,1,11538,1,-0.00053944,7.3579e-11,0,0.00029723,-0.00011035,-2.194e+08,21.068,0,1.2089e+08,-29.022,11537,12607,1,12607,1,0.00059087,9.3439e-10,0,0.00086238,0.00010125,1.9801e+08,302.48,0,3.0566e+08,3.8418,12606,618.61,0,618.61,0,0.00065297,5.5849e-10,0,0.00032873,0.00012225,2.3378e+08,185.27,0,1.1397e+08,24.704,618.61,1
2137,3.92,12073,1,12073,1,6.3392e-05,6.8787e-10,0,0.00056908,-1.1587e-05,-1.203e+06,220.7,0,2.0447e+08,-11.44,12072,13208,1,13208,1,0.0011595,2.9425e-09,0,0.0011595,0.0001925,3.4993e+08,931,0,4.1739e+08,104.2,13207,12073,1,12073,1,2.6157e-05,3.9316e-10,0,0.0005928,-4.5839e-06,9.677e+06,125.81,0,2.1983e+08,-12.612,12072,10979,1,10979,1,-0.0010262,-9.1988e-10,0,2.6154e-05,-0.00021675,-4.1739e+08,-275.17,0,9.6758e+06,-107.62,10978,11538,1,11538,1,-0.00054049,1.0494e-11,0,0.00029764,-0.00011071,-2.1983e+08,3.0801,0,1.2105e+08,-38.349,11537,12607,1,12607,1,0.00059281,1.2852e-09,0,0.00086429,0.00010145,1.9844e+08,407.52,0,3.0609e+08,10.968,12606,618.61,0,618.61,0,0.0006547,8.5965e-10,0,0.00032963,0.00012257,2.3423e+08,276.23,0,1.1417e+08,36.502,618.61,1
2137,3.93,12073,1,12073,1,6.3937e-05,-1.5228e-09,0,0.00057061,-1.1687e-05,-1.2055e+06,-471.49,0,2.0487e+08,15.146,12072,13208,1,13208,1,0.0011629,3.9475e-09,0,0.0011629,0.00019294,3.5037e+08,1253,0,4.1835e+08,240.06,13207,12073,1,12073,1,2.6603e-05,-1.2074e-09,0,0.00059474,-4.6645e-06,9.8398e+06,-358.49,0,2.2026e+08,0.029849,12072,10979,1,10979,1,-0.0010286,-6.7556e-09,0,2.6601e-05,-0.0002174,-4.1835e+08,-2102.6,0,9.8389e+06,-166.28,10978,11538,1,11538,1,-0.00054154,-3.6877e-09,0,0.00029805,-0.00011107,-2.2026e+08,-1146.3,0,1.2122e+08,-52.331,11537,12607,1,12607,1,0.00059476,3.9783e-10,0,0.00086618,0.00010165,1.9887e+08,120.13,0,3.0651e+08,76.976,12606,618.61,0,618.61,0,0.00065643,2.5908e-09,0,0.00033053,0.00012289,2.3467e+08,811.2,0,1.1438e+08,87.084,618.61,1
2137,3.94,12073,1,12073,1,6.4487e-05,4.9599e-10,0,0.00057217,-1.1787e-05,-1.2081e+06,149.54,0,2.0528e+08,-15.989,12072,13208,1,13208,1,0.0011664,3.6184e-09,0,0.0011664,0.00019338,3.5081e+08,1133.3,0,4.1931e+08,108.27,13207,12073,1,12073,1,2.7054e-05,2.9146e-10,0,0.00059672,-4.7459e-06,1.0004e+07,81.594,0,2.207e+08,-12.276,12072,10979,1,10979,1,-0.0010309,-2.1062e-09,0,2.705e-05,-0.00021804,-4.1931e+08,-675.04,0,1.0003e+07,-150.93,10978,11538,1,11538,1,-0.00054262,-3.9831e-10,0,0.00029847,-0.00011144,-2.207e+08,-131.64,0,1.2139e+08,-46.119,11537,12607,1,12607,1,0.00059673,1.5041e-09,0,0.00086814,0.00010185,1.993e+08,450.09,0,3.0695e+08,16.835,12606,618.61,0,618.61,0,0.0006582,1.3465e-09,0,0.00033145,0.00012322,2.3513e+08,430.38,0,1.1459e+08,45.863,618.61,1
2137,3.95,12073,1,12073,1,6.5043e-05,-8.1601e-10,0,0.0005737,-1.1889e-05,-1.2111e+06,-256.55,0,2.0567e+08,16.179,12072,13208,1,13208,1,0.0011699,4.9039e-09,0,0.0011699,0.00019383,3.5123e+08,1552.2,0,4.2027e+08,237.26,13207,12073,1,12073,1,2.751e-05,-9.0923e-10,0,0.00059868,-4.8285e-06,1.017e+07,-264.2,0,2.2112e+08,22.331,12072,10979,1,10979,1,-0.0010333,-4.3432e-09,0,2.7508e-05,-0.00021869,-4.2027e+08,-1369.2,0,1.0169e+07,-178.81,10978,11538,1,11538,1,-0.00054366,-2.3423e-09,0,0.00029887,-0.0001118,-2.2112e+08,-720.65,0,1.2155e+08,-41.739,11537,12607,1,12607,1,0.0005987,3.7273e-10,0,0.00087004,0.00010205,1.9973e+08,114.26,0,3.0736e+08,63.803,12606,618.61,0,618.61,0,0.00065994,1.9469e-09,0,0.00033235,0.00012355,2.3558e+08,616.24,0,1.1479e+08,81.78,618.61,1
2137,3.96,12073,1,12073,1,6.5601e-05,3.0686e-09,0,0.00057525,-1.1991e-05,-1.213e+06,953.25,0,2.0607e+08,-41.022,12072,13208,1,13208,1,0.0011734,6.5064e-09,0,0.0011734,0.00019427,3.5167e+08,1991.8,0,4.2122e+08,132.64,13207,12073,1,12073,1,2.797e-05,3.2292e-09,0,0.00060065,-4.9117e-06,1.0337e+07,977.78,0,2.2155e+08,-41.139,12072,10979,1,10979,1,-0.0010356,-7.0935e-10,0,2.7967e-05,-0.00021934,-4.2122e+08,-242.95,0,1.0336e+07,-235.97,10978,11538,1,11538,1,-0.00054471,1.5451e-09,0,0.00029927,-0.00011217,-2.2155e+08,458.54,0,1.2172e+08,-93.425,11537,12607,1,12607,1,0.00060067,4.7281e-09,0,0.00087195,0.00010224,2.0015e+08,1472.4,0,3.0777e+08,7.9659,12606,618.61,0,618.61,0,0.00066168,1.9377e-09,0,0.00033326,0.00012387,2.3602e+08,612.15,0,1.1499e+08,73.723,618.61,1
2137,3.97,12073,1,12073,1,6.6161e-05,-1.7943e-09,0,0.00057679,-1.2093e-05,-1.216e+06,-550.12,0,2.0647e+08,20.462,12072,13208,1,13208,1,0.0011768,2.6421e-09,0,0.0011768,0.00019471,3.5209e+08,888.23,0,4.2218e+08,234.65,13207,12073,1,12073,1,2.8431e-05,-1.5435e-09,0,0.00060262,-4.9951e-06,1.0505e+07,-482.67,0,2.2197e+08,10.859,12072,10979,1,10979,1,-0.001038,-6.2703e-09,0,2.8427e-05,-0.00021998,-4.2218e+08,-1947.1,0,1.0503e+07,-154.61,10978,11538,1,11538,1,-0.00054576,-3.7175e-09,0,0.00029968,-0.00011253,-2.2197e+08,-1145.6,0,1.2188e+08,-43.339,11537,12607,1,12607,1,0.00060263,1.0104e-10,0,0.00087387,0.00010244,2.0058e+08,29.976,0,3.0819e+08,78.85,12606,618.61,0,618.61,0,0.00066342,2.2445e-09,0,0.00033417,0.0001242,2.3647e+08,698.81,0,1.1519e+08,84.425,618.61,1
2137,3.98,12073,1,12073,1,6.6727e-05,3.8646e-10,0,0.00057835,-1.2197e-05,-1.2182e+06,115.45,0,2.0687e+08,-42.334,12072,13208,1,13208,1,0.0011803,1.4794e-09,0,0.0011803,0.00019515,3.5251e+08,452.31,0,4.2313e+08,91.395,13207,12073,1,12073,1,2.8897e-05,3.5422e-10,0,0.00060461,-5.0796e-06,1.0674e+07,107.77,0,2.2241e+08,-41.464,12072,10979,1,10979,1,-0.0010403,-6.8653e-10,0,2.8894e-05,-0.00022063,-4.2313e+08,-199.92,0,1.0673e+07,-204.75,10978,11538,1,11538,1,-0.00054682,-5.9319e-11,0,0.00030009,-0.0001129,-2.2241e+08,-19.275,0,1.2205e+08,-88.537,11537,12607,1,12607,1,0.00060462,8.3036e-10,0,0.00087581,0.00010264,2.01e+08,250.11,0,3.0861e+08,5.3883,12606,618.61,0,618.61,0,0.00066519,5.4703e-10,0,0.00033509,0.00012453,2.3692e+08,166.08,0,1.154e+08,59.83,618.61,1
2137,3.99,12073,1,12073,1,6.7296e-05,-1.3029e-09,0,0.00057988,-1.2301e-05,-1.2208e+06,-406.15,0,2.0726e+08,19.632,12072,13208,1,13208,1,0.0011838,5.4954e-09,0,0.0011838,0.00019559,3.5292e+08,1721.3,0,4.2408e+08,265.22,13207,12073,1,12073,1,2.9366e-05,-1.1229e-09,0,0.00060658,-5.165e-06,1.0844e+07,-347.6,0,2.2282e+08,21.152,12072,10979,1,10979,1,-0.0010426,-6.6967e-09,0,2.9365e-05,-0.00022128,-4.2408e+08,-2090.1,0,1.0843e+07,-230.24,10978,11538,1,11538,1,-0.00054785,-3.5409e-09,0,0.00030047,-0.00011327,-2.2282e+08,-1093.6,0,1.222e+08,-51.932,11537,12607,1,12607,1,0.0006066,5.8381e-10,0,0.00087768,0.00010283,2.0143e+08,166.86,0,3.0901e+08,81.927,12606,618.61,0,618.61,0,0.00066692,2.7017e-09,0,0.000336,0.00012485,2.3736e+08,844.78,0,1.156e+08,101.31,618.61,1
2137,4,12073,1,12073,1,6.7867e-05,-1.9688e-09,0,0.00058144,-1.2405e-05,-1.2237e+06,-621.95,0,2.0766e+08,4.6079,12072,13208,1,13208,1,0.0011874,1.1256e-09,0,0.0011874,0.00019603,3.5334e+08,329.09,0,4.2504e+08,184.73,13207,12073,1,12073,1,2.9838e-05,-1.8747e-09,0,0.00060857,-5.2504e-06,1.1015e+07,-579.77,0,2.2325e+08,15.481,12072,10979,1,10979,1,-0.001045,-4.953e-09,0,2.9834e-05,-0.00022194,-4.2504e+08,-1589.2,0,1.1013e+07,-216.75,10978,11538,1,11538,1,-0.0005489,-3.4189e-09,0,0.00030087,-0.00011364,-2.2325e+08,-1078.4,0,1.2237e+08,-52.317,11537,12607,1,12607,1,0.0006086,-6.0159e-10,0,0.00087961,0.00010303,2.0185e+08,-172.28,0,3.0943e+08,69.197,12606,618.61,0,618.61,0,0.00066869,1.6362e-09,0,0.00033692,0.00012518,2.3781e+08,526.49,0,1.158e+08,84.38,618.61,1
2137,4.01,12073,1,12073,1,6.8444e-05,-1.6073e-09,0,0.00058299,-1.2511e-05,-1.2262e+06,-513.36,0,2.0805e+08,22.372,12072,13208,1,13208,1,0.0011909,1.6747e-09,0,0.0011909,0.00019647,3.5374e+08,524.73,0,4.2599e+08,196.99,13207,12073,1,12073,1,3.0318e-05,-1.5041e-09,0,0.00061056,-5.3375e-06,1.1188e+07,-462.18,0,2.2367e+08,33.674,12072,10979,1,10979,1,-0.0010473,-4.9885e-09,0,3.031e-05,-0.00022259,-4.2599e+08,-1593.5,0,1.1185e+07,-200.34,10978,11538,1,11538,1,-0.00054994,-3.1046e-09,0,0.00030126,-0.00011401,-2.2367e+08,-982.87,0,1.2252e+08,-31.316,11537,12607,1,12607,1,0.0006106,-5.1778e-11,0,0.00088151,0.00010323,2.0227e+08,-17.051,0,3.0983e+08,82.064,12606,618.61,0,618.61,0,0.00067043,1.7609e-09,0,0.00033784,0.0001255,2.3824e+08,565.14,0,1.16e+08,79.906,618.61,1
2137,4.02,12073,1,12073,1,6.9026e-05,1.2936e-09,0,0.00058454,-1.2617e-05,-1.2282e+06,389.19,0,2.0845e+08,-34.31,12072,13208,1,13208,1,0.0011944,3.523e-09,0,0.0011944,0.0001969,3.5415e+08,1040.4,0,4.2694e+08,99.586,13207,12073,1,12073,1,3.0799e-05,1.2704e-09,0,0.00061258,-5.4251e-06,1.1362e+07,370.47,0,2.241e+08,-31.733,12072,10979,1,10979,1,-0.0010497,-4.5746e-10,0,3.0792e-05,-0.00022324,-4.2694e+08,-156.67,0,1.1359e+07,-178.78,10978,11538,1,11538,1,-0.00055098,3.844e-10,0,0.00030165,-0.00011438,-2.241e+08,123.39,0,1.2268e+08,-82.785,11537,12607,1,12607,1,0.00061258,2.1202e-09,0,0.00088343,0.00010342,2.027e+08,639.12,0,3.1024e+08,15.274,12606,618.61,0,618.61,0,0.00067219,1.0443e-09,0,0.00033876,0.00012583,2.3869e+08,314.52,0,1.162e+08,59.617,618.61,1
2137,4.03,12073,1,12073,1,6.961e-05,7.2626e-12,0,0.00058609,-1.2724e-05,-1.2309e+06,2.1575,0,2.0884e+08,-1.1926,12072,13208,1,13208,1,0.0011979,1.9007e-09,0,0.0011979,0.00019734,3.5454e+08,598.13,0,4.2788e+08,113.34,13207,12073,1,12073,1,3.128e-05,1.6082e-10,0,0.00061458,-5.5128e-06,1.1535e+07,45.873,0,2.2452e+08,-1.625,12072,10979,1,10979,1,-0.001052,-1.5947e-09,0,3.1279e-05,-0.00022389,-4.2788e+08,-493.43,0,1.1535e+07,-178.25,10978,11538,1,11538,1,-0.00055202,-4.3437e-10,0,0.00030203,-0.00011475,-2.2452e+08,-132.94,0,1.2284e+08,-22.894,11537,12607,1,12607,1,0.00061458,4.1683e-10,0,0.00088533,0.00010362,2.0311e+08,128.09,0,3.1064e+08,21.089,12606,618.61,0,618.61,0,0.00067394,6.8692e-10,0,0.00033968,0.00012616,2.3913e+08,214.36,0,1.164e+08,36.912,618.61,1
2137,4.04,12073,1,12073,1,7.0197e-05,-3.0734e-10,0,0.00058765,-1.2831e-05,-1.2335e+06,-97.678,0,2.0923e+08,2.0363,12072,13208,1,13208,1,0.0012014,1.2345e-09,0,0.0012014,0.00019778,3.5494e+08,397.19,0,4.2883e+08,139.03,13207,12073,1,12073,1,3.1768e-05,-3.1625e-10,0,0.00061658,-5.6016e-06,1.171e+07,-95.658,0,2.2494e+08,1.4579,12072,10979,1,10979,1,-0.0010543,-1.2839e-09,0,3.1766e-05,-0.00022455,-4.2883e+08,-404.2,0,1.171e+07,-140.18,10978,11538,1,11538,1,-0.00055305,-8.4298e-10,0,0.00030241,-0.00011512,-2.2494e+08,-263.08,0,1.2299e+08,-23.787,11537,12607,1,12607,1,0.00061659,1.7948e-10,0,0.00088723,0.00010381,2.0354e+08,53.125,0,3.1103e+08,29.655,12606,618.61,0,618.61,0,0.0006757,5.7498e-10,0,0.0003406,0.00012649,2.3956e+08,180.65,0,1.166e+08,41.963,618.61,1
2137,4.05,12073,1,12073,1,7.0789e-05,-4.7499e-10,0,0.0005892,-1.294e-05,-1.2358e+06,-150.95,0,2.0962e+08,1.421,12072,13208,1,13208,1,0.001205,1.8512e-09,0,0.001205,0.00019822,3.5534e+08,575.15,0,4.2978e+08,114.44,13207,12073,1,12073,1,3.226e-05,-3.6404e-10,0,0.00061859,-5.6914e-06,1.1887e+07,-115.97,0,2.2536e+08,3.2835,12072,10979,1,10979,1,-0.0010567,-2.5612e-09,0,3.2258e-05,-0.00022521,-4.2978e+08,-806.58,0,1.1887e+07,-123.69,10978,11538,1,11538,1,-0.00055408,-1.3638e-09,0,0.00030279,-0.00011549,-2.2536e+08,-423.67,0,1.2315e+08,-33.837,11537,12607,1,12607,1,0.00061861,2.5818e-10,0,0.00088912,0.00010401,2.0396e+08,77.789,0,3.1143e+08,34.547,12606,618.61,0,618.61,0,0.00067746,1.0503e-09,0,0.00034152,0.00012681,2.4e+08,328.81,0,1.168e+08,44.485,618.61,1
2137,4.06,12073,1,12073,1,7.1382e-05,3.2926e-09,0,0.00059074,-1.3048e-05,-1.2385e+06,1019.3,0,2.1e+08,8.7578,12072,13208,1,13208,1,0.0012085,1.1351e-08,0,0.0012085,0.00019866,3.5573e+08,3512.4,0,4.3073e+08,312.96,13207,12073,1,12073,1,3.2754e-05,2.6011e-09,0,0.00062059,-5.7817e-06,1.2065e+07,815.01,0,2.2577e+08,7.0619,12072,10979,1,10979,1,-0.001059,-1.643e-09,0,3.2751e-05,-0.00022586,-4.3073e+08,-562.52,0,1.2064e+07,-302.61,10978,11538,1,11538,1,-0.00055508,2.9709e-10,0,0.00030315,-0.00011587,-2.2577e+08,91.069,0,1.2329e+08,-61.392,11537,12607,1,12607,1,0.00062062,5.984e-09,0,0.00089098,0.0001042,2.0438e+08,1842.4,0,3.118e+08,80.998,12606,618.61,0,618.61,0,0.00067919,3.3507e-09,0,0.00034244,0.00012714,2.4043e+08,1051,0,1.17e+08,108.06,618.61,1
2137,4.07,12073,1,12073,1,7.1978e-05,-6.6723e-10,0,0.00059231,-1.3157e-05,-1.241e+06,-192.64,0,2.1039e+08,-6.2128,12072,13208,1,13208,1,0.001212,1.2434e-09,0,0.001212,0.00019909,3.5612e+08,425.71,0,4.3168e+08,69.747,13207,12073,1,12073,1,3.3253e-05,-6.4392e-10,0,0.00062262,-5.8725e-06,1.2244e+07,-188.77,0,2.2619e+08,-6.8671,12072,10979,1,10979,1,-0.0010613,-2.6005e-09,0,3.3246e-05,-0.00022652,-4.3168e+08,-797.55,0,1.2241e+07,-108.26,10978,11538,1,11538,1,-0.00055613,-1.4469e-09,0,0.00030354,-0.00011624,-2.2619e+08,-425.58,0,1.2345e+08,-27.397,11537,12607,1,12607,1,0.00062263,1.9308e-10,0,0.00089291,0.00010439,2.0479e+08,64.53,0,3.122e+08,16.267,12606,618.61,0,618.61,0,0.00068097,9.6549e-10,0,0.00034337,0.00012747,2.4087e+08,296.57,0,1.172e+08,31.178,618.61,1
2137,4.08,12073,1,12073,1,7.2583e-05,1.5227e-09,0,0.00059387,-1.3268e-05,-1.2436e+06,474.93,0,2.1078e+08,-31.442,12072,13208,1,13208,1,0.0012156,3.3571e-09,0,0.0012156,0.00019953,3.565e+08,1050.2,0,4.3263e+08,153.29,13207,12073,1,12073,1,3.3754e-05,1.6729e-09,0,0.00062464,-5.9644e-06,1.2423e+07,511,0,2.266e+08,-18.019,12072,10979,1,10979,1,-0.0010637,-8.1797e-10,0,3.3752e-05,-0.00022718,-4.3263e+08,-280.15,0,1.2422e+07,-204.83,10978,11538,1,11538,1,-0.00055714,6.4256e-10,0,0.0003039,-0.00011662,-2.266e+08,182.75,0,1.236e+08,-74.572,11537,12607,1,12607,1,0.00062467,2.4717e-09,0,0.00089479,0.00010458,2.0521e+08,771.25,0,3.1258e+08,18.13,12606,618.61,0,618.61,0,0.00068273,1.1116e-09,0,0.00034429,0.0001278,2.413e+08,352.98,0,1.174e+08,68.475,618.61,1
2137,4.09,12073,1,12073,1,7.319e-05,-3.201e-10,0,0.00059543,-1.3379e-05,-1.2461e+06,-89.875,0,2.1116e+08,17.12,12072,13208,1,13208,1,0.0012191,2.5025e-09,0,0.0012191,0.00019997,3.5688e+08,791.99,0,4.3357e+08,165.4,13207,12073,1,12073,1,3.4262e-05,-2.4726e-10,0,0.00062669,-6.0568e-06,1.2605e+07,-72.197,0,2.2702e+08,10.533,12072,10979,1,10979,1,-0.001066,-2.238e-09,0,3.4257e-05,-0.00022784,-4.3357e+08,-670.59,0,1.2603e+07,-90.054,10978,11538,1,11538,1,-0.00055817,-1.1657e-09,0,0.00030427,-0.00011699,-2.2702e+08,-354.62,0,1.2375e+08,-18.393,11537,12607,1,12607,1,0.00062669,2.9537e-10,0,0.00089669,0.00010478,2.0563e+08,93.625,0,3.1297e+08,46.875,12606,618.61,0,618.61,0,0.00068449,1.081e-09,0,0.00034522,0.00012813,2.4174e+08,331.38,0,1.1759e+08,52.293,618.61,1
2137,4.1,12073,1,12073,1,7.3801e-05,9.9968e-10,0,0.00059699,-1.349e-05,-1.2486e+06,312.32,0,2.1155e+08,-0.41684,12072,13208,1,13208,1,0.0012227,2.6347e-09,0,0.0012227,0.0002004,3.5725e+08,819.3,0,4.3451e+08,140.69,13207,12073,1,12073,1,3.4771e-05,1.012e-09,0,0.00062871,-6.1502e-06,1.2787e+07,311.65,0,2.2743e+08,0.8695,12072,10979,1,10979,1,-0.0010683,-6.1376e-10,0,3.4769e-05,-0.0002285,-4.3451e+08,-210.21,0,1.2786e+07,-144.68,10978,11538,1,11538,1,-0.00055917,2.3038e-10,0,0.00030463,-0.00011737,-2.2743e+08,69.662,0,1.2389e+08,-33.143,11537,12607,1,12607,1,0.00062873,1.7507e-09,0,0.00089857,0.00010497,2.0604e+08,546.82,0,3.1335e+08,31.271,12606,618.61,0,618.61,0,0.00068625,8.7767e-10,0,0.00034615,0.00012845,2.4217e+08,277.16,0,1.1779e+08,56.862,618.61,1
2137,4.11,12073,1,12073,1,7.4412e-05,-3.1767e-10,0,0.00059853,-1.3602e-05,-1.2508e+06,-91.147,0,2.1192e+08,30.845,12072,13208,1,13208,1,0.0012262,7.0221e-09,0,0.0012262,0.00020083,3.5761e+08,2173.3,0,4.3544e+08,229.52,13207,12073,1,12073,1,3.5285e-05,-1.64e-10,0,0.00063073,-6.2438e-06,1.297e+07,-49.327,0,2.2783e+08,10.383,12072,10979,1,10979,1,-0.0010706,-5.2958e-09,0,3.5282e-05,-0.00022916,-4.3544e+08,-1626.6,0,1.2969e+07,-143.11,10978,11538,1,11538,1,-0.00056016,-2.4382e-09,0,0.00030497,-0.00011774,-2.2783e+08,-731.67,0,1.2403e+08,-32.376,11537,12607,1,12607,1,0.00063074,1.0612e-09,0,0.00090042,0.00010515,2.0645e+08,334.33,0,3.1371e+08,95.468,12606,618.61,0,618.61,0,0.00068798,2.7275e-09,0,0.00034707,0.00012878,2.4259e+08,841.4,0,1.1798e+08,86.45,618.61,1
2137,4.12,12073,1,12073,1,7.5025e-05,2.383e-09,0,0.00060009,-1.3714e-05,-1.253e+06,736.61,0,2.123e+08,3.5139,12072,13208,1,13208,1,0.0012298,1.0277e-08,0,0.0012298,0.00020127,3.5798e+08,3210.2,0,4.3639e+08,326.35,13207,12073,1,12073,1,3.5797e-05,1.6969e-09,0,0.00063276,-6.3378e-06,1.3153e+07,510.12,0,2.2824e+08,10.382,12072,10979,1,10979,1,-0.0010729,-1.144e-09,0,3.5795e-05,-0.00022982,-4.3639e+08,-363.47,0,1.3152e+07,-295.96,10978,11538,1,11538,1,-0.00056117,2.7922e-10,0,0.00030533,-0.00011812,-2.2824e+08,82.149,0,1.2418e+08,-79.218,11537,12607,1,12607,1,0.00063279,3.9976e-09,0,0.00090229,0.00010534,2.0687e+08,1242.4,0,3.1408e+08,87.574,12606,618.61,0,618.61,0,0.00068974,2.5439e-09,0,0.000348,0.0001291,2.4302e+08,803.22,0,1.1818e+08,114.26,618.61,1
2137,4.13,12073,1,12073,1,7.5643e-05,2.6555e-09,0,0.00060165,-1.3827e-05,-1.256e+06,832.94,0,2.1268e+08,-1.9076,12072,13208,1,13208,1,0.0012334,7.8579e-09,0,0.0012334,0.0002017,3.5835e+08,2486,0,4.3733e+08,259.41,13207,12073,1,12073,1,3.6319e-05,2.6571e-09,0,0.0006348,-6.4331e-06,1.3338e+07,796.37,0,2.2865e+08,-0.45804,12072,10979,1,10979,1,-0.0010752,-1.0251e-09,0,3.6311e-05,-0.00023049,-4.3733e+08,-319.38,0,1.3336e+07,-237.81,10978,11538,1,11538,1,-0.00056218,8.7619e-10,0,0.00030568,-0.0001185,-2.2865e+08,276.3,0,1.2432e+08,-70.084,11537,12607,1,12607,1,0.00063484,4.2735e-09,0,0.00090417,0.00010553,2.0728e+08,1340.7,0,3.1445e+08,72.588,12606,618.61,0,618.61,0,0.00069151,2.1181e-09,0,0.00034893,0.00012943,2.4345e+08,682.93,0,1.1837e+08,100.24,618.61,1
2137,4.14,12073,1,12073,1,7.627e-05,-8.6655e-10,0,0.00060322,-1.3942e-05,-1.2584e+06,-248.33,0,2.1307e+08,-9.3015,12072,13208,1,13208,1,0.0012369,1.2598e-09,0,0.0012369,0.00020214,3.5871e+08,431.3,0,4.3827e+08,83.771,13207,12073,1,12073,1,3.6845e-05,-8.6758e-10,0,0.00063687,-6.5296e-06,1.3525e+07,-249.87,0,2.2906e+08,-6.6122,12072,10979,1,10979,1,-0.0010775,-2.73e-09,0,3.6836e-05,-0.00023115,-4.3827e+08,-807.31,0,1.3522e+07,-114.17,10978,11538,1,11538,1,-0.00056319,-1.7629e-09,0,0.00030603,-0.00011888,-2.2907e+08,-506.38,0,1.2446e+08,-34.582,11537,12607,1,12607,1,0.00063689,5.4624e-11,0,0.00090607,0.00010573,2.0769e+08,18.022,0,3.1483e+08,19.347,12606,618.61,0,618.61,0,0.00069328,1.021e-09,0,0.00034987,0.00012976,2.4388e+08,303.65,0,1.1857e+08,34.953,618.61,1
2137,4.15,12073,1,12073,1,7.6901e-05,1.1903e-09,0,0.00060478,-1.4057e-05,-1.2605e+06,371,0,2.1344e+08,10.901,12072,13208,1,13208,1,0.0012405,7.1792e-09,0,0.0012405,0.00020257,3.5906e+08,2240.3,0,4.392e+08,273.83,13207,12073,1,12073,1,3.7372e-05,5.4346e-10,0,0.00063892,-6.6261e-06,1.3712e+07,164.7,0,2.2947e+08,3.2805,12072,10979,1,10979,1,-0.0010798,-3.3837e-10,0,3.737e-05,-0.00023181,-4.392e+08,-100.65,0,1.3712e+07,-197.73,10978,11538,1,11538,1,-0.00056418,2.4833e-10,0,0.00030637,-0.00011926,-2.2947e+08,76.781,0,1.246e+08,-29.857,11537,12607,1,12607,1,0.00063893,1.4798e-09,0,0.00090793,0.00010591,2.081e+08,455.86,0,3.1519e+08,44.43,12606,618.61,0,618.61,0,0.00069504,1.5375e-09,0,0.0003508,0.00013009,2.4429e+08,484.01,0,1.1876e+08,65.797,618.61,1
2137,4.16,12073,1,12073,1,7.7532e-05,-3.8979e-10,0,0.00060636,-1.4173e-05,-1.2634e+06,-113.45,0,2.1382e+08,5.018,12072,13208,1,13208,1,0.0012441,2.1245e-09,0,0.0012441,0.000203,3.5942e+08,681.65,0,4.4014e+08,85.961,13207,12073,1,12073,1,3.7903e-05,-2.251e-10,0,0.00064099,-6.7237e-06,1.3901e+07,-59.008,0,2.2988e+08,6.2558,12072,10979,1,10979,1,-0.0010821,-2.7017e-09,0,3.79e-05,-0.00023248,-4.4014e+08,-828.14,0,1.39e+07,-93.921,10978,11538,1,11538,1,-0.00056519,-1.196e-09,0,0.00030672,-0.00011965,-2.2988e+08,-365.77,0,1.2474e+08,-15.936,11537,12607,1,12607,1,0.000641,3.1555e-10,0,0.00090982,0.0001061,2.0851e+08,99.733,0,3.1555e+08,26.194,12606,618.61,0,618.61,0,0.00069681,1.1379e-09,0,0.00035174,0.00013042,2.4472e+08,355.49,0,1.1895e+08,34.388,618.61,1
2137,4.17,12073,1,12073,1,7.8171e-05,7.1333e-10,0,0.00060792,-1.429e-05,-1.2658e+06,221.32,0,2.142e+08,15.438,12072,13208,1,13208,1,0.0012477,4.9511e-09,0,0.0012477,0.00020344,3.5976e+08,1544.1,0,4.4108e+08,163.66,13207,12073,1,12073,1,3.8441e-05,2.4873e-10,0,0.00064306,-6.822e-06,1.4091e+07,71.198,0,2.3028e+08,13.516,12072,10979,1,10979,1,-0.0010844,-1.1746e-09,0,3.8439e-05,-0.00023315,-4.4108e+08,-360.35,0,1.4091e+07,-99.815,10978,11538,1,11538,1,-0.00056618,-1.662e-10,0,0.00030706,-0.00012003,-2.3028e+08,-50.752,0,1.2488e+08,-12.267,11537,12607,1,12607,1,0.00064307,1.365e-09,0,0.00091168,0.00010629,2.0892e+08,424.56,0,3.1591e+08,38.769,12606,618.61,0,618.61,0,0.00069858,1.327e-09,0,0.00035268,0.00013075,2.4515e+08,417.46,0,1.1915e+08,42.675,618.61,1
2137,4.18,12073,1,12073,1,7.881e-05,-1.823e-09,0,0.00060948,-1.4406e-05,-1.2688e+06,-558.02,0,2.1457e+08,43.933,12072,13208,1,13208,1,0.0012513,3.5226e-09,0,0.0012513,0.00020387,3.6011e+08,1111.3,0,4.4202e+08,298.01,13207,12073,1,12073,1,3.8979e-05,-1.5789e-09,0,0.00064512,-6.921e-06,1.4282e+07,-487.33,0,2.3068e+08,44.33,12072,10979,1,10979,1,-0.0010868,-7.1756e-09,0,3.8978e-05,-0.00023382,-4.4202e+08,-2211.7,0,1.4281e+07,-192.57,10978,11538,1,11538,1,-0.00056716,-3.9503e-09,0,0.00030738,-0.00012041,-2.3068e+08,-1209,0,1.2501e+08,-20.265,11537,12607,1,12607,1,0.00064514,2.5321e-10,0,0.00091352,0.00010647,2.0933e+08,74.796,0,3.1625e+08,98.338,12606,618.61,0,618.61,0,0.00070034,2.5305e-09,0,0.00035362,0.00013108,2.4556e+08,785.23,0,1.1934e+08,92.157,618.61,1
2137,4.19,12073,1,12073,1,7.9452e-05,2.9863e-10,0,0.00061103,-1.4524e-05,-1.2704e+06,81.874,0,2.1493e+08,7.1197,12072,13208,1,13208,1,0.0012549,9.8846e-09,0,0.0012549,0.00020429,3.6044e+08,3063.1,0,4.4293e+08,324.35,13207,12073,1,12073,1,3.9525e-05,-3.6457e-11,0,0.00064717,-7.0208e-06,1.4474e+07,-11.065,0,2.3107e+08,15.871,12072,10979,1,10979,1,-0.001089,-5.3433e-09,0,3.9519e-05,-0.00023448,-4.4293e+08,-1649.9,0,1.4472e+07,-265.51,10978,11538,1,11538,1,-0.00056813,-2.01e-09,0,0.00030771,-0.00012079,-2.3107e+08,-625.73,0,1.2514e+08,-60.782,11537,12607,1,12607,1,0.00064719,1.9518e-09,0,0.00091536,0.00010666,2.0973e+08,580.28,0,3.166e+08,74.759,12606,618.61,0,618.61,0,0.00070208,3.2668e-09,0,0.00035455,0.00013141,2.4597e+08,1021.8,0,1.1952e+08,94.162,618.61,1
2137,4.2,12073,1,12073,1,8.0098e-05,-1.2642e-09,0,0.00061263,-1.4642e-05,-1.273e+06,-393.68,0,2.1532e+08,-33.2,12072,13208,1,13208,1,0.0012585,8.9428e-10,0,0.0012585,0.00020473,3.608e+08,217.04,0,4.4389e+08,194.42,13207,12073,1,12073,1,4.0068e-05,-1.3688e-09,0,0.00064927,-7.1208e-06,1.4666e+07,-405.27,0,2.3148e+08,-27.183,12072,10979,1,10979,1,-0.0010914,-3.3205e-09,0,4.0064e-05,-0.00023516,-4.4389e+08,-1048.3,0,1.4665e+07,-206.92,10978,11538,1,11538,1,-0.00056914,-2.1412e-09,0,0.00030805,-0.00012118,-2.3148e+08,-659.56,0,1.2528e+08,-77.081,11537,12607,1,12607,1,0.0006493,-3.9115e-10,0,0.00091726,0.00010685,2.1015e+08,-114.78,0,3.1697e+08,21.906,12606,618.61,0,618.61,0,0.00070389,1.0669e-09,0,0.00035551,0.00013174,2.4641e+08,336.75,0,1.1972e+08,67.179,618.61,1
2137,4.21,12073,1,12073,1,8.0757e-05,1.66e-09,0,0.0006142,-1.4763e-05,-1.2756e+06,501.88,0,2.1569e+08,12.068,12072,13208,1,13208,1,0.0012621,3.9366e-09,0,0.0012621,0.00020516,3.6113e+08,1204.4,0,4.4482e+08,205.43,13207,12073,1,12073,1,4.0625e-05,1.7178e-09,0,0.00065137,-7.2231e-06,1.4863e+07,527.72,0,2.3188e+08,7.7685,12072,10979,1,10979,1,-0.0010936,-6.7904e-10,0,4.0621e-05,-0.00023583,-4.4482e+08,-232.56,0,1.4861e+07,-139.43,10978,11538,1,11538,1,-0.00057012,5.3903e-10,0,0.00030837,-0.00012157,-2.3188e+08,161.84,0,1.2541e+08,-34.883,11537,12607,1,12607,1,0.00065138,2.7937e-09,0,0.00091912,0.00010703,2.1055e+08,845.65,0,3.173e+08,49.882,12606,618.61,0,618.61,0,0.00070566,1.2606e-09,0,0.00035645,0.00013207,2.4682e+08,384.1,0,1.1991e+08,70.639,618.61,1
2137,4.22,12073,1,12073,1,8.1417e-05,1.2509e-09,0,0.00061578,-1.4883e-05,-1.2779e+06,389.01,0,2.1606e+08,-9.218,12072,13208,1,13208,1,0.0012658,3.0789e-09,0,0.0012658,0.00020559,3.6145e+08,943.05,0,4.4576e+08,142.81,13207,12073,1,12073,1,4.1183e-05,1.3897e-09,0,0.00065346,-7.3257e-06,1.5059e+07,428.2,0,2.3228e+08,-1.6108,12072,10979,1,10979,1,-0.0010959,-7.7653e-10,0,4.118e-05,-0.00023651,-4.4576e+08,-265.95,0,1.5058e+07,-163.54,10978,11538,1,11538,1,-0.0005711,5.3243e-10,0,0.00030869,-0.00012196,-2.3228e+08,152.74,0,1.2554e+08,-46.592,11537,12607,1,12607,1,0.00065348,1.9327e-09,0,0.00092097,0.00010722,2.1096e+08,608.24,0,3.1765e+08,35.505,12606,618.61,0,618.61,0,0.00070744,9.0742e-10,0,0.0003574,0.0001324,2.4724e+08,285.7,0,1.201e+08,60.669,618.61,1
2137,4.23,12073,1,12073,1,8.2077e-05,2.1694e-09,0,0.00061734,-1.5004e-05,-1.2804e+06,678.33,0,2.1642e+08,27.065,12072,13208,1,13208,1,0.0012694,6.7857e-09,0,0.0012694,0.00020602,3.6177e+08,2130.7,0,4.4669e+08,336.19,13207,12073,1,12073,1,4.1745e-05,2.0025e-09,0,0.00065553,-7.4287e-06,1.5256e+07,598.75,0,2.3267e+08,20.56,12072,10979,1,10979,1,-0.0010982,-2.2181e-09,0,4.1738e-05,-0.00023718,-4.4669e+08,-634.56,0,1.5254e+07,-230.35,10978,11538,1,11538,1,-0.00057206,-4.3781e-11,0,0.000309,-0.00012235,-2.3267e+08,-12.828,0,1.2567e+08,-38.168,11537,12607,1,12607,1,0.00065557,4.29e-09,0,0.00092279,0.0001074,2.1136e+08,1331.9,0,3.1798e+08,91.939,12606,618.61,0,618.61,0,0.00070919,2.3663e-09,0,0.00035834,0.00013273,2.4765e+08,740.81,0,1.2029e+08,96.39,618.61,1
2137,4.24,12073,1,12073,1,8.2736e-05,9.7831e-10,0,0.0006189,-1.5124e-05,-1.2828e+06,320.1,0,2.1679e+08,37.437,12072,13208,1,13208,1,0.001273,8.6763e-09,0,0.001273,0.00020645,3.6208e+08,2701.7,0,4.476e+08,278.69,13207,12073,1,12073,1,4.2306e-05,2.5781e-10,0,0.00065762,-7.5316e-06,1.5454e+07,80.503,0,2.3306e+08,28.408,12072,10979,1,10979,1,-0.0011005,-3.6602e-09,0,4.2297e-05,-0.00023784,-4.476e+08,-1083.8,0,1.545e+07,-124.03,10978,11538,1,11538,1,-0.00057302,-9.042e-10,0,0.00030931,-0.00012273,-2.3306e+08,-260.94,0,1.258e+08,-20.152,11537,12607,1,12607,1,0.00065765,2.6369e-09,0,0.00092463,0.00010758,2.1175e+08,812.54,0,3.1831e+08,73.975,12606,618.61,0,618.61,0,0.00071095,2.7142e-09,0,0.00035928,0.00013306,2.4805e+08,843.5,0,1.2047e+08,75.625,618.61,1
2137,4.25,12073,1,12073,1,8.3401e-05,1.3489e-09,0,0.00062048,-1.5246e-05,-1.2849e+06,428.86,0,2.1716e+08,4.5476,12072,13208,1,13208,1,0.0012766,8.1361e-09,0,0.0012766,0.00020688,3.6241e+08,2554.7,0,4.4854e+08,268.3,13207,12073,1,12073,1,4.287e-05,4.8141e-10,0,0.00065972,-7.6356e-06,1.5652e+07,147.56,0,2.3346e+08,4.2315,12072,10979,1,10979,1,-0.0011028,-2.8658e-09,0,4.2863e-05,-0.00023852,-4.4854e+08,-874.59,0,1.5649e+07,-278.58,10978,11538,1,11538,1,-0.000574,-5.6168e-10,0,0.00030963,-0.00012312,-2.3346e+08,-160.06,0,1.2592e+08,-45.161,11537,12607,1,12607,1,0.00065975,3.2114e-09,0,0.00092649,0.00010776,2.1216e+08,984.24,0,3.1865e+08,57.267,12606,618.61,0,618.61,0,0.00071273,2.5625e-09,0,0.00036023,0.00013339,2.4847e+08,808.98,0,1.2067e+08,90.789,618.61,1
2137,4.26,12073,1,12073,1,8.4074e-05,-1.29e-09,0,0.00062205,-1.5369e-05,-1.2876e+06,-380.81,0,2.1752e+08,6.0195,12072,13208,1,13208,1,0.0012803,4.0537e-09,0,0.0012803,0.00020731,3.6273e+08,1322,0,4.4946e+08,192.16,13207,12073,1,12073,1,4.3441e-05,-1.1316e-09,0,0.00066184,-7.7404e-06,1.5852e+07,-330.58,0,2.3385e+08,-0.73226,12072,10979,1,10979,1,-0.0011051,-5.8365e-09,0,4.3435e-05,-0.0002392,-4.4946e+08,-1787.5,0,1.5849e+07,-144.71,10978,11538,1,11538,1,-0.00057496,-3.1214e-09,0,0.00030993,-0.00012351,-2.3385e+08,-942.91,0,1.2605e+08,-52.5,11537,12607,1,12607,1,0.00066185,3.5999e-10,0,0.00092833,0.00010794,2.1256e+08,108.37,0,3.1898e+08,52.725,12606,618.61,0,618.61,0,0.0007145,2.2425e-09,0,0.00036118,0.00013372,2.4888e+08,694.64,0,1.2085e+08,74.139,618.61,1
2137,4.27,12073,1,12073,1,8.4753e-05,9.1487e-10,0,0.00062364,-1.5493e-05,-1.29e+06,278.63,0,2.1789e+08,4.4853,12072,13208,1,13208,1,0.0012839,5.3554e-09,0,0.0012839,0.00020774,3.6304e+08,1679,0,4.5039e+08,164.92,13207,12073,1,12073,1,4.4016e-05,5.1226e-10,0,0.00066396,-7.8462e-06,1.6053e+07,137.24,0,2.3425e+08,8.1621,12072,10979,1,10979,1,-0.0011073,-1.3258e-09,0,4.4013e-05,-0.00023988,-4.5039e+08,-411.23,0,1.6052e+07,-142.39,10978,11538,1,11538,1,-0.00057594,-1.1936e-10,0,0.00031024,-0.0001239,-2.3425e+08,-36.358,0,1.2617e+08,-32.845,11537,12607,1,12607,1,0.00066397,1.713e-09,0,0.00093019,0.00010813,2.1296e+08,520.93,0,3.1931e+08,39.163,12606,618.61,0,618.61,0,0.00071629,1.4712e-09,0,0.00036214,0.00013405,2.4929e+08,467.33,0,1.2104e+08,55.752,618.61,1
2137,4.28,12073,1,12073,1,8.5437e-05,8.174e-10,0,0.00062523,-1.5619e-05,-1.2923e+06,254.01,0,2.1825e+08,-4.0126,12072,13208,1,13208,1,0.0012876,2.8445e-09,0,0.0012876,0.00020816,3.6334e+08,898.52,0,4.5132e+08,229.79,13207,12073,1,12073,1,4.4599e-05,8.7995e-10,0,0.00066568,-7.9536e-06,1.6257e+07,257.53,0,2.3464e+08,-0.12186,12072,10979,1,10979,1,-0.0011096,-1.1211e-09,0,4.4187e-05,-0.00024056,-4.5132e+08,-345.76,0,1.6256e+07,-239.1,10978,11538,1,11538,1,-0.00057689,-1.1724e-11,0,0.00031095,-0.0001243,-2.3464e+08,-3.6257,0,1.2629e+08,-66.366,11537,12607,1,12607,1,0.0006661,1.6214e-09,0,0.00093205,0.00010831,2.1336e+08,501.17,0,3.1963e+08,45.897,12606,618.61,0,618.61,0,0.00071807,9.1985e-10,0,0.0003631,0.00013439,2.497e+08,291.66,0,1.2123e+08,93.636,618.61,1
2137,4.29,12073,1,12073,1,8.6121e-05,-3.6862e-09,0,0.00062679,-1.5744e-05,-1.295e+06,-1119.1,0,2.1861e+08,2.4918,12072,13208,1,13208,1,0.0012913,1.8551e-09,0,0.0012913,0.00020859,3.6364e+08,635.34,0,4.5225e+08,230.3,13207,12073,1,12073,1,4.5181e-05,-3.4614e-09,0,0.00066682,-8.0609e-06,1.646e+07,-997.44,0,2.3501e+08,4.923,12072,10979,1,10979,1,-0.0011119,-1.025e-08,0,4.3819e-05,-0.00024124,-4.5225e+08,-3124.2,0,1.6459e+07,-221.86,10978,11538,1,11538,1,-0.00057782,-6.3362e-09,0,0.00031218,-0.00012469,-2.3501e+08,-1917.2,0,1.2641e+08,-64.57,11537,12607,1,12607,1,0.00066822,-7.0441e-10,0,0.00093388,0.00010848,2.1376e+08,-223.02,0,3.1993e+08,74.465,12606,618.61,0,618.61,0,0.00071983,3.2443e-09,0,0.00036405,0.00013471,2.501e+08,994.04,0,1.2141e+08,92.672,618.61,1
2137,4.3,12073,1,12073,1,8.6807e-05,9.1397e-12,0,0.00062838,-1.5869e-05,-1.2976e+06,-17.32,0,2.1897e+08,14.102,12072,13208,1,13208,1,0.0012949,2.7036e-09,0,0.0012949,0.00020902,3.6394e+08,821.92,0,4.5317e+08,175.27,13207,12073,1,12073,1,4.577e-05,1.7886e-10,0,0.00066802,-8.1685e-06,1.6665e+07,55.388,0,2.3541e+08,11.6,12072,10979,1,10979,1,-0.0011142,-2.4805e-09,0,4.3456e-05,-0.00024192,-4.5317e+08,-819.47,0,1.6662e+07,-105.82,10978,11538,1,11538,1,-0.0005788,-9.1214e-10,0,0.00031343,-0.00012508,-2.3541e+08,-295.96,0,1.2654e+08,-33.811,11537,12607,1,12607,1,0.00067035,8.8573e-10,0,0.00093571,0.00010867,2.1416e+08,229.05,0,3.2027e+08,50.497,12606,618.61,0,618.61,0,0.00072163,1.2163e-09,0,0.00036501,0.00013505,2.5051e+08,377.09,0,1.216e+08,60.516,618.61,1
2137,4.31,12073,1,12073,1,8.7503e-05,2.1165e-09,0,0.00062995,-1.5996e-05,-1.2993e+06,636.9,0,2.1933e+08,33.562,12072,13208,1,13208,1,0.0012986,1.1679e-08,0,0.0012986,0.00020944,3.6423e+08,3571.6,0,4.5409e+08,334.36,13207,12073,1,12073,1,4.6363e-05,1.1783e-09,0,0.00066917,-8.2779e-06,1.6872e+07,348.51,0,2.3579e+08,20.381,12072,10979,1,10979,1,-0.0011164,-2.7822e-09,0,4.3078e-05,-0.00024259,-4.5409e+08,-869.2,0,1.687e+07,-257.94,10978,11538,1,11538,1,-0.00057973,-2.6637e-10,0,0.00031468,-0.00012548,-2.3579e+08,-88.123,0,1.2665e+08,-41.839,11537,12607,1,12607,1,0.00067247,4.0246e-09,0,0.00093753,0.00010884,2.1455e+08,1199.8,0,3.2057e+08,106.23,12606,618.61,0,618.61,0,0.00072339,3.1288e-09,0,0.00036596,0.00013538,2.5091e+08,965.4,0,1.2178e+08,107.34,618.61,1
2137,4.32,12073,1,12073,1,8.8196e-05,1.4262e-09,0,0.00063153,-1.6123e-05,-1.302e+06,444.71,0,2.1968e+08,-5.1067,12072,13208,1,13208,1,0.0013023,7.7527e-09,0,0.0013023,0.00020986,3.6452e+08,2443.6,0,4.55e+08,164.86,13207,12073,1,12073,1,4.6956e-05,6.9034e-10,0,0.00067034,-8.3872e-06,1.7078e+07,199.29,0,2.3617e+08,-2.359,12072,10979,1,10979,1,-0.0011187,-2.2807e-09,0,4.2707e-05,-0.00024328,-4.55e+08,-699.35,0,1.7076e+07,-191.29,10978,11538,1,11538,1,-0.00058068,-1.5301e-10,0,0.00031593,-0.00012587,-2.3617e+08,-45.5,0,1.2676e+08,-46.436,11537,12607,1,12607,1,0.0006746,2.8143e-09,0,0.00093935,0.00010902,2.1494e+08,854.98,0,3.2088e+08,41.9,12606,618.61,0,618.61,0,0.00072517,2.1981e-09,0,0.00036692,0.00013571,2.5131e+08,698.52,0,1.2197e+08,63.704,618.61,1
2137,4.33,12073,1,12073,1,8.89e-05,-7.2287e-11,0,0.00063314,-1.6252e-05,-1.3045e+06,-10.594,0,2.2005e+08,-22.526,12072,13208,1,13208,1,0.001306,1.5443e-09,0,0.001306,0.0002103,3.6481e+08,528.51,0,4.5594e+08,180.11,13207,12073,1,12073,1,4.7557e-05,-4.439e-11,0,0.00067153,-8.498e-06,1.7287e+07,-12.704,0,2.3657e+08,-12.307,12072,10979,1,10979,1,-0.001121,-3.2466e-09,0,4.2329e-05,-0.00024396,-4.5594e+08,-871.25,0,1.7214e+07,-275.31,10978,11538,1,11538,1,-0.00058164,-4.762e-10,0,0.00031721,-0.00012627,-2.3657e+08,-140.53,0,1.2688e+08,-70.958,11537,12607,1,12607,1,0.00067676,5.0457e-10,0,0.00094119,0.0001092,2.1534e+08,161.77,0,3.212e+08,28.12,12606,618.61,0,618.61,0,0.00072697,8.9784e-10,0,0.0003679,0.00013604,2.5172e+08,270.99,0,1.2216e+08,71.732,618.61,1
2137,4.34,12073,1,12073,1,8.9613e-05,-8.129e-10,0,0.00063473,-1.6382e-05,-1.3067e+06,-241.95,0,2.2041e+08,5.581,12072,13208,1,13208,1,0.0013097,3.7746e-10,0,0.0013097,0.00021072,3.651e+08,129.28,0,4.5686e+08,120.51,13207,12073,1,12073,1,4.8166e-05,-7.6187e-10,0,0.00067269,-8.6098e-06,1.7498e+07,-229.9,0,2.3695e+08,-2.6144,12072,10979,1,10979,1,-0.0011232,-2.0463e-09,0,4.1941e-05,-0.00024465,-4.5686e+08,-621.78,0,1.7057e+07,-48.246,10978,11538,1,11538,1,-0.00058258,-1.4273e-09,0,0.00031849,-0.00012667,-2.3695e+08,-422.21,0,1.2699e+08,-13.652,11537,12607,1,12607,1,0.00067892,-2.076e-10,0,0.00094302,0.00010938,2.1574e+08,-65.544,0,3.215e+08,13.144,12606,618.61,0,618.61,0,0.00072877,6.7656e-10,0,0.00036887,0.00013638,2.5212e+08,201.03,0,1.2234e+08,32.964,618.61,1
2137,4.35,12073,1,12073,1,9.0325e-05,3.0548e-09,0,0.0006363,-1.6512e-05,-1.3085e+06,931.04,0,2.2075e+08,65.518,12072,13208,1,13208,1,0.0013134,1.4392e-08,0,0.0013134,0.00021114,3.6537e+08,4376.4,0,4.5777e+08,499.18,13207,12073,1,12073,1,4.8779e-05,1.7011e-09,0,0.00067381,-8.7225e-06,1.7711e+07,511.46,0,2.3732e+08,65.572,12072,10979,1,10979,1,-0.0011255,-3.6216e-09,0,4.1547e-05,-0.00024534,-4.5777e+08,-1087.1,0,1.6898e+07,-300.32,10978,11538,1,11538,1,-0.00058348,-2.5418e-10,0,0.00031975,-0.00012707,-2.3732e+08,-77.04,0,1.271e+08,-28.463,11537,12607,1,12607,1,0.00068107,6.2191e-09,0,0.00094483,0.00010955,2.1613e+08,1871.9,0,3.2179e+08,138.18,12606,618.61,0,618.61,0,0.00073052,4.2705e-09,0,0.00036982,0.00013671,2.5251e+08,1308.8,0,1.2252e+08,135.47,618.61,1
2137,4.36,12073,1,12073,1,9.1036e-05,2.4256e-09,0,0.0006379,-1.6642e-05,-1.3113e+06,758.12,0,2.2111e+08,23.641,12072,13208,1,13208,1,0.0013171,9.013e-09,0,0.0013171,0.00021157,3.6565e+08,2812.1,0,4.5871e+08,337.89,13207,12073,1,12073,1,4.9391e-05,2.0358e-09,0,0.00067499,-8.835e-06,1.7923e+07,607.84,0,2.377e+08,10.851,12072,10979,1,10979,1,-0.0011278,-1.1957e-09,0,4.1159e-05,-0.00024603,-4.5871e+08,-291.74,0,1.6741e+07,-213.14,10978,11538,1,11538,1,-0.00058444,6.2633e-10,0,0.00032102,-0.00012747,-2.377e+08,177.98,0,1.2721e+08,-47.761,11537,12607,1,12607,1,0.00068325,3.9134e-09,0,0.00094667,0.00010973,2.1652e+08,1226.7,0,3.221e+08,94.634,12606,618.61,0,618.61,0,0.00073233,2.2413e-09,0,0.0003708,0.00013704,2.5292e+08,718.17,0,1.2271e+08,111.73,618.61,1
2137,4.37,12073,1,12073,1,9.1761e-05,-1.1682e-09,0,0.0006395,-1.6775e-05,-1.3137e+06,-329.76,0,2.2147e+08,-9.3807,12072,13208,1,13208,1,0.0013208,1.0313e-09,0,0.0013208,0.000212,3.6592e+08,353.06,0,4.5962e+08,168.57,13207,12073,1,12073,1,5.0013e-05,-1.1796e-09,0,0.00067615,-8.9497e-06,1.8138e+07,-344.5,0,2.3809e+08,-13.179,12072,10979,1,10979,1,-0.00113,-3.2779e-09,0,4.0757e-05,-0.00024672,-4.5962e+08,-904.78,0,1.6579e+07,-120.27,10978,11538,1,11538,1,-0.00058538,-2.2229e-09,0,0.00032231,-0.00012787,-2.3809e+08,-636.07,0,1.2732e+08,-36.212,11537,12607,1,12607,1,0.00068541,-5.439e-11,0,0.00094847,0.00010991,2.1691e+08,-18.052,0,3.2239e+08,2.8541,12606,618.61,0,618.61,0,0.00073413,1.212e-09,0,0.00037178,0.00013738,2.5332e+08,349.63,0,1.2289e+08,53.901,618.61,1
2137,4.38,12073,1,12073,1,9.2487e-05,-1.5122e-09,0,0.00064109,-1.6908e-05,-1.3158e+06,-454.8,0,2.2181e+08,-3.4816,12072,13208,1,13208,1,0.0013245,1.5225e-09,0,0.0013245,0.00021242,3.6618e+08,474.75,0,4.6053e+08,186.4,13207,12073,1,12073,1,5.0633e-05,-1.3916e-09,0,0.00067728,-9.0643e-06,1.8352e+07,-385.35,0,2.3846e+08,-3.4679,12072,10979,1,10979,1,-0.0011323,-5.1749e-09,0,4.0357e-05,-0.00024741,-4.6053e+08,-1579.2,0,1.6417e+07,-151.19,10978,11538,1,11538,1,-0.00058629,-2.8348e-09,0,0.0003236,-0.00012828,-2.3846e+08,-858.66,0,1.2743e+08,-58.949,11537,12607,1,12607,1,0.00068758,-2.9459e-11,0,0.00095028,0.00011008,2.173e+08,-6.9867,0,3.2268e+08,42.787,12606,618.61,0,618.61,0,0.00073591,1.6669e-09,0,0.00037274,0.00013771,2.5371e+08,508.95,0,1.2307e+08,71.429,618.61,1
2137,4.39,12073,1,12073,1,9.3214e-05,-1.133e-09,0,0.00064268,-1.7041e-05,-1.3184e+06,-354.63,0,2.2216e+08,-1.5168,12072,13208,1,13208,1,0.0013283,6.7619e-10,0,0.0013283,0.00021284,3.6644e+08,198.39,0,4.6145e+08,145.08,13207,12073,1,12073,1,5.1261e-05,-1.0143e-09,0,0.00067843,-9.1795e-06,1.8568e+07,-301.2,0,2.3884e+08,-1.2597,12072,10979,1,10979,1,-0.0011345,-3.4004e-09,0,3.9953e-05,-0.0002481,-4.6145e+08,-1058.2,0,1.6254e+07,-130.14,10978,11538,1,11538,1,-0.00058722,-2.0071e-09,0,0.00032489,-0.00012868,-2.3884e+08,-624.83,0,1.2753e+08,-31.897,11537,12607,1,12607,1,0.00068976,-1.7023e-10,0,0.00095209,0.00011026,2.1769e+08,-52.636,0,3.2297e+08,29.006,12606,618.61,0,618.61,0,0.0007377,1.0935e-09,0,0.00037372,0.00013804,2.541e+08,347.03,0,1.2325e+08,47.632,618.61,1
2137,4.4,12073,1,12073,1,9.3946e-05,6.2356e-10,0,0.00064426,-1.7175e-05,-1.3205e+06,177.07,0,2.2251e+08,35.328,12072,13208,1,13208,1,0.001332,7.8915e-09,0,0.001332,0.00021326,3.6669e+08,2383.8,0,4.6235e+08,252.64,13207,12073,1,12073,1,5.1891e-05,1.8497e-10,0,0.00067956,-9.2954e-06,1.8786e+07,54.102,0,2.3921e+08,34.729,12072,10979,1,10979,1,-0.0011367,-3.5842e-09,0,3.9541e-05,-0.00024879,-4.6235e+08,-1070.3,0,1.6088e+07,-167.56,10978,11538,1,11538,1,-0.00058813,-1.1994e-09,0,0.00032618,-0.00012908,-2.3921e+08,-368.05,0,1.2763e+08,-23.262,11537,12607,1,12607,1,0.00069192,2.0226e-09,0,0.00095387,0.00011043,2.1807e+08,581.07,0,3.2325e+08,92.195,12606,618.61,0,618.61,0,0.00073948,2.5575e-09,0,0.00037469,0.00013837,2.5449e+08,776.98,0,1.2343e+08,80.511,618.61,1
2137,4.41,12073,1,12073,1,9.468e-05,-5.4724e-10,0,0.00064587,-1.7309e-05,-1.3231e+06,-169.76,0,2.2286e+08,8.9459,12072,13208,1,13208,1,0.0013357,3.3567e-09,0,0.0013357,0.00021368,3.6695e+08,1035.9,0,4.6327e+08,127.87,13207,12073,1,12073,1,5.2523e-05,-1.828e-10,0,0.00068071,-9.4119e-06,1.9003e+07,-55.874,0,2.3958e+08,14.006,12072,10979,1,10979,1,-0.001139,-4.165e-09,0,3.9132e-05,-0.00024948,-4.6327e+08,-1294.2,0,1.5923e+07,-118.21,10978,11538,1,11538,1,-0.00058905,-1.8385e-09,0,0.00032748,-0.00012949,-2.3958e+08,-554.96,0,1.2774e+08,-36.804,11537,12607,1,12607,1,0.00069411,5.023e-10,0,0.00095569,0.0001106,2.1846e+08,150.06,0,3.2353e+08,53.439,12606,618.61,0,618.61,0,0.00074128,1.6673e-09,0,0.00037567,0.00013871,2.5488e+08,519.21,0,1.2361e+08,58.874,618.61,1
2137,4.42,12073,1,12073,1,9.542e-05,-1.6745e-09,0,0.00064745,-1.7444e-05,-1.3256e+06,-516.17,0,2.232e+08,28.266,12072,13208,1,13208,1,0.0013394,2.219e-09,0,0.0013394,0.0002141,3.672e+08,701.15,0,4.6418e+08,170.69,13207,12073,1,12073,1,5.3163e-05,-1.1175e-09,0,0.00068183,-9.5296e-06,1.9223e+07,-325.8,0,2.3995e+08,38.003,12072,10979,1,10979,1,-0.0011412,-6.6484e-09,0,3.8713e-05,-0.00025017,-4.6418e+08,-2060.7,0,1.5754e+07,-167.77,10978,11538,1,11538,1,-0.00058995,-3.6277e-09,0,0.00032878,-0.00012989,-2.3995e+08,-1109.9,0,1.2784e+08,-21.863,11537,12607,1,12607,1,0.0006963,1.8181e-10,0,0.00095748,0.00011077,2.1884e+08,55.411,0,3.238e+08,82.924,12606,618.61,0,618.61,0,0.00074306,2.3499e-09,0,0.00037664,0.00013904,2.5527e+08,732.81,0,1.2379e+08,71.884,618.61,1
2137,4.43,12073,1,12073,1,9.6165e-05,5.0255e-10,0,0.00064906,-1.7581e-05,-1.3278e+06,136.22,0,2.2355e+08,8.5472,12072,13208,1,13208,1,0.0013432,2.4013e-09,0,0.0013432,0.00021453,3.6745e+08,719.65,0,4.6509e+08,172.23,13207,12073,1,12073,1,5.3805e-05,5.5037e-10,0,0.00068298,-9.6479e-06,1.9444e+07,147.13,0,2.4033e+08,6.43,12072,10979,1,10979,1,-0.0011435,-1.8189e-09,0,3.8293e-05,-0.00025087,-4.6509e+08,-564.4,0,1.5585e+07,-138.3,10978,11538,1,11538,1,-0.00059088,-2.845e-10,0,0.00033009,-0.0001303,-2.4033e+08,-88.892,0,1.2794e+08,-26.57,11537,12607,1,12607,1,0.0006985,1.3936e-09,0,0.00095928,0.00011095,2.1923e+08,396.88,0,3.2409e+08,35.873,12606,618.61,0,618.61,0,0.00074487,1.0537e-09,0,0.00037763,0.00013938,2.5566e+08,322.86,0,1.2397e+08,55.453,618.61,1
2137,4.44,12073,1,12073,1,9.6921e-05,-5.1576e-10,0,0.00065067,-1.7719e-05,-1.33e+06,-160.96,0,2.2389e+08,-7.6481,12072,13208,1,13208,1,0.001347,3.1692e-09,0,0.001347,0.00021495,3.6769e+08,942.42,0,4.6601e+08,203.8,13207,12073,1,12073,1,5.4457e-05,-4.948e-10,0,0.00068411,-9.7683e-06,1.9667e+07,-143.67,0,2.4069e+08,-14.638,12072,10979,1,10979,1,-0.0011457,-2.9901e-09,0,3.7865e-05,-0.00025157,-4.6601e+08,-926.85,0,1.5413e+07,-165.41,10978,11538,1,11538,1,-0.00059179,-1.5153e-09,0,0.00033141,-0.00013071,-2.4069e+08,-460.99,0,1.2804e+08,-45.754,11537,12607,1,12607,1,0.00070072,4.5941e-10,0,0.00096109,0.00011112,2.1962e+08,123.24,0,3.2436e+08,20.257,12606,618.61,0,618.61,0,0.00074667,1.2594e-09,0,0.00037862,0.00013971,2.5605e+08,388.25,0,1.2415e+08,54.815,618.61,1
2137,4.45,12073,1,12073,1,9.768e-05,3.921e-10,0,0.00065228,-1.7858e-05,-1.3324e+06,108.44,0,2.2424e+08,14.956,12072,13208,1,13208,1,0.0013507,3.0947e-09,0,0.0013507,0.00021537,3.6793e+08,923.83,0,4.6692e+08,193.43,13207,12073,1,12073,1,5.5113e-05,2.0506e-10,0,0.00068524,-9.889e-06,1.9892e+07,55.711,0,2.4106e+08,8.8513,12072,10979,1,10979,1,-0.001148,-9.8265e-10,0,3.7432e-05,-0.00025227,-4.6692e+08,-336.27,0,1.5238e+07,-123.96,10978,11538,1,11538,1,-0.0005927,-3.012e-10,0,0.00033274,-0.00013112,-2.4106e+08,-97.147,0,1.2813e+08,-19.966,11537,12607,1,12607,1,0.00070293,9.007e-10,0,0.00096288,0.00011129,2.2e+08,263.54,0,3.2463e+08,45.817,12606,618.61,0,618.61,0,0.00074848,9.3071e-10,0,0.00037961,0.00014005,2.5644e+08,282.48,0,1.2433e+08,53.678,618.61,1
2137,4.46,12073,1,12073,1,9.8442e-05,2.0647e-09,0,0.00065387,-1.7997e-05,-1.3345e+06,621.76,0,2.2457e+08,15.411,12072,13208,1,13208,1,0.0013545,4.5915e-09,0,0.0013545,0.00021579,3.6816e+08,1381,0,4.6783e+08,241.69,13207,12073,1,12073,1,5.5771e-05,2.235e-09,0,0.00068634,-1.001e-05,2.0117e+07,662.07,0,2.4142e+08,7.1396,12072,10979,1,10979,1,-0.0011502,-7.6168e-10,0,3.6994e-05,-0.00025297,-4.6783e+08,-260.86,0,1.5063e+07,-137.63,10978,11538,1,11538,1,-0.00059358,9.1976e-10,0,0.00033406,-0.00013153,-2.4142e+08,257.91,0,1.2822e+08,-35.954,11537,12607,1,12607,1,0.00070514,3.3281e-09,0,0.00096467,0.00011146,2.2038e+08,1020.8,0,3.2488e+08,59.582,12606,618.61,0,618.61,0,0.00075027,1.4419e-09,0,0.00038059,0.00014038,2.5682e+08,438.79,0,1.245e+08,73.068,618.61,1
2137,4.47,12073,1,12073,1,9.9201e-05,1.5757e-09,0,0.00065545,-1.8136e-05,-1.3367e+06,493.41,0,2.249e+08,63.664,12072,13208,1,13208,1,0.0013583,1.34e-08,0,0.0013583,0.0002162,3.6838e+08,4053.8,0,4.6872e+08,538.5,13207,12073,1,12073,1,5.6433e-05,2.8394e-10,0,0.00068744,-1.0132e-05,2.0343e+07,88.464,0,2.4178e+08,62.227,12072,10979,1,10979,1,-0.0011524,-6.5136e-09,0,3.6553e-05,-0.00025367,-4.6872e+08,-1891.8,0,1.4886e+07,-372.55,10978,11538,1,11538,1,-0.00059445,-1.3582e-09,0,0.00033537,-0.00013193,-2.4178e+08,-382.21,0,1.2831e+08,-34.346,11537,12607,1,12607,1,0.00070735,4.3322e-09,0,0.00096643,0.00011162,2.2075e+08,1306.9,0,3.2513e+08,133.52,12606,618.61,0,618.61,0,0.00075204,4.2788e-09,0,0.00038156,0.00014071,2.5719e+08,1298.7,0,1.2468e+08,139.07,618.61,1
2137,4.48,12073,1,12073,1,9.9964e-05,-1.2373e-09,0,0.00065707,-1.8275e-05,-1.3394e+06,-352.01,0,2.2525e+08,5.7966,12072,13208,1,13208,1,0.001362,4.0302e-09,0,0.001362,0.00021663,3.6863e+08,1315.1,0,4.6964e+08,282.34,13207,12073,1,12073,1,5.7093e-05,-1.1735e-09,0,0.00068858,-1.0253e-05,2.0569e+07,-318.93,0,2.4215e+08,-3.0183,12072,10979,1,10979,1,-0.0011547,-5.8338e-09,0,3.6116e-05,-0.00025437,-4.6964e+08,-1768,0,1.471e+07,-214.2,10978,11538,1,11538,1,-0.00059537,-3.0671e-09,0,0.00033671,-0.00013235,-2.4215e+08,-897.37,0,1.2841e+08,-65.419,11537,12607,1,12607,1,0.00070957,5.4429e-10,0,0.00096824,0.0001118,2.2114e+08,161.32,0,3.2541e+08,57.826,12606,618.61,0,618.61,0,0.00075386,2.3157e-09,0,0.00038257,0.00014105,2.5758e+08,708.98,0,1.2486e+08,97.358,618.61,1
2137,4.49,12073,1,12073,1,0.00010074,4.5147e-09,0,0.00065865,-1.8417e-05,-1.3408e+06,1363.6,0,2.2557e+08,24.374,12072,13208,1,13208,1,0.0013658,1.6706e-08,0,0.0013658,0.00021704,3.6883e+08,5081.5,0,4.7054e+08,585.48,13207,12073,1,12073,1,5.7768e-05,3.8898e-09,0,0.00068964,-1.0379e-05,2.0799e+07,1127.5,0,2.4249e+08,-4.2968,12072,10979,1,10979,1,-0.0011569,-5.3216e-09,0,3.5663e-05,-0.00025507,-4.7054e+08,-1659.2,0,1.4528e+07,-425.68,10978,11538,1,11538,1,-0.00059622,-1.8967e-10,0,0.00033804,-0.00013276,-2.4249e+08,-56.39,0,1.2849e+08,-110.38,11537,12607,1,12607,1,0.0007118,8.9332e-09,0,0.00097,0.00011196,2.2151e+08,2690.5,0,3.2564e+08,148.48,12606,618.61,0,618.61,0,0.00075563,5.2943e-09,0,0.00038354,0.00014138,2.5795e+08,1631.9,0,1.2503e+08,182.42,618.61,1
2137,4.5,12073,1,12073,1,0.00010151,2.6383e-09,0,0.00066027,-1.8558e-05,-1.3434e+06,833.23,0,2.2592e+08,-10.216,12072,13208,1,13208,1,0.0013697,7.0126e-09,0,0.0013697,0.00021746,3.6905e+08,2398.3,0,4.7145e+08,314.43,13207,12073,1,12073,1,5.8443e-05,2.6398e-09,0,0.00069077,-1.0502e-05,2.1029e+07,774.04,0,2.4286e+08,-7.0033,12072,10979,1,10979,1,-0.0011591,-1.6414e-09,0,3.5213e-05,-0.00025578,-4.7145e+08,-541.8,0,1.4348e+07,-303.3,10978,11538,1,11538,1,-0.00059713,2.79e-10,0,0.00033938,-0.00013318,-2.4286e+08,83.873,0,1.2858e+08,-100.86,11537,12607,1,12607,1,0.00071405,5.0194e-09,0,0.00097179,0.00011213,2.2189e+08,1578,0,3.259e+08,81.865,12606,618.61,0,618.61,0,0.00075745,2.556e-09,0,0.00038454,0.00014172,2.5834e+08,818.98,0,1.2521e+08,133.6,618.61,1
2137,4.51,12073,1,12073,1,0.0001023,2.3049e-09,0,0.0006619,-1.8702e-05,-1.3461e+06,737.49,0,2.2626e+08,4.4329,12072,13208,1,13208,1,0.0013735,5.4783e-09,0,0.0013735,0.00021788,3.6927e+08,1873.5,0,4.7236e+08,281.07,13207,12073,1,12073,1,5.9126e-05,2.3891e-09,0,0.0006919,-1.0628e-05,2.1261e+07,727.28,0,2.4323e+08,-2.0347,12072,10979,1,10979,1,-0.0011613,-1.0662e-09,0,3.4755e-05,-0.00025649,-4.7236e+08,-248.08,0,1.4165e+07,-169.39,10978,11538,1,11538,1,-0.00059803,6.7672e-10,0,0.00034074,-0.00013359,-2.4323e+08,185.19,0,1.2867e+08,-58.972,11537,12607,1,12607,1,0.00071631,3.892e-09,0,0.00097358,0.0001123,2.2227e+08,1258.4,0,3.2616e+08,66.309,12606,618.61,0,618.61,0,0.00075927,1.8782e-09,0,0.00038555,0.00014206,2.5872e+08,612.6,0,1.2539e+08,90.963,618.61,1
2137,4.52,12073,1,12073,1,0.00010309,5.5862e-10,0,0.00066352,-1.8848e-05,-1.3483e+06,208.61,0,2.2659e+08,30.138,12072,13208,1,13208,1,0.0013773,3.7931e-09,0,0.0013773,0.0002183,3.6947e+08,1298.1,0,4.7326e+08,286.21,13207,12073,1,12073,1,5.9815e-05,3.2583e-10,0,0.00069301,-1.0755e-05,2.1495e+07,105.55,0,2.4359e+08,7.2058,12072,10979,1,10979,1,-0.0011636,-2.8979e-09,0,3.429e-05,-0.0002572,-4.7326e+08,-791.31,0,1.3979e+07,-108.26,10978,11538,1,11538,1,-0.00059891,-7.8806e-10,0,0.0003421,-0.00013401,-2.4359e+08,-191.45,0,1.2876e+08,-31.502,11537,12607,1,12607,1,0.00071856,1.9537e-09,0,0.00097535,0.00011246,2.2264e+08,622.62,0,3.264e+08,78.486,12606,618.61,0,618.61,0,0.00076109,1.6225e-09,0,0.00038656,0.0001424,2.591e+08,499.4,0,1.2556e+08,83.514,618.61,1
2137,4.53,12073,1,12073,1,0.00010389,2.0626e-09,0,0.00066513,-1.8993e-05,-1.3506e+06,647.8,0,2.2692e+08,31.108,12072,13208,1,13208,1,0.0013811,5.2718e-09,0,0.0013811,0.00021871,3.6968e+08,1759.6,0,4.7416e+08,292.47,13207,12073,1,12073,1,6.0506e-05,2.0414e-09,0,0.0006941,-1.0882e-05,2.1729e+07,606.95,0,2.4394e+08,14.087,12072,10979,1,10979,1,-0.0011658,-1.0703e-09,0,3.3823e-05,-0.00025791,-4.7416e+08,-255.62,0,1.3792e+07,-133.06,10978,11538,1,11538,1,-0.00059978,4.4672e-10,0,0.00034347,-0.00013443,-2.4394e+08,128.87,0,1.2884e+08,-42.731,11537,12607,1,12607,1,0.00072081,3.5925e-09,0,0.00097712,0.00011263,2.2302e+08,1142.6,0,3.2664e+08,104.72,12606,618.61,0,618.61,0,0.00076289,1.7969e-09,0,0.00038756,0.00014273,2.5947e+08,574.79,0,1.2573e+08,94.837,618.61,1
2137,4.54,12073,1,12073,1,0.00010469,1.7005e-09,0,0.00066673,-1.9139e-05,-1.3526e+06,542.24,0,2.2725e+08,13.922,12072,13208,1,13208,1,0.0013849,6.2519e-09,0,0.0013849,0.00021913,3.6987e+08,1913.2,0,4.7506e+08,406.86,13207,12073,1,12073,1,6.12e-05,1.4145e-09,0,0.00069519,-1.101e-05,2.1965e+07,440,0,2.4429e+08,-9.3036,12072,10979,1,10979,1,-0.001168,-1.2004e-09,0,3.3352e-05,-0.00025861,-4.7506e+08,-304.69,0,1.3604e+07,-252.21,10978,11538,1,11538,1,-0.00060064,2.3905e-11,0,0.00034483,-0.00013484,-2.4429e+08,6.5657,0,1.2892e+08,-52.796,11537,12607,1,12607,1,0.00072306,3.1857e-09,0,0.00097887,0.00011279,2.2339e+08,992.97,0,3.2687e+08,58.043,12606,618.61,0,618.61,0,0.00076469,1.8997e-09,0,0.00038856,0.00014307,2.5984e+08,594.42,0,1.2591e+08,112.61,618.61,1
2137,4.55,12073,1,12073,1,0.00010549,-6.0759e-10,0,0.00066835,-1.9285e-05,-1.355e+06,-151.67,0,2.2758e+08,15.641,12072,13208,1,13208,1,0.0013887,2.9753e-09,0,0.0013887,0.00021954,3.7007e+08,912.16,0,4.7595e+08,315.02,13207,12073,1,12073,1,6.1897e-05,-4.9618e-10,0,0.00069629,-1.1138e-05,2.22e+07,-133.46,0,2.4465e+08,-1.7067,12072,10979,1,10979,1,-0.0011702,-3.3796e-09,0,3.2877e-05,-0.00025932,-4.7595e+08,-944.54,0,1.3415e+07,-88.348,10978,11538,1,11538,1,-0.00060152,-1.8614e-09,0,0.00034621,-0.00013526,-2.4465e+08,-517.43,0,1.29e+08,-31.052,11537,12607,1,12607,1,0.00072532,4.7509e-10,0,0.00098062,0.00011296,2.2376e+08,158.84,0,3.2711e+08,30.548,12606,618.61,0,618.61,0,0.00076651,1.5485e-09,0,0.00038956,0.00014341,2.6021e+08,451.22,0,1.2608e+08,73.946,618.61,1
2137,4.56,12073,1,12073,1,0.0001063,1.5229e-11,0,0.00066998,-1.9434e-05,-1.3571e+06,14.109,0,2.2791e+08,6.2025,12072,13208,1,13208,1,0.0013926,1.5081e-09,0,0.0013926,0.00021996,3.7026e+08,463.1,0,4.7685e+08,159.78,13207,12073,1,12073,1,6.26e-05,-6.6843e-11,0,0.00069739,-1.1268e-05,2.2438e+07,-18.925,0,2.4501e+08,-1.9627,12072,10979,1,10979,1,-0.0011724,-1.1059e-09,0,3.24e-05,-0.00026003,-4.7685e+08,-297.23,0,1.3225e+07,-72.283,10978,11538,1,11538,1,-0.00060239,-3.8187e-10,0,0.00034759,-0.00013568,-2.4501e+08,-98.277,0,1.2908e+08,-28.066,11537,12607,1,12607,1,0.0007276,2.844e-10,0,0.00098239,0.00011312,2.2413e+08,88.834,0,3.2735e+08,33.161,12606,618.61,0,618.61,0,0.00076833,5.1868e-10,0,0.00039058,0.00014375,2.6059e+08,156.12,0,1.2626e+08,45.275,618.61,1
2137,4.57,12073,1,12073,1,0.00010711,-7.1374e-10,0,0.0006716,-1.9583e-05,-1.3596e+06,-208.7,0,2.2823e+08,14.866,12072,13208,1,13208,1,0.0013964,1.497e-09,0,0.0013964,0.00022037,3.7045e+08,410.89,0,4.7775e+08,237.32,13207,12073,1,12073,1,6.331e-05,-6.9062e-10,0,0.00069847,-1.1399e-05,2.2677e+07,-198.7,0,2.4535e+08,0.7738,12072,10979,1,10979,1,-0.0011746,-2.2953e-09,0,3.1913e-05,-0.00026075,-4.7775e+08,-680.64,0,1.3032e+07,-99.15,10978,11538,1,11538,1,-0.00060325,-1.4085e-09,0,0.00034898,-0.0001361,-2.4535e+08,-411.82,0,1.2916e+08,-23.23,11537,12607,1,12607,1,0.00072988,3.47e-11,0,0.00098416,0.00011328,2.245e+08,11.553,0,3.2757e+08,38.892,12606,618.61,0,618.61,0,0.00077015,8.4518e-10,0,0.00039159,0.00014409,2.6095e+08,249.54,0,1.2643e+08,57.549,618.61,1
2137,4.58,12073,1,12073,1,0.00010793,4.3072e-10,0,0.00067323,-1.9732e-05,-1.3619e+06,126.11,0,2.2856e+08,44.774,12072,13208,1,13208,1,0.0014003,2.4541e-09,0,0.0014003,0.00022079,3.7063e+08,697.32,0,4.7865e+08,240.13,13207,12073,1,12073,1,6.4025e-05,2.4217e-10,0,0.00069956,-1.1531e-05,2.2919e+07,67.155,0,2.457e+08,39.606,12072,10979,1,10979,1,-0.0011768,-1.5163e-09,0,3.1423e-05,-0.00026146,-4.7865e+08,-405.62,0,1.2837e+07,-78.357,10978,11538,1,11538,1,-0.00060411,-1.5199e-10,0,0.00035037,-0.00013653,-2.457e+08,-43.837,0,1.2923e+08,5.8694,11537,12607,1,12607,1,0.00073216,9.8949e-10,0,0.00098591,0.00011345,2.2487e+08,291.9,0,3.278e+08,81.686,12606,618.61,0,618.61,0,0.00077197,8.4401e-10,0,0.00039261,0.00014442,2.6132e+08,245.43,0,1.266e+08,56.519,618.61,1
2137,4.59,12073,1,12073,1,0.00010875,9.5131e-10,0,0.00067484,-1.9883e-05,-1.3641e+06,286.17,0,2.2888e+08,51.326,12072,13208,1,13208,1,0.0014042,4.1959e-09,0,0.0014042,0.0002212,3.7081e+08,1183.9,0,4.7954e+08,282.42,13207,12073,1,12073,1,6.4744e-05,6.27e-10,0,0.00070063,-1.1663e-05,2.3161e+07,187.57,0,2.4605e+08,40.026,12072,10979,1,10979,1,-0.001179,-8.3082e-10,0,3.0928e-05,-0.00026218,-4.7954e+08,-212.82,0,1.2641e+07,-103.02,10978,11538,1,11538,1,-0.00060496,2.3508e-10,0,0.00035176,-0.00013695,-2.4605e+08,72.261,0,1.293e+08,3.1297,11537,12607,1,12607,1,0.00073445,1.5254e-09,0,0.00098766,0.00011361,2.2523e+08,462.15,0,3.2801e+08,85.38,12606,618.61,0,618.61,0,0.00077378,1.0005e-09,0,0.00039362,0.00014476,2.6169e+08,296.18,0,1.2677e+08,73.294,618.61,1
2137,4.6,12073,1,12073,1,0.00010958,5.4855e-10,0,0.00067648,-2.0034e-05,-1.3663e+06,170.19,0,2.2921e+08,25.748,12072,13208,1,13208,1,0.001408,1.4698e-09,0,0.001408,0.00022161,3.7099e+08,503.12,0,4.8044e+08,256.38,13207,12073,1,12073,1,6.5468e-05,6.0051e-10,0,0.00070171,-1.1797e-05,2.3404e+07,177.81,0,2.464e+08,9.3318,12072,10979,1,10979,1,-0.0011812,-4.9142e-10,0,3.043e-05,-0.0002629,-4.8044e+08,-116.54,0,1.2443e+07,-82.56,10978,11538,1,11538,1,-0.00060582,2.4846e-10,0,0.00035316,-0.00013738,-2.464e+08,67.119,0,1.2938e+08,-21.922,11537,12607,1,12607,1,0.00073676,8.6307e-10,0,0.00098941,0.00011377,2.256e+08,268.22,0,3.2823e+08,64.491,12606,618.61,0,618.61,0,0.0007756,3.6191e-10,0,0.00039464,0.0001451,2.6205e+08,117.45,0,1.2694e+08,70.869,618.61,1
2137,4.61,12073,1,12073,1,0.00011041,-3.2138e-11,0,0.00067809,-2.0186e-05,-1.3684e+06,-0.74217,0,2.2952e+08,68.783,12072,13208,1,13208,1,0.0014119,5.6488e-09,0,0.0014119,0.00022202,3.7115e+08,1671.3,0,4.8132e+08,251.33,13207,12073,1,12073,1,6.6198e-05,-5.0733e-11,0,0.00070277,-1.1931e-05,2.3649e+07,-15.828,0,2.4674e+08,65.486,12072,10979,1,10979,1,-0.0011834,-4.6242e-09,0,2.9924e-05,-0.00026361,-4.8132e+08,-1273.5,0,1.2243e+07,-89.459,10978,11538,1,11538,1,-0.00060665,-1.5499e-09,0,0.00035456,-0.0001378,-2.4674e+08,-449.58,0,1.2944e+08,6.7194,11537,12607,1,12607,1,0.00073905,1.1845e-09,0,0.00099114,0.00011393,2.2596e+08,349.87,0,3.2844e+08,130.05,12606,618.61,0,618.61,0,0.00077741,2.2214e-09,0,0.00039565,0.00014544,2.6241e+08,649.23,0,1.2711e+08,75.946,618.61,1
2137,4.62,12073,1,12073,1,0.00011125,1.9619e-10,0,0.00067971,-2.0339e-05,-1.3707e+06,62.591,0,2.2984e+08,57.353,12072,13208,1,13208,1,0.0014158,6.7486e-09,0,0.0014158,0.00022244,3.7132e+08,2020.1,0,4.8222e+08,292.25,13207,12073,1,12073,1,6.6928e-05,7.7611e-11,0,0.00070384,-1.2065e-05,2.3894e+07,23.763,0,2.4708e+08,56.761,12072,10979,1,10979,1,-0.0011856,-4.0242e-09,0,2.9418e-05,-0.00026433,-4.8222e+08,-1211.2,0,1.2043e+07,-129.16,10978,11538,1,11538,1,-0.00060749,-1.5529e-09,0,0.00035596,-0.00013823,-2.4708e+08,-452.73,0,1.2951e+08,-11.457,11537,12607,1,12607,1,0.00074136,1.3787e-09,0,0.00099289,0.00011409,2.2633e+08,414.43,0,3.2865e+08,117.86,12606,618.61,0,618.61,0,0.00077923,2.3767e-09,0,0.00039667,0.00014578,2.6277e+08,714.12,0,1.2728e+08,87.364,618.61,1
2137,4.63,12073,1,12073,1,0.00011209,-9.6039e-10,0,0.00068135,-2.0493e-05,-1.3728e+06,-286.75,0,2.3016e+08,9.7696,12072,13208,1,13208,1,0.0014197,2.4004e-09,0,0.0014197,0.00022285,3.7149e+08,721.74,0,4.8311e+08,271.03,13207,12073,1,12073,1,6.7667e-05,-9.4107e-10,0,0.0007049,-1.2202e-05,2.4142e+07,-271.21,0,2.4742e+08,6.9483,12072,10979,1,10979,1,-0.0011878,-3.486e-09,0,2.8906e-05,-0.00026506,-4.8311e+08,-1064.1,0,1.1841e+07,-199.38,10978,11538,1,11538,1,-0.00060833,-2.0822e-09,0,0.00035738,-0.00013866,-2.4742e+08,-616.14,0,1.2958e+08,-47.27,11537,12607,1,12607,1,0.00074368,1.3835e-10,0,0.00099464,0.00011424,2.2669e+08,38.641,0,3.2886e+08,64.144,12606,618.61,0,618.61,0,0.00078105,1.3095e-09,0,0.0003977,0.00014612,2.6314e+08,402.05,0,1.2745e+08,94.403,618.61,1
2137,4.64,12073,1,12073,1,0.00011293,-9.3222e-10,0,0.00068297,-2.0648e-05,-1.3754e+06,-288.11,0,2.3048e+08,43.602,12072,13208,1,13208,1,0.0014236,4.0815e-09,0,0.0014236,0.00022326,3.7164e+08,1189.5,0,4.84e+08,302.41,13207,12073,1,12073,1,6.8412e-05,-7.5321e-10,0,0.00070596,-1.2339e-05,2.4391e+07,-217.04,0,2.4776e+08,38.102,12072,10979,1,10979,1,-0.00119,-4.8753e-09,0,2.8387e-05,-0.00026578,-4.84e+08,-1487,0,1.1637e+07,-139.79,10978,11538,1,11538,1,-0.00060917,-2.5118e-09,0,0.0003588,-0.00013909,-2.4776e+08,-754.78,0,1.2964e+08,-16.145,11537,12607,1,12607,1,0.00074601,3.9392e-10,0,0.00099638,0.0001144,2.2705e+08,105.83,0,3.2906e+08,99.188,12606,618.61,0,618.61,0,0.00078287,1.9503e-09,0,0.00039873,0.00014645,2.6349e+08,592.15,0,1.2762e+08,81.289,618.61,1
2137,4.65,12073,1,12073,1,0.00011379,1.2223e-09,0,0.0006846,-2.0804e-05,-1.3773e+06,348.41,0,2.3079e+08,32.71,12072,13208,1,13208,1,0.0014275,3.5702e-09,0,0.0014275,0.00022367,3.7179e+08,1053.9,0,4.8488e+08,395.04,13207,12073,1,12073,1,6.9161e-05,1.1677e-09,0,0.00070702,-1.2477e-05,2.4641e+07,336.56,0,2.481e+08,6.044,12072,10979,1,10979,1,-0.0011921,-9.2977e-10,0,2.7862e-05,-0.0002665,-4.8488e+08,-259.26,0,1.1431e+07,-101.47,10978,11538,1,11538,1,-0.00061,1.6429e-10,0,0.00036022,-0.00013952,-2.481e+08,49.874,0,1.297e+08,-34.01,11537,12607,1,12607,1,0.00074832,2.2134e-09,0,0.0009981,0.00011456,2.2741e+08,623.21,0,3.2925e+08,69.578,12606,618.61,0,618.61,0,0.0007847,1.0978e-09,0,0.00039975,0.00014679,2.6385e+08,314.39,0,1.2779e+08,99.092,618.61,1
2137,4.66,12073,1,12073,1,0.00011465,1.2122e-09,0,0.00068624,-2.0961e-05,-1.3792e+06,361.67,0,2.3111e+08,28.268,12072,13208,1,13208,1,0.0014314,3.8172e-09,0,0.0014314,0.00022408,3.7195e+08,1128.4,0,4.8578e+08,278.98,13207,12073,1,12073,1,6.9913e-05,1.0796e-09,0,0.00070808,-1.2616e-05,2.4893e+07,321.94,0,2.4844e+08,15.579,12072,10979,1,10979,1,-0.0011943,-3.4562e-10,0,2.7337e-05,-0.00026723,-4.8578e+08,-95.072,0,1.1225e+07,-168.12,10978,11538,1,11538,1,-0.00061083,5.9585e-10,0,0.00036166,-0.00013995,-2.4844e+08,167.06,0,1.2977e+08,-29.607,11537,12607,1,12607,1,0.00075067,1.7129e-09,0,0.00099984,0.00011472,2.2777e+08,508.92,0,3.2946e+08,73.082,12606,618.61,0,618.61,0,0.00078653,8.6398e-10,0,0.00040079,0.00014714,2.6421e+08,260.54,0,1.2796e+08,79.53,618.61,1
2137,4.67,12073,1,12073,1,0.00011551,2.3576e-09,0,0.00068788,-2.112e-05,-1.3816e+06,711.05,0,2.3142e+08,62.584,12072,13208,1,13208,1,0.0014354,5.5203e-09,0,0.0014354,0.00022449,3.7209e+08,1632.4,0,4.8667e+08,443.89,13207,12073,1,12073,1,7.0675e-05,2.509e-09,0,0.00070911,-1.2756e-05,2.5147e+07,728.76,0,2.4877e+08,35.287,12072,10979,1,10979,1,-0.0011965,-1.1852e-09,0,2.6802e-05,-0.00026796,-4.8667e+08,-370.94,0,1.1015e+07,-109.55,10978,11538,1,11538,1,-0.00061164,7.9539e-10,0,0.00036309,-0.00014038,-2.4877e+08,222.92,0,1.2982e+08,-19.608,11537,12607,1,12607,1,0.00075302,4.0409e-09,0,0.0010016,0.00011487,2.2813e+08,1226.3,0,3.2964e+08,138.84,12606,618.61,0,618.61,0,0.00078836,1.8665e-09,0,0.00040182,0.00014747,2.6456e+08,568.81,0,1.2812e+08,109.12,618.61,1
2137,4.68,12073,1,12073,1,0.00011638,5.2646e-10,0,0.00068952,-2.1279e-05,-1.3839e+06,185.53,0,2.3173e+08,61.05,12072,13208,1,13208,1,0.0014393,3.0827e-09,0,0.0014393,0.00022491,3.7223e+08,938.07,0,4.8756e+08,319.53,13207,12073,1,12073,1,7.1442e-05,4.7463e-10,0,0.00071018,-1.2897e-05,2.5402e+07,144.9,0,2.4911e+08,35.096,12072,10979,1,10979,1,-0.0011987,-3.0746e-09,0,2.6262e-05,-0.00026869,-4.8756e+08,-802.25,0,1.0804e+07,-95.867,10978,11538,1,11538,1,-0.00061248,-4.9333e-10,0,0.00036453,-0.00014082,-2.4911e+08,-126.51,0,1.2988e+08,-11.65,11537,12607,1,12607,1,0.00075538,1.6243e-09,0,0.0010033,0.00011503,2.2849e+08,513.26,0,3.2984e+08,128.18,12606,618.61,0,618.61,0,0.0007902,1.2549e-09,0,0.00040287,0.00014782,2.6492e+08,374.14,0,1.2829e+08,92.558,618.61,1
2137,4.69,12073,1,12073,1,0.00011725,2.1157e-09,0,0.00069115,-2.1438e-05,-1.3861e+06,656.93,0,2.3204e+08,120.08,12072,13208,1,13208,1,0.0014432,1.006e-08,0,0.0014432,0.00022531,3.7236e+08,3001.3,0,4.8844e+08,553.49,13207,12073,1,12073,1,7.2213e-05,1.6904e-09,0,0.0007112,-1.3038e-05,2.5658e+07,500.67,0,2.4943e+08,73.148,12072,10979,1,10979,1,-0.0012009,-2.9577e-09,0,2.5717e-05,-0.00026942,-4.8844e+08,-766.82,0,1.0591e+07,-202.55,10978,11538,1,11538,1,-0.00061327,5.1573e-12,0,0.00036597,-0.00014125,-2.4943e+08,1.762,0,1.2993e+08,-3.4841,11537,12607,1,12607,1,0.00075773,3.8582e-09,0,0.001005,0.00011518,2.2884e+08,1194.6,0,3.3001e+08,237.77,12606,618.61,0,618.61,0,0.00079201,2.6286e-09,0,0.0004039,0.00014816,2.6526e+08,793.5,0,1.2846e+08,153.01,618.61,1
2137,4.7,12073,1,12073,1,0.00011813,2.1142e-09,0,0.0006928,-2.1599e-05,-1.3881e+06,667.66,0,2.3235e+08,36.282,12072,13208,1,13208,1,0.0014472,5.1407e-09,0,0.0014472,0.00022572,3.7249e+08,1559.9,0,4.8933e+08,427.6,13207,12073,1,12073,1,7.2987e-05,2.2535e-09,0,0.00071225,-1.3181e-05,2.5916e+07,677.77,0,2.4976e+08,10.574,12072,10979,1,10979,1,-0.0012031,-8.5546e-10,0,2.517e-05,-0.00027015,-4.8933e+08,-217.2,0,1.0378e+07,-134.66,10978,11538,1,11538,1,-0.0006141,5.9234e-10,0,0.00036743,-0.00014169,-2.4976e+08,170.67,0,1.2999e+08,-33.266,11537,12607,1,12607,1,0.0007601,3.682e-09,0,0.0010068,0.00011534,2.292e+08,1170.1,0,3.302e+08,96.462,12606,618.61,0,618.61,0,0.00079386,1.6695e-09,0,0.00040495,0.0001485,2.6562e+08,537.48,0,1.2863e+08,105.14,618.61,1
2137,4.71,12073,1,12073,1,0.00011902,-1.273e-09,0,0.00069444,-2.1761e-05,-1.3902e+06,-334.17,0,2.3265e+08,67.976,12072,13208,1,13208,1,0.0014511,5.9787e-09,0,0.0014511,0.00022613,3.7263e+08,1777.8,0,4.902e+08,453.19,13207,12073,1,12073,1,7.3768e-05,-8.0248e-10,0,0.00071329,-1.3325e-05,2.6174e+07,-193.87,0,2.5009e+08,44.071,12072,10979,1,10979,1,-0.0012052,-7.5807e-09,0,2.4614e-05,-0.00027088,-4.902e+08,-2146.3,0,1.0162e+07,-140.13,10978,11538,1,11538,1,-0.0006149,-3.7487e-09,0,0.0003689,-0.00014213,-2.5009e+08,-1088.7,0,1.3004e+08,-12.286,11537,12607,1,12607,1,0.00076245,9.4928e-10,0,0.0010085,0.00011549,2.2955e+08,302.22,0,3.3037e+08,122.18,12606,618.61,0,618.61,0,0.00079569,3.2394e-09,0,0.00040599,0.00014884,2.6597e+08,936.32,0,1.2879e+08,115.65,618.61,1
2137,4.72,12073,1,12073,1,0.00011991,1.6218e-09,0,0.00069609,-2.1925e-05,-1.3925e+06,488.77,0,2.3296e+08,24.2,12072,13208,1,13208,1,0.0014551,3.3657e-09,0,0.0014551,0.00022654,3.7275e+08,1016.5,0,4.9109e+08,382.08,13207,12073,1,12073,1,7.455e-05,1.6907e-09,0,0.00071433,-1.3469e-05,2.6433e+07,504.43,0,2.5042e+08,4.4296,12072,10979,1,10979,1,-0.0012074,-4.2075e-10,0,2.4062e-05,-0.00027162,-4.9109e+08,-144.1,0,9.9479e+06,-146.56,10978,11538,1,11538,1,-0.00061572,8.0017e-10,0,0.00037037,-0.00014257,-2.5042e+08,227.62,0,1.3009e+08,-35.11,11537,12607,1,12607,1,0.00076484,2.5224e-09,0,0.0010102,0.00011564,2.299e+08,765.77,0,3.3064e+08,61.294,12606,618.61,0,618.61,0,0.00079754,1.0204e-09,0,0.00040704,0.00014918,2.6632e+08,316.98,0,1.2896e+08,99.255,618.61,1
2137,4.73,12073,1,12073,1,0.00012081,-8.2668e-10,0,0.00069774,-2.2089e-05,-1.3947e+06,-226.33,0,2.3327e+08,64.193,12072,13208,1,13208,1,0.0014591,3.5459e-09,0,0.0014591,0.00022694,3.7286e+08,1002.8,0,4.9197e+08,451.54,13207,12073,1,12073,1,7.5343e-05,-4.1584e-10,0,0.00071535,-1.3615e-05,2.6696e+07,-119.22,0,2.5075e+08,45.564,12072,10979,1,10979,1,-0.0012096,-5.0879e-09,0,2.3494e-05,-0.00027235,-4.9197e+08,-1414.6,0,9.7278e+06,-87.723,10978,11538,1,11538,1,-0.00061652,-2.2688e-09,0,0.00037185,-0.00014301,-2.5075e+08,-653.91,0,1.3014e+08,2.1336,11537,12607,1,12607,1,0.00076721,6.0199e-10,0,0.0010119,0.00011579,2.3025e+08,176.63,0,3.3115e+08,105.9,12606,618.61,0,618.61,0,0.00079938,1.9703e-09,0,0.00040809,0.00014952,2.6666e+08,568.37,0,1.2912e+08,90.207,618.61,1
2137,4.74,12073,1,12073,1,0.00012171,3.0474e-09,0,0.00069938,-2.2254e-05,-1.3965e+06,901.34,0,2.3357e+08,51.894,12072,13208,1,13208,1,0.0014631,6.4463e-09,0,0.0014631,0.00022735,3.7298e+08,1909.7,0,4.9286e+08,475.89,13207,12073,1,12073,1,7.6138e-05,3.3868e-09,0,0.00071636,-1.3762e-05,2.6958e+07,985.84,0,2.5107e+08,27.209,12072,10979,1,10979,1,-0.0012117,-1.3818e-09,0,2.2927e-05,-0.00027309,-4.9286e+08,-473.24,0,9.5082e+06,-221.08,10978,11538,1,11538,1,-0.0006173,1.4425e-09,0,0.00037332,-0.00014345,-2.5107e+08,392.96,0,1.3018e+08,-43.603,11537,12607,1,12607,1,0.00076961,4.8336e-09,0,0.0010136,0.00011594,2.3061e+08,1461.5,0,3.3165e+08,154.27,12606,618.61,0,618.61,0,0.00080122,2.1153e-09,0,0.00040915,0.00014987,2.6701e+08,633.61,0,1.2929e+08,139.51,618.61,1
2137,4.75,12073,1,12073,1,0.00012261,2.8854e-09,0,0.00070102,-2.2419e-05,-1.3989e+06,886.37,0,2.3386e+08,109.06,12072,13208,1,13208,1,0.0014671,1.2141e-08,0,0.0014671,0.00022776,3.7308e+08,3628.9,0,4.9373e+08,490.67,13207,12073,1,12073,1,7.6943e-05,2.1802e-09,0,0.00071737,-1.391e-05,2.7224e+07,649.76,0,2.5139e+08,76.351,12072,10979,1,10979,1,-0.0012139,-2.6811e-09,0,2.2351e-05,-0.00027383,-4.9373e+08,-660.45,0,9.2861e+06,-170.45,10978,11538,1,11538,1,-0.00061809,3.9864e-10,0,0.00037479,-0.00014389,-2.5139e+08,113.17,0,1.3023e+08,2.4761,11537,12607,1,12607,1,0.000772,4.8408e-09,0,0.0010153,0.00011609,2.3095e+08,1507.8,0,3.3216e+08,209.67,12606,618.61,0,618.61,0,0.00080304,3.1827e-09,0,0.00041019,0.00015021,2.6734e+08,960.65,0,1.2945e+08,133.26,618.61,1
2137,4.76,12073,1,12073,1,0.00012352,1.663e-09,0,0.00070267,-2.2585e-05,-1.4008e+06,539.7,0,2.3417e+08,75.608,12072,13208,1,13208,1,0.0014711,6.8328e-09,0,0.0014711,0.00022816,3.7318e+08,2063.5,0,4.946e+08,543.04,13207,12073,1,12073,1,7.7748e-05,1.5592e-09,0,0.0007184,-1.4057e-05,2.7489e+07,477.65,0,2.5171e+08,36.804,12072,10979,1,10979,1,-0.001216,-2.2976e-09,0,2.1774e-05,-0.00027457,-4.946e+08,-554.53,0,9.0637e+06,-239.43,10978,11538,1,11538,1,-0.00061888,-9.6286e-12,0,0.00037628,-0.00014434,-2.5171e+08,-3.155,0,1.3027e+08,-36.652,11537,12607,1,12607,1,0.00077441,3.2081e-09,0,0.001017,0.00011624,2.313e+08,1024,0,3.3267e+08,179.29,12606,618.61,0,618.61,0,0.00080489,1.961e-09,0,0.00041125,0.00015055,2.6769e+08,608.53,0,1.2961e+08,156.21,618.61,1
2137,4.77,12073,1,12073,1,0.00012444,3.6242e-10,0,0.00070434,-2.2754e-05,-1.4032e+06,154.96,0,2.3447e+08,50.168,12072,13208,1,13208,1,0.0014751,3.3337e-09,0,0.0014751,0.00022857,3.7329e+08,1005.9,0,4.9549e+08,497.62,13207,12073,1,12073,1,7.8561e-05,5.2163e-10,0,0.00071944,-1.4207e-05,2.7756e+07,154.12,0,2.5204e+08,16.059,12072,10979,1,10979,1,-0.0012182,-2.5074e-09,0,2.1191e-05,-0.00027532,-4.9549e+08,-604.58,0,8.8396e+06,-104.68,10978,11538,1,11538,1,-0.00061969,-7.9779e-10,0,0.00037778,-0.00014479,-2.5204e+08,-185.42,0,1.3032e+08,-25.666,11537,12607,1,12607,1,0.00077683,1.4062e-09,0,0.0010187,0.00011639,2.3165e+08,466.88,0,3.3318e+08,103.04,12606,618.61,0,618.61,0,0.00080675,1.2901e-09,0,0.00041232,0.0001509,2.6804e+08,378.3,0,1.2978e+08,111.35,618.61,1
2137,4.78,12073,1,12073,1,0.00012537,6.0684e-10,0,0.00070601,-2.2924e-05,-1.4055e+06,216.68,0,2.3477e+08,71.869,12072,13208,1,13208,1,0.0014791,3.661e-09,0,0.0014791,0.00022898,3.7339e+08,1089.9,0,4.9636e+08,454.63,13207,12073,1,12073,1,7.9382e-05,6.5045e-10,0,0.00072046,-1.4359e-05,2.8026e+07,205.91,0,2.5236e+08,55.811,12072,10979,1,10979,1,-0.0012204,-2.4783e-09,0,2.0598e-05,-0.00027606,-4.9636e+08,-601.79,0,8.6122e+06,-101.13,10978,11538,1,11538,1,-0.00062048,-4.482e-10,0,0.0003793,-0.00014523,-2.5236e+08,-107.6,0,1.3036e+08,10.045,11537,12607,1,12607,1,0.00077925,1.5949e-09,0,0.0010204,0.00011654,2.3199e+08,511.37,0,3.3369e+08,107.68,12606,618.61,0,618.61,0,0.00080861,1.3404e-09,0,0.00041339,0.00015124,2.6838e+08,397.7,0,1.2994e+08,96.105,618.61,1
2137,4.79,12073,1,12073,1,0.0001263,3.5963e-09,0,0.00070766,-2.3095e-05,-1.407e+06,1091.3,0,2.3506e+08,72.841,12072,13208,1,13208,1,0.0014832,9.625e-09,0,0.0014832,0.00022938,3.7347e+08,2834.6,0,4.9724e+08,578.99,13207,12073,1,12073,1,8.0209e-05,3.6039e-09,0,0.00072143,-1.4511e-05,2.8298e+07,1047.9,0,2.5266e+08,40.33,12072,10979,1,10979,1,-0.0012225,-2.4684e-09,0,2.0001e-05,-0.00027681,-4.9724e+08,-588.04,0,8.3832e+06,-272.98,10978,11538,1,11538,1,-0.00062122,1.2064e-09,0,0.0003808,-0.00014568,-2.5266e+08,333.23,0,1.3039e+08,-59.307,11537,12607,1,12607,1,0.00078169,6.1121e-09,0,0.0010221,0.00011669,2.3234e+08,1879.6,0,3.3418e+08,192.1,12606,618.61,0,618.61,0,0.00081045,2.9374e-09,0,0.00041446,0.00015158,2.6871e+08,897.97,0,1.301e+08,172.8,618.61,1
2137,4.8,12073,1,12073,1,0.00012723,2.3962e-09,0,0.00070933,-2.3265e-05,-1.4097e+06,761.57,0,2.3536e+08,72.551,12072,13208,1,13208,1,0.0014872,6.0153e-09,0,0.0014872,0.00022979,3.7356e+08,1810,0,4.9812e+08,623.85,13207,12073,1,12073,1,8.104e-05,2.7214e-09,0,0.00072245,-1.4664e-05,2.857e+07,797.56,0,2.5298e+08,36.046,12072,10979,1,10979,1,-0.0012247,-1.4309e-09,0,1.94e-05,-0.00027756,-4.9812e+08,-319.26,0,8.1533e+06,-202.8,10978,11538,1,11538,1,-0.00062202,4.7637e-10,0,0.00038231,-0.00014613,-2.5298e+08,140,0,1.3043e+08,-40.013,11537,12607,1,12607,1,0.00078413,4.3369e-09,0,0.0010238,0.00011683,2.3268e+08,1374.3,0,3.3469e+08,174.46,12606,618.61,0,618.61,0,0.00081231,2.0467e-09,0,0.00041553,0.00015193,2.6905e+08,651.24,0,1.3027e+08,162.51,618.61,1
2137,4.81,12073,1,12073,1,0.00012817,2.3466e-09,0,0.00071098,-2.3438e-05,-1.4115e+06,752.52,0,2.3565e+08,97.701,12072,13208,1,13208,1,0.0014913,9.2547e-09,0,0.0014913,0.00023019,3.7364e+08,2754,0,4.9899e+08,643.08,13207,12073,1,12073,1,8.1877e-05,2.2571e-09,0,0.00072344,-1.4818e-05,2.8844e+07,701.35,0,2.5329e+08,58.498,12072,10979,1,10979,1,-0.0012268,-3.5071e-09,0,1.8792e-05,-0.00027831,-4.9899e+08,-842.62,0,7.9212e+06,-176.19,10978,11538,1,11538,1,-0.00062278,2.3596e-11,0,0.00038384,-0.00014658,-2.5329e+08,4.8624,0,1.3046e+08,3.2566,11537,12607,1,12607,1,0.00078657,4.3573e-09,0,0.0010255,0.00011698,2.3302e+08,1355.7,0,3.3518e+08,184.21,12606,618.61,0,618.61,0,0.00081416,2.7803e-09,0,0.0004166,0.00015227,2.6938e+08,845.08,0,1.3043e+08,136.6,618.61,1
2137,4.82,12073,1,12073,1,0.00012911,3.8075e-09,0,0.00071263,-2.3611e-05,-1.4136e+06,1184.5,0,2.3593e+08,86.05,12072,13208,1,13208,1,0.0014953,1.217e-08,0,0.0014953,0.00023059,3.7372e+08,3637.5,0,4.9986e+08,615.28,13207,12073,1,12073,1,8.2717e-05,3.6507e-09,0,0.00072441,-1.4973e-05,2.9118e+07,1079.7,0,2.536e+08,63.247,12072,10979,1,10979,1,-0.001229,-2.8011e-09,0,1.8181e-05,-0.00027906,-4.9986e+08,-657.52,0,7.6884e+06,-214.85,10978,11538,1,11538,1,-0.00062353,7.9298e-10,0,0.00038535,-0.00014704,-2.536e+08,208.51,0,1.3049e+08,-5.5156,11537,12607,1,12607,1,0.00078901,6.6861e-09,0,0.0010272,0.00011712,2.3336e+08,2055.5,0,3.3567e+08,165.93,12606,618.61,0,618.61,0,0.000816,3.641e-09,0,0.00041767,0.00015262,2.6971e+08,1124.5,0,1.3059e+08,136.47,618.61,1
2137,4.83,12073,1,12073,1,0.00013006,3.1743e-09,0,0.00071428,-2.3783e-05,-1.4156e+06,1021.5,0,2.3622e+08,103.57,12072,13208,1,13208,1,0.0014994,1.8035e-08,0,0.0014994,0.00023099,3.7378e+08,5395,0,5.0073e+08,707.71,13207,12073,1,12073,1,8.3562e-05,1.7595e-09,0,0.00072539,-1.5128e-05,2.9394e+07,542.6,0,2.539e+08,92.445,12072,10979,1,10979,1,-0.0012311,-7.5126e-09,0,1.7563e-05,-0.00027981,-5.0073e+08,-1953.6,0,7.4534e+06,-358.6,10978,11538,1,11538,1,-0.00062428,-1.1708e-09,0,0.00038687,-0.00014749,-2.539e+08,-302.75,0,1.3051e+08,-38.06,11537,12607,1,12607,1,0.00079145,7.2655e-09,0,0.0010288,0.00011726,2.3369e+08,2219.1,0,3.3616e+08,214.09,12606,618.61,0,618.61,0,0.00081783,5.5009e-09,0,0.00041874,0.00015296,2.7003e+08,1656.3,0,1.3075e+08,188.25,618.61,1
2137,4.84,12073,1,12073,1,0.00013101,4.082e-10,0,0.00071596,-2.3958e-05,-1.4178e+06,213.55,0,2.3652e+08,21.091,12072,13208,1,13208,1,0.0015034,4.5425e-09,0,0.0015034,0.00023139,3.7386e+08,1554.7,0,5.0159e+08,803.78,13207,12073,1,12073,1,8.4408e-05,5.4036e-10,0,0.00072642,-1.5284e-05,2.967e+07,169.57,0,2.5423e+08,-7.8388,12072,10979,1,10979,1,-0.0012332,-4.3096e-09,0,1.6946e-05,-0.00028056,-5.0159e+08,-987.53,0,7.219e+06,-279.53,10978,11538,1,11538,1,-0.00062507,-1.4952e-09,0,0.00038842,-0.00014794,-2.5423e+08,-350.6,0,1.3055e+08,-73.137,11537,12607,1,12607,1,0.0007939,2.1429e-09,0,0.0010305,0.00011741,2.3403e+08,709.72,0,3.3667e+08,67.086,12606,618.61,0,618.61,0,0.00081971,2.2876e-09,0,0.00041983,0.00015331,2.7037e+08,671.16,0,1.3091e+08,172.1,618.61,1
2137,4.85,12073,1,12073,1,0.00013198,2.2813e-09,0,0.00071763,-2.4136e-05,-1.4193e+06,734.74,0,2.368e+08,49.831,12072,13208,1,13208,1,0.0015075,1.0567e-08,0,0.0015075,0.00023179,3.7392e+08,3166.4,0,5.0246e+08,642.81,13207,12073,1,12073,1,8.5266e-05,1.5787e-09,0,0.00072738,-1.5442e-05,2.9949e+07,482.64,0,2.5453e+08,22.704,12072,10979,1,10979,1,-0.0012354,-3.5458e-09,0,1.632e-05,-0.00028132,-5.0246e+08,-887.1,0,6.9813e+06,-287.82,10978,11538,1,11538,1,-0.00062581,-3.126e-10,0,0.00038997,-0.0001484,-2.5453e+08,-82.46,0,1.3057e+08,-54.519,11537,12607,1,12607,1,0.00079638,4.7649e-09,0,0.0010322,0.00011755,2.3437e+08,1463.6,0,3.3716e+08,130.94,12606,618.61,0,618.61,0,0.00082157,3.1447e-09,0,0.00042091,0.00015365,2.707e+08,963.86,0,1.3107e+08,152.25,618.61,1
2137,4.86,12073,1,12073,1,0.00013295,-1.348e-09,0,0.0007193,-2.4312e-05,-1.4223e+06,-321.48,0,2.3708e+08,80.837,12072,13208,1,13208,1,0.0015115,3.7052e-09,0,0.0015115,0.00023219,3.7398e+08,1166,0,5.0331e+08,757.4,13207,12073,1,12073,1,8.6125e-05,-9.2077e-10,0,0.00072838,-1.56e-05,3.0228e+07,-246.47,0,2.5483e+08,41.076,12072,10979,1,10979,1,-0.0012375,-8.8292e-09,0,1.5688e-05,-0.00028206,-5.0331e+08,-2345.1,0,6.7419e+06,-169.69,10978,11538,1,11538,1,-0.00062657,-3.4771e-09,0,0.00039154,-0.00014885,-2.5483e+08,-916.66,0,1.3059e+08,-19.434,11537,12607,1,12607,1,0.00079882,9.7964e-10,0,0.0010338,0.0001177,2.3469e+08,322.75,0,3.3766e+08,139.86,12606,618.61,0,618.61,0,0.00082343,3.0418e-09,0,0.000422,0.000154,2.7102e+08,862.4,0,1.3123e+08,154.63,618.61,1
2137,4.87,12073,1,12073,1,0.00013392,1.2338e-09,0,0.00072097,-2.4491e-05,-1.4239e+06,390.14,0,2.3737e+08,55.001,12072,13208,1,13208,1,0.0015156,5.8717e-09,0,0.0015156,0.00023259,3.7403e+08,1707.1,0,5.0418e+08,754.64,13207,12073,1,12073,1,8.6988e-05,6.4473e-10,0,0.00072935,-1.576e-05,3.0508e+07,182.29,0,2.5513e+08,21.929,12072,10979,1,10979,1,-0.0012396,-3.3569e-09,0,1.5056e-05,-0.00028282,-5.0418e+08,-890.89,0,6.5032e+06,-244.39,10978,11538,1,11538,1,-0.00062731,-1.3434e-10,0,0.0003931,-0.00014931,-2.5513e+08,-36.72,0,1.3062e+08,-43.99,11537,12607,1,12607,1,0.0008013,2.6708e-09,0,0.0010355,0.00011784,2.3503e+08,825.1,0,3.3815e+08,119.61,12606,618.61,0,618.61,0,0.00082529,1.8976e-09,0,0.00042309,0.00015434,2.7135e+08,582.97,0,1.3139e+08,166.24,618.61,1
2137,4.88,12073,1,12073,1,0.0001349,1.0313e-09,0,0.00072267,-2.4671e-05,-1.4262e+06,332.64,0,2.3766e+08,56.846,12072,13208,1,13208,1,0.0015198,4.3681e-09,0,0.0015198,0.00023299,3.7409e+08,1296.8,0,5.0506e+08,632.01,13207,12073,1,12073,1,8.7863e-05,8.1525e-10,0,0.00073034,-1.5921e-05,3.0792e+07,258.39,0,2.5544e+08,16.821,12072,10979,1,10979,1,-0.0012417,-2.0928e-09,0,1.4415e-05,-0.00028359,-5.0506e+08,-522.93,0,6.2609e+06,-222.65,10978,11538,1,11538,1,-0.00062807,-4.0046e-11,0,0.00039467,-0.00014977,-2.5544e+08,-10.186,0,1.3064e+08,-43.042,11537,12607,1,12607,1,0.00080381,2.0639e-09,0,0.0010372,0.00011798,2.3537e+08,630.89,0,3.3864e+08,136.49,12606,618.61,0,618.61,0,0.00082718,1.3331e-09,0,0.0004242,0.0001547,2.7168e+08,407.99,0,1.3155e+08,149.4,618.61,1
2137,4.89,12073,1,12073,1,0.0001359,2.5451e-09,0,0.00072435,-2.4853e-05,-1.4283e+06,775.48,0,2.3793e+08,63.363,12072,13208,1,13208,1,0.0015239,5.5101e-09,0,0.0015239,0.0002334,3.7413e+08,1823.3,0,5.0593e+08,714.7,13207,12073,1,12073,1,8.875e-05,2.8486e-09,0,0.00073129,-1.6084e-05,3.1079e+07,833.36,0,2.5574e+08,29.3,12072,10979,1,10979,1,-0.0012439,-1.0196e-09,0,1.3759e-05,-0.00028435,-5.0593e+08,-338.8,0,6.0138e+06,-151,10978,11538,1,11538,1,-0.00062879,1.041e-09,0,0.00039625,-0.00015023,-2.5574e+08,273.07,0,1.3066e+08,-27.864,11537,12607,1,12607,1,0.00080632,4.1167e-09,0,0.0010389,0.00011812,2.357e+08,1266.2,0,3.3913e+08,109.26,12606,618.61,0,618.61,0,0.00082905,1.8196e-09,0,0.0004253,0.00015504,2.72e+08,573.61,0,1.3171e+08,140.97,618.61,1
2137,4.9,12073,1,12073,1,0.00013689,2.3564e-09,0,0.00072602,-2.5035e-05,-1.4301e+06,738.17,0,2.3821e+08,133.78,12072,13208,1,13208,1,0.001528,1.1907e-08,0,0.001528,0.00023379,3.7417e+08,3466.9,0,5.0678e+08,764.8,13207,12073,1,12073,1,8.9641e-05,1.5075e-09,0,0.00073225,-1.6247e-05,3.1367e+07,463.17,0,2.5603e+08,90.627,12072,10979,1,10979,1,-0.001246,-5.0213e-09,0,1.31e-05,-0.00028512,-5.0678e+08,-1244.4,0,5.7652e+06,-236.45,10978,11538,1,11538,1,-0.00062951,-3.5071e-10,0,0.00039782,-0.0001507,-2.5603e+08,-91.439,0,1.3067e+08,5.7607,11537,12607,1,12607,1,0.00080883,4.8085e-09,0,0.0010405,0.00011826,2.3602e+08,1475.9,0,3.3961e+08,235.82,12606,618.61,0,618.61,0,0.00083091,3.4895e-09,0,0.00042639,0.00015539,2.7232e+08,1024.8,0,1.3186e+08,177.03,618.61,1
2137,4.91,12073,1,12073,1,0.00013789,-2.3741e-09,0,0.00072771,-2.5218e-05,-1.4322e+06,-629.86,0,2.3849e+08,84.178,12072,13208,1,13208,1,0.0015321,2.8538e-09,0,0.0015321,0.00023419,3.7422e+08,781.02,0,5.0764e+08,845.96,13207,12073,1,12073,1,9.053e-05,-1.5897e-09,0,0.00073322,-1.6411e-05,3.1654e+07,-460.68,0,2.5633e+08,47.761,12072,10979,1,10979,1,-0.0012481,-9.7301e-09,0,1.2439e-05,-0.00028587,-5.0764e+08,-2687.7,0,5.5169e+06,-170.87,10978,11538,1,11538,1,-0.00063025,-4.8369e-09,0,0.00039942,-0.00015116,-2.5633e+08,-1327.8,0,1.3093e+08,-27.899,11537,12607,1,12607,1,0.00081132,6.193e-10,0,0.0010422,0.0001184,2.3635e+08,184.66,0,3.401e+08,121.29,12606,618.61,0,618.61,0,0.00083279,3.3864e-09,0,0.0004275,0.00015574,2.7264e+08,941.5,0,1.3202e+08,165.94,618.61,1
2137,4.92,12073,1,12073,1,0.00013889,-2.0248e-09,0,0.00072938,-2.5401e-05,-1.4346e+06,-582.37,0,2.3876e+08,81.967,12072,13208,1,13208,1,0.0015362,4.9159e-09,0,0.0015362,0.00023458,3.7423e+08,1278.8,0,5.085e+08,918.63,13207,12073,1,12073,1,9.1419e-05,-1.6809e-09,0,0.00073416,-1.6576e-05,3.194e+07,-458.49,0,2.5662e+08,33.556,12072,10979,1,10979,1,-0.0012502,-8.0425e-09,0,1.1779e-05,-0.00028664,-5.085e+08,-2360.6,0,5.269e+06,-180.42,10978,11538,1,11538,1,-0.00063097,-4.1689e-09,0,0.00040101,-0.00015162,-2.5662e+08,-1210.4,0,1.3131e+08,-38.7,11537,12607,1,12607,1,0.00081383,3.1452e-10,0,0.0010438,0.00011853,2.3667e+08,93.754,0,3.4058e+08,129.78,12606,618.61,0,618.61,0,0.00083465,2.7896e-09,0,0.0004286,0.00015608,2.7295e+08,809.8,0,1.3218e+08,182.54,618.61,1
2137,4.93,12073,1,12073,1,0.0001399,8.9241e-10,0,0.00073109,-2.5587e-05,-1.4365e+06,237.47,0,2.3904e+08,70.956,12072,13208,1,13208,1,0.0015404,4.1528e-09,0,0.0015404,0.00023499,3.7427e+08,1052.9,0,5.0936e+08,735.83,13207,12073,1,12073,1,9.2326e-05,7.5077e-10,0,0.00073515,-1.6743e-05,3.2232e+07,211.76,0,2.5693e+08,32.178,12072,10979,1,10979,1,-0.0012523,-9.8958e-10,0,1.1109e-05,-0.00028741,-5.0936e+08,-306.95,0,5.0172e+06,-183.19,10978,11538,1,11538,1,-0.00063172,-8.6161e-11,0,0.00040262,-0.00015209,-2.5693e+08,-27.392,0,1.3169e+08,-29.472,11537,12607,1,12607,1,0.00081637,1.7864e-09,0,0.0010455,0.00011867,2.37e+08,468.86,0,3.4107e+08,124.87,12606,618.61,0,618.61,0,0.00083656,1.1285e-09,0,0.00042973,0.00015644,2.7328e+08,313.62,0,1.3234e+08,159.97,618.61,1
2137,4.94,12073,1,12073,1,0.00014093,1.7096e-09,0,0.00073278,-2.5775e-05,-1.4383e+06,494.07,0,2.3931e+08,82.252,12072,13208,1,13208,1,0.0015446,4.9e-09,0,0.0015446,0.00023538,3.7428e+08,1241,0,5.1022e+08,832.65,13207,12073,1,12073,1,9.324e-05,1.9456e-09,0,0.00073608,-1.6912e-05,3.2526e+07,573.47,0,2.5721e+08,37.142,12072,10979,1,10979,1,-0.0012544,-1.4372e-09,0,1.0425e-05,-0.00028818,-5.1022e+08,-492.22,0,4.7612e+06,-212.01,10978,11538,1,11538,1,-0.00063241,5.7892e-10,0,0.00040423,-0.00015256,-2.5721e+08,168.86,0,1.3206e+08,-42.738,11537,12607,1,12607,1,0.00081891,2.8346e-09,0,0.0010471,0.00011881,2.3733e+08,838.46,0,3.4154e+08,166.29,12606,618.61,0,618.61,0,0.00083843,1.4262e-09,0,0.00043084,0.00015679,2.7359e+08,409.43,0,1.325e+08,190.06,618.61,1
2137,4.95,12073,1,12073,1,0.00014195,1.7086e-09,0,0.00073447,-2.5963e-05,-1.4399e+06,521.57,0,2.3959e+08,129.62,12072,13208,1,13208,1,0.0015488,7.1408e-09,0,0.0015488,0.00023578,3.743e+08,2009.1,0,5.1109e+08,690.36,13207,12073,1,12073,1,9.4162e-05,1.3204e-09,0,0.00073703,-1.7081e-05,3.2822e+07,404.74,0,2.575e+08,82.359,12072,10979,1,10979,1,-0.0012566,-4.8633e-09,0,9.7396e-06,-0.00028896,-5.1109e+08,-1176.5,0,4.5044e+06,-178.15,10978,11538,1,11538,1,-0.00063313,1.3905e-11,0,0.00040585,-0.00015303,-2.575e+08,4.7665,0,1.3244e+08,1.2782,11537,12607,1,12607,1,0.00082148,3.4575e-09,0,0.0010488,0.00011894,2.3765e+08,1039.4,0,3.4203e+08,246.49,12606,618.61,0,618.61,0,0.00084032,2.4154e-09,0,0.00043196,0.00015714,2.739e+08,686.95,0,1.3265e+08,176.22,618.61,1
2137,4.96,12073,1,12073,1,0.00014298,2.819e-09,0,0.00073616,-2.6151e-05,-1.4421e+06,850.47,0,2.3985e+08,142.79,12072,13208,1,13208,1,0.001553,1.3902e-08,0,0.001553,0.00023618,3.7431e+08,4009.6,0,5.1194e+08,779.09,13207,12073,1,12073,1,9.5088e-05,1.6913e-09,0,0.00073796,-1.7251e-05,3.3119e+07,509.59,0,2.5779e+08,73.47,12072,10979,1,10979,1,-0.0012587,-4.4869e-09,0,9.0468e-06,-0.00028974,-5.1194e+08,-1081.1,0,4.2454e+06,-867.2,10978,11538,1,11538,1,-0.00063383,1.1284e-10,0,0.00040746,-0.00015351,-2.5779e+08,34.152,0,1.3282e+08,-13.543,11537,12607,1,12607,1,0.00082404,5.0549e-09,0,0.0010504,0.00011907,2.3797e+08,1542.8,0,3.425e+08,300.86,12606,618.61,0,618.61,0,0.00084219,3.7105e-09,0,0.00043308,0.00015749,2.7421e+08,1071.3,0,1.3281e+08,235.53,618.61,1
2137,4.97,12073,1,12073,1,0.00014402,5.0903e-10,0,0.00073786,-2.6341e-05,-1.4441e+06,202.98,0,2.4012e+08,110.1,12072,13208,1,13208,1,0.0015572,7.4521e-09,0,0.0015572,0.00023657,3.7432e+08,2279.3,0,5.1279e+08,992.48,13207,12073,1,12073,1,9.6017e-05,4.241e-10,0,0.0007389,-1.7422e-05,3.3416e+07,133.9,0,2.5808e+08,51.001,12072,10979,1,10979,1,-0.0012608,-6.4052e-09,0,8.3494e-06,-0.00029051,-5.1279e+08,-1589.5,0,3.9847e+06,-532.89,10978,11538,1,11538,1,-0.00063454,-1.3113e-09,0,0.00040909,-0.00015398,-2.5808e+08,-333.92,0,1.332e+08,-24.587,11537,12607,1,12607,1,0.00082659,2.3393e-09,0,0.001052,0.00011921,2.3829e+08,726.96,0,3.4298e+08,200.34,12606,618.61,0,618.61,0,0.00084408,2.8536e-09,0,0.0004342,0.00015784,2.7452e+08,812.73,0,1.3296e+08,218.45,618.61,1
2137,4.98,12073,1,12073,1,0.00014506,2.0203e-10,0,0.00073956,-2.6531e-05,-1.4463e+06,92.206,0,2.4039e+08,89.967,12072,13208,1,13208,1,0.0015613,8.9404e-09,0,0.0015613,0.00023696,3.7432e+08,2857.8,0,5.1364e+08,979.22,13207,12073,1,12073,1,9.6948e-05,1.0411e-10,0,0.00073984,-1.7593e-05,3.3713e+07,27.682,0,2.5836e+08,49.756,12072,10979,1,10979,1,-0.0012628,-6.0034e-09,0,7.6517e-06,-0.00029128,-5.1364e+08,-1653.3,0,3.7245e+06,-1499.6,10978,11538,1,11538,1,-0.00063524,-1.3597e-09,0,0.00041073,-0.00015445,-2.5836e+08,-361.34,0,1.3358e+08,-19.614,11537,12607,1,12607,1,0.00082915,1.373e-09,0,0.0010536,0.00011934,2.386e+08,429.32,0,3.4345e+08,131.95,12606,618.61,0,618.61,0,0.00084597,2.433e-09,0,0.00043534,0.00015819,2.7483e+08,688.99,0,1.3312e+08,199.92,618.61,1
2137,4.99,12073,1,12073,1,0.0001461,-1.1577e-10,0,0.00074124,-2.6723e-05,-1.4482e+06,-22.434,0,2.4065e+08,115.81,12072,13208,1,13208,1,0.0015655,9.91e-09,0,0.0015655,0.00023735,3.7431e+08,2609.5,0,5.1448e+08,862.72,13207,12073,1,12073,1,9.7885e-05,-3.7514e-10,0,0.00074075,-1.7766e-05,3.4012e+07,-109.59,0,2.5864e+08,72.263,12072,10979,1,10979,1,-0.0012649,-8.5414e-09,0,6.9449e-06,-0.00029205,-5.1448e+08,-2202.3,0,3.461e+06,-250.12,10978,11538,1,11538,1,-0.00063592,-2.1129e-09,0,0.00041237,-0.00015492,-2.5864e+08,-605.47,0,1.3395e+08,-20.937,11537,12607,1,12607,1,0.0008317,1.7139e-09,0,0.0010553,0.00011947,2.3891e+08,492.73,0,3.4391e+08,191.5,12606,618.61,0,618.61,0,0.00084784,3.4253e-09,0,0.00043646,0.00015853,2.7513e+08,958,0,1.3327e+08,201.89,618.61,1
2137,5,12073,1,12073,1,0.00014716,9.2449e-10,0,0.00074295,-2.6915e-05,-1.4502e+06,277.11,0,2.4092e+08,64.415,12072,13208,1,13208,1,0.0015698,5.0555e-09,0,0.0015698,0.00023775,3.7431e+08,1272.9,0,5.1534e+08,965.26,13207,12073,1,12073,1,9.8829e-05,8.8543e-10,0,0.00074169,-1.794e-05,3.4313e+07,253.27,0,2.5892e+08,13.67,12072,10979,1,10979,1,-0.001267,-3.2028e-09,0,6.2374e-06,-0.00029284,-5.1534e+08,-781.71,0,3.1975e+06,-293.89,10978,11538,1,11538,1,-0.00063662,5.7384e-11,0,0.00041402,-0.0001554,-2.5892e+08,17.219,0,1.3434e+08,-63.251,11537,12607,1,12607,1,0.0008343,1.6055e-09,0,0.0010569,0.0001196,2.3924e+08,486.47,0,3.4439e+08,124.11,12606,618.61,0,618.61,0,0.00084974,1.216e-09,0,0.0004376,0.00015889,2.7544e+08,343.86,0,1.3343e+08,218.46,618.61,1
2137,5.01,12073,1,12073,1,0.00014822,7.8012e-10,0,0.00074467,-2.711e-05,-1.4521e+06,245.81,0,2.4118e+08,90.453,12072,13208,1,13208,1,0.001574,6.8742e-09,0,0.001574,0.00023814,3.743e+08,1764.6,0,5.162e+08,839.09,13207,12073,1,12073,1,9.9787e-05,3.7475e-10,0,0.00074261,-1.8116e-05,3.4617e+07,114.02,0,2.592e+08,31.946,12072,10979,1,10979,1,-0.0012691,-4.1142e-09,0,5.5141e-06,-0.00029363,-5.162e+08,-985.01,0,2.9283e+06,-201.8,10978,11538,1,11538,1,-0.00063731,-3.8052e-10,0,0.00041568,-0.00015588,-2.592e+08,-91.588,0,1.3472e+08,-26.049,11537,12607,1,12607,1,0.0008369,1.6846e-09,0,0.0010585,0.00011974,2.3955e+08,531.03,0,3.4487e+08,154.77,12606,618.61,0,618.61,0,0.00085165,1.7872e-09,0,0.00043874,0.00015924,2.7575e+08,496.34,0,1.3358e+08,186.85,618.61,1
2137,5.02,12073,1,12073,1,0.00014929,4.0292e-09,0,0.00074635,-2.7305e-05,-1.4537e+06,1186.7,0,2.4143e+08,97.576,12072,13208,1,13208,1,0.0015783,1.9166e-08,0,0.0015783,0.00023854,3.7428e+08,5506.2,0,5.1705e+08,992.71,13207,12073,1,12073,1,0.00010075,2.4758e-09,0,0.00074349,-1.8293e-05,3.4923e+07,723.63,0,2.5947e+08,65.351,12072,10979,1,10979,1,-0.0012712,-6.9919e-09,0,4.7855e-06,-0.00029441,-5.1705e+08,-1735.3,0,2.6572e+06,-403.83,10978,11538,1,11538,1,-0.00063796,6.3898e-11,0,0.00041732,-0.00015636,-2.5947e+08,18.119,0,1.3509e+08,-51.6,11537,12607,1,12607,1,0.00083951,7.476e-09,0,0.0010602,0.00011986,2.3986e+08,2200.8,0,3.4532e+08,233.32,12606,618.61,0,618.61,0,0.00085352,5.395e-09,0,0.00043987,0.00015959,2.7604e+08,1551.1,0,1.3373e+08,236.54,618.61,1
2137,5.03,12073,1,12073,1,0.00015036,-1.0356e-09,0,0.00074809,-2.7501e-05,-1.4562e+06,-231.95,0,2.417e+08,99.094,12072,13208,1,13208,1,0.0015825,2.8989e-09,0,0.0015825,0.00023893,3.7427e+08,992.52,0,5.1789e+08,1273.8,13207,12073,1,12073,1,0.00010172,-6.5716e-10,0,0.00074445,-1.8471e-05,3.523e+07,-183.68,0,2.5976e+08,10.886,12072,10979,1,10979,1,-0.0012733,-5.3311e-09,0,4.0546e-06,-0.0002952,-5.1789e+08,-1283.3,0,2.3854e+06,-185.7,10978,11538,1,11538,1,-0.00063868,-2.7822e-09,0,0.00041901,-0.00015684,-2.5976e+08,-687.71,0,1.3548e+08,-49.276,11537,12607,1,12607,1,0.00084212,5.7867e-10,0,0.0010618,0.00012,2.4017e+08,192.67,0,3.458e+08,156.7,12606,618.61,0,618.61,0,0.00085545,1.831e-09,0,0.00044103,0.00015995,2.7635e+08,483.81,0,1.3389e+08,248.08,618.61,1
2137,5.04,12073,1,12073,1,0.00015145,6.2368e-10,0,0.00074982,-2.7701e-05,-1.4585e+06,206.72,0,2.4196e+08,123.31,12072,13208,1,13208,1,0.0015868,4.2465e-09,0,0.0015868,0.00023933,3.7424e+08,1453.7,0,5.1875e+08,1115.3,13207,12073,1,12073,1,0.00010269,6.9804e-10,0,0.00074537,-1.8652e-05,3.5539e+07,203.94,0,2.6004e+08,35.051,12072,10979,1,10979,1,-0.0012754,-3.2359e-09,0,3.3146e-06,-0.00029599,-5.1875e+08,-789.92,0,2.1106e+06,-180.49,10978,11538,1,11538,1,-0.00063936,-1.1343e-10,0,0.0004207,-0.00015733,-2.6004e+08,-27.242,0,1.3587e+08,-30.815,11537,12607,1,12607,1,0.00084476,1.4191e-09,0,0.0010634,0.00012012,2.4048e+08,446.02,0,3.4627e+08,199.51,12606,618.61,0,618.61,0,0.00085737,1.037e-09,0,0.0004422,0.00016031,2.7666e+08,314.46,0,1.3405e+08,243.59,618.61,1
2137,5.05,12073,1,12073,1,0.00015254,2.2221e-09,0,0.00075152,-2.7901e-05,-1.4601e+06,665.8,0,2.4221e+08,159.41,12072,13208,1,13208,1,0.0015911,1.0974e-08,0,0.0015911,0.00023972,3.742e+08,3033.3,0,5.1959e+08,1084.5,13207,12073,1,12073,1,0.00010368,1.5971e-09,0,0.00074624,-1.8833e-05,3.585e+07,497.06,0,2.603e+08,91.25,12072,10979,1,10979,1,-0.0012775,-6.2004e-09,0,2.5641e-06,-0.00029678,-5.1959e+08,-1454.2,0,1.8319e+06,-249.76,10978,11538,1,11538,1,-0.00064,4.0332e-11,0,0.00042238,-0.00015782,-2.603e+08,10.183,0,1.3625e+08,-3.475,11537,12607,1,12607,1,0.00084738,4.0923e-09,0,0.001065,0.00012025,2.4079e+08,1226.3,0,3.4672e+08,259.77,12606,618.61,0,618.61,0,0.00085925,3.1749e-09,0,0.00044334,0.00016066,2.7694e+08,880.11,0,1.342e+08,248.31,618.61,1
2137,5.06,12073,1,12073,1,0.00015364,-2.3518e-10,0,0.00075325,-2.8101e-05,-1.4625e+06,-21.09,0,2.4247e+08,166.54,12072,13208,1,13208,1,0.0015954,4.6902e-09,0,0.0015954,0.00024011,3.7417e+08,1314.8,0,5.2044e+08,1277,13207,12073,1,12073,1,0.00010466,8.0677e-11,0,0.00074717,-1.9014e-05,3.6161e+07,24.455,0,2.6058e+08,64.642,12072,10979,1,10979,1,-0.0012796,-6.5022e-09,0,1.8156e-06,-0.00029758,-5.2044e+08,-1536.6,0,1.5542e+06,-65.136,10978,11538,1,11538,1,-0.00064069,-1.3819e-09,0,0.00042408,-0.0001583,-2.6058e+08,-342.45,0,1.3663e+08,16.985,11537,12607,1,12607,1,0.00085003,9.2524e-10,0,0.0010666,0.00012038,2.411e+08,304.38,0,3.472e+08,224.59,12606,618.61,0,618.61,0,0.00086118,1.6928e-09,0,0.00044451,0.00016101,2.7725e+08,450.48,0,1.3435e+08,240.86,618.61,1
2137,5.07,12073,1,12073,1,0.00015474,3.8404e-09,0,0.00075496,-2.8303e-05,-1.4642e+06,1125.8,0,2.4271e+08,166.78,12072,13208,1,13208,1,0.0015997,1.3123e-08,0,0.0015997,0.0002405,3.7413e+08,3598.1,0,5.2129e+08,1291.1,13207,12073,1,12073,1,0.00010566,3.7735e-09,0,0.00074802,-1.9198e-05,3.6476e+07,1134.9,0,2.6083e+08,86.302,12072,10979,1,10979,1,-0.0012817,-4.5173e-09,0,1.0546e-06,-0.00029838,-5.2129e+08,-1035.6,0,1.272e+06,-369.32,10978,11538,1,11538,1,-0.00064132,1.1668e-09,0,0.00042577,-0.00015879,-2.6083e+08,309.5,0,1.3701e+08,-47.382,11537,12607,1,12607,1,0.00085268,6.132e-09,0,0.0010682,0.0001205,2.414e+08,1864.3,0,3.4764e+08,317.61,12606,618.61,0,618.61,0,0.00086307,3.4691e-09,0,0.00044567,0.00016137,2.7753e+08,983.91,0,1.345e+08,324.94,618.61,1
2137,5.08,12073,1,12073,1,0.00015585,4.344e-09,0,0.00075666,-2.8505e-05,-1.4648e+06,1316.4,0,2.4296e+08,133.47,12072,13208,1,13208,1,0.001604,2.0887e-08,0,0.001604,0.00024089,3.7408e+08,5968.6,0,5.2213e+08,1234.4,13207,12073,1,12073,1,0.00010666,2.7415e-09,0,0.0007489,-1.9381e-05,3.6792e+07,812.18,0,2.6109e+08,76.694,12072,10979,1,10979,1,-0.0012837,-6.8568e-09,0,2.8752e-07,-0.00029918,-5.2213e+08,-1604.7,0,9.8747e+05,-456.91,10978,11538,1,11538,1,-0.00064196,1.7408e-11,0,0.00042746,-0.00015928,-2.6109e+08,5.6821,0,1.3739e+08,-46.37,11537,12607,1,12607,1,0.00085534,7.945e-09,0,0.0010698,0.00012062,2.4171e+08,2391.5,0,3.4809e+08,281.11,12606,618.61,0,618.61,0,0.00086496,5.8502e-09,0,0.00044682,0.00016172,2.7782e+08,1679.6,0,1.3465e+08,268.54,618.61,1
2137,5.09,12073,1,12073,1,0.00015696,-3.6818e-10,0,0.00075844,-2.8708e-05,-1.4679e+06,-3.73,0,2.4321e+08,133.31,12072,13208,1,13208,1,0.0016083,5.6774e-09,0,0.0016083,0.00024128,3.7404e+08,1520.2,0,5.2297e+08,1446.2,13207,12073,1,12073,1,0.00010767,1.5987e-10,0,0.00075074,-1.9566e-05,3.7106e+07,44.866,0,2.6137e+08,35.348,12072,10979,1,10979,1,-0.0012858,-8.8029e-09,0,4.4824e-07,-0.00029997,-5.2297e+08,-2098.6,0,7.0413e+05,-214.47,10978,11538,1,11538,1,-0.00064265,-2.8191e-09,0,0.00042827,-0.00015977,-2.6137e+08,-676.16,0,1.3778e+08,-32.892,11537,12607,1,12607,1,0.00085799,1.7961e-09,0,0.0010724,0.00012075,2.42e+08,580.34,0,3.4857e+08,201.27,12606,618.61,0,618.61,0,0.0008669,2.909e-09,0,0.00044795,0.00016208,2.7812e+08,789.79,0,1.3481e+08,282.63,618.61,1
2137,5.1,12073,1,12073,1,0.00015808,1.6778e-09,0,0.00076024,-2.8914e-05,-1.47e+06,546.29,0,2.4346e+08,149.2,12072,13208,1,13208,1,0.0016127,6.8375e-09,0,0.0016127,0.00024167,3.7397e+08,1938.3,0,5.2382e+08,1304.6,13207,12073,1,12073,1,0.00010868,1.8395e-09,0,0.00075318,-1.9753e-05,3.7424e+07,537.44,0,2.6163e+08,60.243,12072,10979,1,10979,1,-0.0012879,-5.781e-09,0,1.2316e-06,-0.00030078,-5.2382e+08,-1325.7,0,4.175e+05,-218.49,10978,11538,1,11538,1,-0.00064329,-2.418e-10,0,0.00042845,-0.00016027,-2.6163e+08,-58.652,0,1.3817e+08,-27.712,11537,12607,1,12607,1,0.00086068,3.3702e-09,0,0.0010755,0.00012087,2.4231e+08,1070.7,0,3.4902e+08,229.9,12606,618.61,0,618.61,0,0.00086883,2.2975e-09,0,0.00044903,0.00016243,2.7841e+08,669.74,0,1.3496e+08,277.79,618.61,1
2137,5.11,12073,1,12073,1,0.00015922,2.5143e-09,0,0.00076204,-2.9122e-05,-1.4718e+06,788.72,0,2.4371e+08,155.47,12072,13208,1,13208,1,0.0016171,7.8066e-09,0,0.0016171,0.00024206,3.7392e+08,2316.5,0,5.2467e+08,1409.8,13207,12073,1,12073,1,0.00010971,2.7509e-09,0,0.00075564,-1.9942e-05,3.7746e+07,834.29,0,2.619e+08,56.052,12072,10979,1,10979,1,-0.00129,-6.2571e-09,0,2.019e-06,-0.00030159,-5.2467e+08,-1432,0,1.2641e+05,-232.69,10978,11538,1,11538,1,-0.00064393,3.0806e-10,0,0.00042862,-0.00016077,-2.619e+08,79.637,0,1.3856e+08,-31.83,11537,12607,1,12607,1,0.00086338,4.7589e-09,0,0.0010787,0.000121,2.4261e+08,1485.4,0,3.4948e+08,260.22,12606,618.61,0,618.61,0,0.00087076,2.7667e-09,0,0.00045013,0.00016279,2.787e+08,816.81,0,1.3511e+08,292.94,618.61,1
2137,5.12,12073,1,12073,1,0.00016037,7.9181e-10,0,0.00076383,-2.9331e-05,-1.4736e+06,305.89,0,2.4396e+08,186.01,12072,13208,1,13208,1,0.0016214,6.8214e-09,0,0.0016214,0.00024245,3.7384e+08,2019.6,0,5.255e+08,1599.8,13207,12073,1,12073,1,0.00011074,1.0786e-09,0,0.0007581,-2.0132e-05,3.8069e+07,317.8,0,2.6216e+08,53.755,12072,10979,1,10979,1,-0.001292,-6.438e-09,0,2.8121e-06,-0.00030239,-5.255e+08,-1464.1,0,1.5888e+05,-203.02,10978,11538,1,11538,1,-0.00064457,-9.5982e-10,0,0.00042878,-0.00016126,-2.6216e+08,-227.56,0,1.3895e+08,-19.608,11537,12607,1,12607,1,0.00086607,2.6112e-09,0,0.0010819,0.00012112,2.429e+08,846.42,0,3.4993e+08,296.92,12606,618.61,0,618.61,0,0.00087269,2.1956e-09,0,0.00045122,0.00016315,2.7899e+08,619.12,0,1.3524e+08,326.91,618.61,1
2137,5.13,12073,1,12073,1,0.00016151,-2.4446e-09,0,0.00076563,-2.954e-05,-1.4756e+06,-632.47,0,2.4422e+08,229.04,12072,13208,1,13208,1,0.0016257,6.2159e-09,0,0.0016257,0.00024283,3.7378e+08,1838.5,0,5.2634e+08,1720.6,13207,12073,1,12073,1,0.00011177,-2.1589e-09,0,0.00076059,-2.0322e-05,3.8391e+07,-644.24,0,2.6241e+08,111.79,12072,10979,1,10979,1,-0.0012941,-9.5732e-09,0,3.6109e-06,-0.00030319,-5.2634e+08,-2253.6,0,4.5382e+05,-137.31,10978,11538,1,11538,1,-0.0006452,-5.1546e-09,0,0.00042892,-0.00016176,-2.6241e+08,-1319.8,0,1.3934e+08,47.131,11537,12607,1,12607,1,0.00086875,-5.9977e-11,0,0.001085,0.00012124,2.432e+08,-17.816,0,3.5038e+08,288.9,12606,618.61,0,618.61,0,0.00087461,3.0809e-09,0,0.00045231,0.00016351,2.7927e+08,806.21,0,1.3536e+08,308.76,618.61,1
2137,5.14,12073,1,12073,1,0.00016266,1.9854e-09,0,0.00076742,-2.9751e-05,-1.478e+06,572.34,0,2.4448e+08,259.4,12072,13208,1,13208,1,0.0016301,1.3778e-08,0,0.0016301,0.00024322,3.737e+08,3364.9,0,5.2718e+08,1456.7,13207,12073,1,12073,1,0.00011281,1.256e-09,0,0.00076305,-2.0513e-05,3.8714e+07,379.01,0,2.6267e+08,153.35,12072,10979,1,10979,1,-0.0012961,-8.2052e-09,0,4.4196e-06,-0.000304,-5.2718e+08,-1903.8,0,7.5215e+05,-405.45,10978,11538,1,11538,1,-0.00064583,-1.9953e-11,0,0.00042908,-0.00016226,-2.6267e+08,-5.3756,0,1.3972e+08,52.457,11537,12607,1,12607,1,0.00087147,3.4753e-09,0,0.0010882,0.00012136,2.4349e+08,1025.7,0,3.5083e+08,390.96,12606,618.61,0,618.61,0,0.00087654,3.4657e-09,0,0.00045341,0.00016387,2.7955e+08,903.32,0,1.3547e+08,302.98,618.61,1
2137,5.15,12073,1,12073,1,0.00016382,1.0513e-09,0,0.00076921,-2.9962e-05,-1.4791e+06,334.24,0,2.4474e+08,217.85,12072,13208,1,13208,1,0.0016345,1.1767e-08,0,0.0016345,0.0002436,3.7361e+08,2898.2,0,5.28e+08,1552,13207,12073,1,12073,1,0.00011386,6.3573e-10,0,0.00076552,-2.0706e-05,3.9041e+07,197.51,0,2.6292e+08,99.307,12072,10979,1,10979,1,-0.0012982,-9.2478e-09,0,5.2286e-06,-0.00030481,-5.28e+08,-2167.9,0,1.0505e+06,-476.26,10978,11538,1,11538,1,-0.00064644,-5.1303e-10,0,0.00042922,-0.00016276,-2.6292e+08,-120.27,0,1.4011e+08,14.573,11537,12607,1,12607,1,0.00087418,2.6916e-09,0,0.0010914,0.00012147,2.4378e+08,823.37,0,3.5127e+08,329.4,12606,618.61,0,618.61,0,0.00087845,3.214e-09,0,0.0004545,0.00016422,2.7983e+08,850.65,0,1.3558e+08,311.05,618.61,1
2137,5.16,12073,1,12073,1,0.00016498,1.0265e-10,0,0.00077103,-3.0175e-05,-1.4813e+06,66.918,0,2.45e+08,195.31,12072,13208,1,13208,1,0.0016389,8.6462e-09,0,0.0016389,0.00024399,3.7353e+08,2204.7,0,5.2884e+08,1608.5,13207,12073,1,12073,1,0.00011491,1.3514e-10,0,0.00076803,-2.09e-05,3.9368e+07,38.422,0,2.6317e+08,72.382,12072,10979,1,10979,1,-0.0013002,-8.2898e-09,0,6.0403e-06,-0.00030562,-5.2884e+08,-1925.5,0,1.3493e+06,-870.02,10978,11538,1,11538,1,-0.00064708,-1.0418e-09,0,0.00042937,-0.00016326,-2.6317e+08,-258.4,0,1.405e+08,4.6631,11537,12607,1,12607,1,0.00087691,1.1292e-09,0,0.0010946,0.00012159,2.4408e+08,365.24,0,3.5173e+08,279.81,12606,618.61,0,618.61,0,0.0008804,2.2625e-09,0,0.00045561,0.00016458,2.8012e+08,592.26,0,1.357e+08,308.11,618.61,1
2137,5.17,12073,1,12073,1,0.00016616,-5.4576e-10,0,0.00077284,-3.0389e-05,-1.4831e+06,-135.51,0,2.4526e+08,223.79,12072,13208,1,13208,1,0.0016433,6.3899e-09,0,0.0016433,0.00024438,3.7344e+08,1775.9,0,5.2967e+08,1768.5,13207,12073,1,12073,1,0.00011597,-4.432e-10,0,0.00077053,-2.1096e-05,3.9698e+07,-117.68,0,2.6342e+08,76.209,12072,10979,1,10979,1,-0.0013023,-8.1709e-09,0,6.8687e-06,-0.00030644,-5.2967e+08,-1880.5,0,1.6546e+06,-145.97,10978,11538,1,11538,1,-0.00064769,-1.204e-09,0,0.0004295,-0.00016377,-2.6342e+08,-300.92,0,1.4089e+08,0.44981,11537,12607,1,12607,1,0.00087964,-7.6327e-13,0,0.0010978,0.00012171,2.4436e+08,-0.25878,0,3.5217e+08,318.93,12606,618.61,0,618.61,0,0.00088234,1.6681e-09,0,0.00045672,0.00016494,2.804e+08,452.9,0,1.3581e+08,346.49,618.61,1
2137,5.18,12073,1,12073,1,0.00016734,-9.9163e-10,0,0.00077464,-3.0605e-05,-1.4853e+06,-277.85,0,2.4551e+08,280.81,12072,13208,1,13208,1,0.0016477,9.028e-09,0,0.0016477,0.00024476,3.7334e+08,2102.4,0,5.3051e+08,1887.1,13207,12073,1,12073,1,0.00011705,-1.2144e-09,0,0.00077303,-2.1293e-05,4.0029e+07,-344.69,0,2.6367e+08,147.26,12072,10979,1,10979,1,-0.0013043,-9.6896e-09,0,7.6996e-06,-0.00030726,-5.3051e+08,-2267.6,0,1.9601e+06,-110.43,10978,11538,1,11538,1,-0.00064829,-2.1626e-09,0,0.00042963,-0.00016428,-2.6367e+08,-642.66,0,1.4128e+08,56.796,11537,12607,1,12607,1,0.0008824,2.9605e-10,0,0.0011011,0.00012182,2.4465e+08,80.618,0,3.5258e+08,367.09,12606,618.61,0,618.61,0,0.00088428,2.4037e-09,0,0.00045783,0.0001653,2.8067e+08,629.85,0,1.3592e+08,353.38,618.61,1
2137,5.19,12073,1,12073,1,0.00016853,-8.2282e-10,0,0.00077648,-3.0822e-05,-1.4871e+06,-257.53,0,2.4577e+08,271.53,12072,13208,1,13208,1,0.0016522,7.0836e-09,0,0.0016522,0.00024515,3.7324e+08,2001.5,0,5.3135e+08,1698.7,13207,12073,1,12073,1,0.00011813,-1.0298e-09,0,0.00077555,-2.1492e-05,4.0363e+07,-283.14,0,2.6392e+08,132.22,12072,10979,1,10979,1,-0.0013064,-7.9848e-09,0,8.5262e-06,-0.00030809,-5.3135e+08,-2414.3,0,2.2638e+06,-95.061,10978,11538,1,11538,1,-0.00064891,-2.0977e-09,0,0.00042976,-0.00016479,-2.6392e+08,-637.58,0,1.4168e+08,60.404,11537,12607,1,12607,1,0.00088518,4.0593e-10,0,0.0011043,0.00012194,2.4494e+08,100.5,0,3.5253e+08,351.15,12606,618.61,0,618.61,0,0.00088624,2.1287e-09,0,0.00045895,0.00016567,2.8095e+08,616.46,0,1.3603e+08,346.33,618.61,1
2137,5.2,12073,1,12073,1,0.00016973,1.0753e-09,0,0.00077829,-3.1041e-05,-1.4889e+06,255.93,0,2.4602e+08,325.94,12072,13208,1,13208,1,0.0016567,1.4917e-08,0,0.0016567,0.00024554,3.7314e+08,3447.8,0,5.3217e+08,1732.6,13207,12073,1,12073,1,0.00011922,2.3346e-10,0,0.00077809,-2.1692e-05,4.07e+07,59.741,0,2.6416e+08,213.06,12072,10979,1,10979,1,-0.0013084,-9.3075e-09,0,9.377e-06,-0.00030891,-5.3217e+08,-2140.8,0,2.5757e+06,-112.84,10978,11538,1,11538,1,-0.00064951,-7.6326e-10,0,0.00042987,-0.0001653,-2.6416e+08,-240.6,0,1.4207e+08,77.972,11537,12607,1,12607,1,0.00088795,2.4886e-09,0,0.0011076,0.00012206,2.4522e+08,668.73,0,3.5245e+08,443.16,12606,618.61,0,618.61,0,0.00088818,3.6096e-09,0,0.00046007,0.00016603,2.8122e+08,895.51,0,1.3614e+08,352.06,618.61,1
2137,5.21,12073,1,12073,1,0.00017093,7.7546e-11,0,0.0007801,-3.1261e-05,-1.4905e+06,-0.78269,0,2.4627e+08,358.47,12072,13208,1,13208,1,0.0016611,1.5859e-08,0,0.0016611,0.00024592,3.7301e+08,3713.8,0,5.33e+08,1890.8,13207,12073,1,12073,1,0.00012031,-1.442e-10,0,0.00078062,-2.1893e-05,4.1036e+07,-46.212,0,2.644e+08,223.73,12072,10979,1,10979,1,-0.0013105,-1.0886e-08,0,1.0234e-05,-0.00030973,-5.33e+08,-2544.4,0,2.8897e+06,-155.33,10978,11538,1,11538,1,-0.00065009,-2.1093e-09,0,0.00042998,-0.00016581,-2.644e+08,-617.41,0,1.4246e+08,92.816,11537,12607,1,12607,1,0.00089072,1.3809e-09,0,0.0011108,0.00012217,2.455e+08,385.47,0,3.5237e+08,499.94,12606,618.61,0,618.61,0,0.00089012,3.9133e-09,0,0.00046118,0.00016639,2.8149e+08,990.49,0,1.3624e+08,386,618.61,1
2137,5.22,12073,1,12073,1,0.00017214,-4.6568e-10,0,0.00078193,-3.1481e-05,-1.4922e+06,-158.72,0,2.4652e+08,323.67,12072,13208,1,13208,1,0.0016656,1.3039e-08,0,0.0016656,0.0002463,3.729e+08,3027,0,5.3383e+08,2005.5,13207,12073,1,12073,1,0.00012141,-5.4111e-10,0,0.00078316,-2.2095e-05,4.1374e+07,-168.85,0,2.6464e+08,173.61,12072,10979,1,10979,1,-0.0013125,-1.2006e-08,0,1.1087e-05,-0.00031056,-5.3383e+08,-2842.8,0,3.2021e+06,-184.83,10978,11538,1,11538,1,-0.00065068,-2.245e-09,0,0.00043009,-0.00016633,-2.6464e+08,-675.05,0,1.4285e+08,60.354,11537,12607,1,12607,1,0.00089351,8.7589e-10,0,0.0011141,0.00012228,2.4579e+08,204.02,0,3.523e+08,437.76,12606,618.61,0,618.61,0,0.00089207,3.4107e-09,0,0.00046231,0.00016675,2.8176e+08,870.44,0,1.3635e+08,404.3,618.61,1
2137,5.23,12073,1,12073,1,0.00017336,-1.2685e-09,0,0.00078377,-3.1704e-05,-1.4937e+06,-400.87,0,2.4677e+08,258.95,12072,13208,1,13208,1,0.0016701,8.9362e-09,0,0.0016701,0.00024669,3.7278e+08,2194.8,0,5.3467e+08,1954.3,13207,12073,1,12073,1,0.00012252,-1.6347e-09,0,0.00078572,-2.2299e-05,4.1715e+07,-443.34,0,2.6488e+08,97.046,12072,10979,1,10979,1,-0.0013146,-8.1302e-09,0,1.1952e-05,-0.0003114,-5.3467e+08,-2013.2,0,3.5183e+06,-188.39,10978,11538,1,11538,1,-0.00065127,-3.1751e-09,0,0.00043019,-0.00016685,-2.6488e+08,-971.46,0,1.4324e+08,-3.8613,11537,12607,1,12607,1,0.00089633,4.0652e-10,0,0.0011174,0.00012239,2.4607e+08,93.925,0,3.5222e+08,381.72,12606,618.61,0,618.61,0,0.00089404,2.4136e-09,0,0.00046345,0.00016712,2.8203e+08,698.88,0,1.3646e+08,408.07,618.61,1
2137,5.24,12073,1,12073,1,0.00017459,-2.3973e-09,0,0.0007856,-3.1928e-05,-1.4962e+06,-734.24,0,2.4701e+08,426.41,12072,13208,1,13208,1,0.0016747,1.5348e-08,0,0.0016747,0.00024707,3.7265e+08,3564.9,0,5.355e+08,2063,13207,12073,1,12073,1,0.00012364,-2.2468e-09,0,0.00078827,-2.2504e-05,4.2058e+07,-658.68,0,2.6511e+08,286.88,12072,10979,1,10979,1,-0.0013166,-1.4645e-08,0,1.2824e-05,-0.00031223,-5.355e+08,-3498.9,0,3.8364e+06,-237.83,10978,11538,1,11538,1,-0.00065184,-6.1753e-09,0,0.00043028,-0.00016736,-2.6511e+08,-1805.1,0,1.4364e+08,122.28,11537,12607,1,12607,1,0.00089915,9.1347e-10,0,0.0011207,0.0001225,2.4635e+08,215.95,0,3.5212e+08,592.89,12606,618.61,0,618.61,0,0.00089598,5.0918e-09,0,0.00046458,0.00016748,2.8229e+08,1368.3,0,1.3657e+08,434.54,618.61,1
2137,5.25,12073,1,12073,1,0.00017582,2.4469e-09,0,0.00078745,-3.2153e-05,-1.4982e+06,596.12,0,2.4726e+08,275.38,12072,13208,1,13208,1,0.0016792,1.3473e-08,0,0.0016792,0.00024745,3.7254e+08,3113,0,5.3632e+08,2270.5,13207,12073,1,12073,1,0.00012476,1.7997e-09,0,0.00079088,-2.2711e-05,4.2402e+07,496.78,0,2.6535e+08,73.524,12072,10979,1,10979,1,-0.0013186,-6.9009e-09,0,1.3698e-05,-0.00031306,-5.3632e+08,-1672.7,0,4.155e+06,-112.66,10978,11538,1,11538,1,-0.00065244,-2.5422e-10,0,0.00043038,-0.00016788,-2.6535e+08,-84.393,0,1.4404e+08,-3.7973,11537,12607,1,12607,1,0.00090196,5.086e-09,0,0.001124,0.00012262,2.4662e+08,1247.3,0,3.5204e+08,385.82,12606,618.61,0,618.61,0,0.00089797,3.3354e-09,0,0.00046573,0.00016785,2.8257e+08,825.14,0,1.3668e+08,447.94,618.61,1
2137,5.26,12073,1,12073,1,0.00017707,8.1084e-10,0,0.0007893,-3.2382e-05,-1.4994e+06,189.75,0,2.475e+08,261.58,12072,13208,1,13208,1,0.0016837,9.0415e-09,0,0.0016837,0.00024784,3.7239e+08,2240.1,0,5.3715e+08,2256.3,13207,12073,1,12073,1,0.00012589,1.1121e-09,0,0.00079349,-2.2921e-05,4.2748e+07,304.68,0,2.6558e+08,50.728,12072,10979,1,10979,1,-0.0013206,-9.7022e-09,0,1.4598e-05,-0.0003139,-5.3715e+08,-2969.8,0,4.4827e+06,-211.54,10978,11538,1,11538,1,-0.000653,-6.2632e-10,0,0.00043046,-0.00016841,-2.6558e+08,-191.8,0,1.4443e+08,-35.619,11537,12607,1,12607,1,0.00090479,2.6931e-09,0,0.0011273,0.00012272,2.469e+08,689.54,0,3.5194e+08,389.94,12606,618.61,0,618.61,0,0.00089994,2.6345e-09,0,0.00046688,0.00016821,2.8283e+08,730.72,0,1.3679e+08,477.42,618.61,1
2137,5.27,12073,1,12073,1,0.00017833,-1.7387e-09,0,0.00079115,-3.261e-05,-1.5018e+06,-501.95,0,2.4774e+08,429.93,12072,13208,1,13208,1,0.0016883,1.4364e-08,0,0.0016883,0.00024822,3.7225e+08,3251.7,0,5.3798e+08,2488.8,13207,12073,1,12073,1,0.00012703,-2.3015e-09,0,0.00079609,-2.313e-05,4.3096e+07,-668.4,0,2.6581e+08,272.75,12072,10979,1,10979,1,-0.0013227,-1.2601e-08,0,1.5496e-05,-0.00031475,-5.3798e+08,-2866,0,4.8091e+06,-151.43,10978,11538,1,11538,1,-0.00065357,-4.1408e-09,0,0.00043054,-0.00016893,-2.6581e+08,-1214.7,0,1.4483e+08,125.4,11537,12607,1,12607,1,0.00090766,4.8045e-10,0,0.0011307,0.00012283,2.4717e+08,123.56,0,3.5184e+08,576.62,12606,618.61,0,618.61,0,0.00090192,3.8321e-09,0,0.00046803,0.00016858,2.8309e+08,1000.6,0,1.369e+08,454.55,618.61,1
2137,5.28,12073,1,12073,1,0.00017959,2.3107e-11,0,0.000793,-3.2841e-05,-1.5035e+06,-45,0,2.4798e+08,404.16,12072,13208,1,13208,1,0.0016928,1.6486e-08,0,0.0016928,0.0002486,3.7209e+08,3746.9,0,5.388e+08,2398.4,13207,12073,1,12073,1,0.00012819,-6.1248e-10,0,0.0007987,-2.3342e-05,4.3447e+07,-177.59,0,2.6604e+08,218.13,12072,10979,1,10979,1,-0.0013247,-1.2274e-08,0,1.6399e-05,-0.00031559,-5.388e+08,-2780.5,0,5.1363e+06,-110.85,10978,11538,1,11538,1,-0.00065413,-2.18e-09,0,0.00043062,-0.00016946,-2.6604e+08,-680.44,0,1.4523e+08,80.775,11537,12607,1,12607,1,0.00091051,1.5207e-09,0,0.001134,0.00012294,2.4744e+08,378.45,0,3.5173e+08,550.23,12606,618.61,0,618.61,0,0.00090389,3.8909e-09,0,0.00046918,0.00016895,2.8335e+08,977.2,0,1.37e+08,473.89,618.61,1
2137,5.29,12073,1,12073,1,0.00018085,-2.2983e-09,0,0.00079485,-3.3072e-05,-1.5049e+06,-692.25,0,2.4821e+08,403.3,12072,13208,1,13208,1,0.0016974,1.4526e-08,0,0.0016974,0.00024898,3.7193e+08,3245.2,0,5.3962e+08,2562.8,13207,12073,1,12073,1,0.00012934,-2.6346e-09,0,0.0008013,-2.3554e-05,4.3798e+07,-779.88,0,2.6626e+08,193.61,12072,10979,1,10979,1,-0.0013267,-1.5204e-08,0,1.731e-05,-0.00031644,-5.3962e+08,-3517.9,0,5.4664e+06,-159,10978,11538,1,11538,1,-0.00065467,-5.0011e-09,0,0.00043067,-0.00016999,-2.6626e+08,-1510.4,0,1.4562e+08,65.104,11537,12607,1,12607,1,0.00091338,3.7956e-10,0,0.0011374,0.00012304,2.4771e+08,102.81,0,3.5161e+08,577.49,12606,618.61,0,618.61,0,0.00090585,4.2079e-09,0,0.00047033,0.00016931,2.8361e+08,1107.9,0,1.371e+08,502.92,618.61,1
2137,5.3,12073,1,12073,1,0.00018213,3.3707e-09,0,0.00079671,-3.3304e-05,-1.5068e+06,860.54,0,2.4845e+08,375.15,12072,13208,1,13208,1,0.001702,1.8367e-08,0,0.001702,0.00024936,3.7179e+08,4174.8,0,5.4044e+08,2671.8,13207,12073,1,12073,1,0.0001305,3.4947e-09,0,0.00080396,-2.3769e-05,4.415e+07,974.64,0,2.6649e+08,141.8,12072,10979,1,10979,1,-0.0013287,-9.1693e-09,0,1.8222e-05,-0.00031728,-5.4044e+08,-2478.2,0,5.7957e+06,-186.19,10978,11538,1,11538,1,-0.00065523,5.5201e-12,0,0.00043074,-0.00017052,-2.6649e+08,2.2466,0,1.4602e+08,28.709,11537,12607,1,12607,1,0.00091624,6.3622e-09,0,0.0011407,0.00012315,2.4798e+08,1625.1,0,3.515e+08,524.24,12606,618.61,0,618.61,0,0.00090784,4.2232e-09,0,0.0004715,0.00016968,2.8387e+08,1070.8,0,1.3721e+08,544.88,618.61,1
2137,5.31,12073,1,12073,1,0.00018342,4.0575e-09,0,0.00079858,-3.3539e-05,-1.5084e+06,1125.2,0,2.4868e+08,397.71,12072,13208,1,13208,1,0.0017066,1.7525e-08,0,0.0017066,0.00024974,3.7162e+08,3969,0,5.4127e+08,2630.3,13207,12073,1,12073,1,0.00013167,4.6246e-09,0,0.00080659,-2.3985e-05,4.4505e+07,1266.3,0,2.6671e+08,185.27,12072,10979,1,10979,1,-0.0013308,-1.124e-08,0,1.9159e-05,-0.00031814,-5.4127e+08,-2514.6,0,6.1335e+06,-242.2,10978,11538,1,11538,1,-0.00065577,5.5285e-10,0,0.00043079,-0.00017105,-2.6671e+08,154.97,0,1.4642e+08,43.522,11537,12607,1,12607,1,0.00091915,7.314e-09,0,0.0011441,0.00012325,2.4825e+08,2090.3,0,3.5138e+08,543.65,12606,618.61,0,618.61,0,0.00090983,4.5022e-09,0,0.00047267,0.00017005,2.8412e+08,1211.1,0,1.3732e+08,553.65,618.61,1
2137,5.32,12073,1,12073,1,0.00018471,-1.0507e-09,0,0.00080045,-3.3776e-05,-1.5102e+06,-237.6,0,2.4892e+08,441.81,12072,13208,1,13208,1,0.0017112,9.7647e-09,0,0.0017112,0.00025012,3.7145e+08,3099.8,0,5.4208e+08,2993.8,13207,12073,1,12073,1,0.00013286,-3.6547e-10,0,0.00080926,-2.4202e-05,4.4864e+07,-92.175,0,2.6693e+08,224.71,12072,10979,1,10979,1,-0.0013328,-1.7393e-08,0,2.0087e-05,-0.00031899,-5.4208e+08,-4567.9,0,6.4674e+06,-163.78,10978,11538,1,11538,1,-0.00065633,-2.4722e-09,0,0.00043085,-0.00017159,-2.6694e+08,-623.78,0,1.4682e+08,57.19,11537,12607,1,12607,1,0.00092205,1.2774e-09,0,0.0011475,0.00012336,2.4851e+08,389.34,0,3.5126e+08,614.67,12606,618.61,0,618.61,0,0.00091182,3.9459e-09,0,0.00047384,0.00017042,2.8438e+08,1100.6,0,1.3742e+08,561.94,618.61,1
2137,5.33,12073,1,12073,1,0.00018602,-1.7961e-09,0,0.00080233,-3.4013e-05,-1.5128e+06,-503.18,0,2.4915e+08,560.31,12072,13208,1,13208,1,0.0017159,2.0453e-08,0,0.0017159,0.0002505,3.7128e+08,4487.1,0,5.4291e+08,3063.9,13207,12073,1,12073,1,0.00013405,-1.9337e-09,0,0.00081193,-2.442e-05,4.5222e+07,-586.05,0,2.6715e+08,393.81,12072,10979,1,10979,1,-0.0013348,-1.6666e-08,0,2.103e-05,-0.00031985,-5.4291e+08,-3922.4,0,6.8063e+06,-87.456,10978,11538,1,11538,1,-0.00065687,-5.0845e-09,0,0.00043089,-0.00017213,-2.6715e+08,-1393.7,0,1.4722e+08,149.63,11537,12607,1,12607,1,0.00092497,5.1186e-10,0,0.0011509,0.00012346,2.4878e+08,134.45,0,3.5112e+08,742.11,12606,618.61,0,618.61,0,0.00091382,5.323e-09,0,0.00047503,0.00017079,2.8463e+08,1339.5,0,1.3753e+08,571.5,618.61,1
2137,5.34,12073,1,12073,1,0.00018733,3.5277e-10,0,0.00080422,-3.4254e-05,-1.5138e+06,58.017,0,2.4938e+08,510.46,12072,13208,1,13208,1,0.0017206,2.2116e-08,0,0.0017206,0.00025088,3.7109e+08,4887.1,0,5.4372e+08,2918.8,13207,12073,1,12073,1,0.00013525,-2.6531e-10,0,0.00081462,-2.4642e-05,4.5585e+07,-79.755,0,2.6737e+08,286.36,12072,10979,1,10979,1,-0.0013368,-1.5241e-08,0,2.1984e-05,-0.00032071,-5.4372e+08,-3462.2,0,7.1475e+06,-105.26,10978,11538,1,11538,1,-0.0006574,-1.763e-09,0,0.00043093,-0.00017267,-2.6737e+08,-492.49,0,1.4763e+08,96.603,11537,12607,1,12607,1,0.0009279,1.7464e-09,0,0.0011544,0.00012356,2.4903e+08,460.72,0,3.5099e+08,707.89,12606,618.61,0,618.61,0,0.00091583,4.8638e-09,0,0.00047621,0.00017116,2.8488e+08,1201.5,0,1.3763e+08,587.26,618.61,1
2137,5.35,12073,1,12073,1,0.00018865,3.2258e-09,0,0.0008061,-3.4495e-05,-1.516e+06,869.1,0,2.496e+08,500.19,12072,13208,1,13208,1,0.0017252,1.974e-08,0,0.0017252,0.00025126,3.709e+08,4314.1,0,5.4455e+08,3199,13207,12073,1,12073,1,0.00013646,3.9354e-09,0,0.00081731,-2.4865e-05,4.5948e+07,1066.5,0,2.6758e+08,222.53,12072,10979,1,10979,1,-0.0013388,-1.3378e-08,0,2.2945e-05,-0.00032158,-5.4455e+08,-3863.8,0,7.4909e+06,-145.93,10978,11538,1,11538,1,-0.00065791,2.7299e-10,0,0.00043096,-0.00017321,-2.6758e+08,76.876,0,1.4803e+08,72.914,11537,12607,1,12607,1,0.00093085,6.2382e-09,0,0.0011578,0.00012366,2.493e+08,1767.2,0,3.5084e+08,685,12606,618.61,0,618.61,0,0.00091783,4.6186e-09,0,0.0004774,0.00017153,2.8513e+08,1241.8,0,1.3773e+08,654.92,618.61,1
2137,5.36,12073,1,12073,1,0.00018999,-2.7588e-09,0,0.00080799,-3.4738e-05,-1.5172e+06,-746.43,0,2.4983e+08,560.08,12072,13208,1,13208,1,0.0017299,2.1052e-08,0,0.0017299,0.00025164,3.7072e+08,4614.9,0,5.4537e+08,3545.3,13207,12073,1,12073,1,0.00013767,-2.6586e-09,0,0.00082001,-2.5088e-05,4.6314e+07,-811.69,0,2.6779e+08,370.71,12072,10979,1,10979,1,-0.0013409,-1.8975e-08,0,2.3916e-05,-0.00032244,-5.4537e+08,-4214,0,7.8366e+06,-174.32,10978,11538,1,11538,1,-0.00065844,-6.8175e-09,0,0.00043098,-0.00017375,-2.6779e+08,-1904.5,0,1.4843e+08,124.72,11537,12607,1,12607,1,0.0009338,6.329e-10,0,0.0011613,0.00012376,2.4956e+08,148.61,0,3.5069e+08,743.04,12606,618.61,0,618.61,0,0.00091983,6.0412e-09,0,0.00047859,0.0001719,2.8538e+08,1531.8,0,1.3784e+08,636.41,618.61,1
2137,5.37,12073,1,12073,1,0.00019132,6.3916e-10,0,0.00080987,-3.4982e-05,-1.519e+06,136.53,0,2.5005e+08,541.56,12072,13208,1,13208,1,0.0017346,2.2837e-08,0,0.0017346,0.00025201,3.7051e+08,5017.8,0,5.4617e+08,3421.9,13207,12073,1,12073,1,0.0001389,1.4134e-11,0,0.00082272,-2.5313e-05,4.6681e+07,4.2183,0,2.68e+08,259.97,12072,10979,1,10979,1,-0.0013428,-1.7166e-08,0,2.4887e-05,-0.00032331,-5.4617e+08,-3761.5,0,8.1815e+06,-75.188,10978,11538,1,11538,1,-0.00065895,-1.1218e-09,0,0.000431,-0.0001743,-2.68e+08,-316.77,0,1.4883e+08,83.493,11537,12607,1,12607,1,0.00093675,2.1907e-09,0,0.0011647,0.00012386,2.498e+08,559.8,0,3.5054e+08,740.77,12606,618.61,0,618.61,0,0.00092183,4.8924e-09,0,0.00047979,0.00017228,2.8562e+08,1224.1,0,1.3794e+08,671.24,618.61,1
2137,5.38,12073,1,12073,1,0.00019267,-8.4566e-10,0,0.00081177,-3.5228e-05,-1.5205e+06,-265.23,0,2.5027e+08,556.32,12072,13208,1,13208,1,0.0017393,2.1553e-08,0,0.0017393,0.00025239,3.7031e+08,4707,0,5.4699e+08,3453.2,13207,12073,1,12073,1,0.00014013,-1.0903e-09,0,0.00082543,-2.554e-05,4.7049e+07,-331.69,0,2.6821e+08,336.92,12072,10979,1,10979,1,-0.0013448,-1.8755e-08,0,2.5865e-05,-0.00032418,-5.4699e+08,-4371.6,0,8.528e+06,-204.95,10978,11538,1,11538,1,-0.00065946,-4.0462e-09,0,0.00043101,-0.00017485,-2.6821e+08,-1169.1,0,1.4923e+08,93.198,11537,12607,1,12607,1,0.00093974,1.5331e-09,0,0.0011682,0.00012396,2.5006e+08,388.29,0,3.5039e+08,751.48,12606,618.61,0,618.61,0,0.00092385,5.4171e-09,0,0.00048099,0.00017265,2.8587e+08,1388.3,0,1.3804e+08,675.22,618.61,1
2137,5.39,12073,1,12073,1,0.00019403,-4.0553e-10,0,0.00081368,-3.5475e-05,-1.5228e+06,-181.66,0,2.505e+08,577.44,12072,13208,1,13208,1,0.0017441,2.0862e-08,0,0.0017441,0.00025277,3.701e+08,4472.4,0,5.4781e+08,3634,13207,12073,1,12073,1,0.00014137,-6.6839e-10,0,0.00082817,-2.5769e-05,4.742e+07,-182.66,0,2.6842e+08,263.1,12072,10979,1,10979,1,-0.0013469,-1.6744e-08,0,2.6853e-05,-0.00032506,-5.4781e+08,-5337.7,0,8.8764e+06,-51.777,10978,11538,1,11538,1,-0.00065998,-2.3174e-09,0,0.00043102,-0.0001754,-2.6842e+08,-729.83,0,1.4964e+08,93.69,11537,12607,1,12607,1,0.00094274,1.3759e-09,0,0.0011717,0.00012406,2.5031e+08,328.25,0,3.5023e+08,794.53,12606,618.61,0,618.61,0,0.00092588,4.8499e-09,0,0.0004822,0.00017303,2.8611e+08,1317.2,0,1.3815e+08,716.13,618.61,1
2137,5.4,12073,1,12073,1,0.0001954,4.8967e-09,0,0.0008156,-3.5726e-05,-1.5242e+06,1284,0,2.5071e+08,605.52,12072,13208,1,13208,1,0.0017489,2.7101e-08,0,0.0017489,0.00025315,3.699e+08,5885,0,5.4863e+08,3634.4,13207,12073,1,12073,1,0.00014263,5.7241e-09,0,0.00083095,-2.6e-05,4.7795e+07,1544.4,0,2.6861e+08,295.43,12072,10979,1,10979,1,-0.0013489,-1.6349e-08,0,2.7859e-05,-0.00032594,-5.4863e+08,-4601.5,0,9.2302e+06,-242.74,10978,11538,1,11538,1,-0.00066046,1.7692e-10,0,0.00043101,-0.00017595,-2.6861e+08,54.398,0,1.5005e+08,68.326,11537,12607,1,12607,1,0.00094574,9.4225e-09,0,0.0011752,0.00012415,2.5057e+08,2582,0,3.5005e+08,866.07,12606,618.61,0,618.61,0,0.0009279,6.4621e-09,0,0.00048342,0.0001734,2.8635e+08,1691.1,0,1.3825e+08,779.83,618.61,1
2137,5.41,12073,1,12073,1,0.00019677,-2.8629e-09,0,0.0008175,-3.5977e-05,-1.5261e+06,-771.04,0,2.5093e+08,697.63,12072,13208,1,13208,1,0.0017536,2.4721e-08,0,0.0017536,0.00025352,3.6967e+08,5329.7,0,5.4943e+08,4178.1,13207,12073,1,12073,1,0.00014389,-3.0375e-09,0,0.0008337,-2.6231e-05,4.817e+07,-896.52,0,2.6881e+08,452.25,12072,10979,1,10979,1,-0.0013509,-2.4899e-08,0,2.8878e-05,-0.00032681,-5.4943e+08,-5482.5,0,9.5873e+06,-147.52,10978,11538,1,11538,1,-0.00066095,-7.2711e-09,0,0.000431,-0.00017651,-2.6881e+08,-1968.2,0,1.5045e+08,166.59,11537,12607,1,12607,1,0.00094875,8.0583e-10,0,0.0011787,0.00012425,2.5081e+08,185.5,0,3.4988e+08,926.69,12606,618.61,0,618.61,0,0.00092992,6.882e-09,0,0.00048464,0.00017378,2.8659e+08,1725.1,0,1.3835e+08,770.59,618.61,1
2137,5.42,12073,1,12073,1,0.00019816,1.3309e-09,0,0.00081943,-3.623e-05,-1.5276e+06,318.18,0,2.5115e+08,662.19,12072,13208,1,13208,1,0.0017584,2.6316e-08,0,0.0017584,0.0002539,3.6944e+08,5648.5,0,5.5024e+08,4181,13207,12073,1,12073,1,0.00014516,1.4224e-09,0,0.00083648,-2.6465e-05,4.8547e+07,388.24,0,2.6902e+08,325.57,12072,10979,1,10979,1,-0.0013529,-1.991e-08,0,2.9887e-05,-0.0003277,-5.5024e+08,-5276.8,0,9.9401e+06,-51.974,10978,11538,1,11538,1,-0.00066146,-7.277e-10,0,0.000431,-0.00017707,-2.6902e+08,-214.73,0,1.5086e+08,111.81,11537,12607,1,12607,1,0.00095178,3.4493e-09,0,0.0011822,0.00012434,2.5106e+08,880.29,0,3.4971e+08,898.27,12606,618.61,0,618.61,0,0.00093196,5.7452e-09,0,0.00048586,0.00017415,2.8683e+08,1483.5,0,1.3845e+08,811.14,618.61,1
2137,5.43,12073,1,12073,1,0.00019956,4.6947e-10,0,0.00082135,-3.6484e-05,-1.5299e+06,98.79,0,2.5136e+08,747.92,12072,13208,1,13208,1,0.0017632,2.825e-08,0,0.0017632,0.00025427,3.692e+08,6078.7,0,5.5105e+08,4393.9,13207,12073,1,12073,1,0.00014644,9.5889e-11,0,0.00083927,-2.6701e-05,4.8926e+07,28.014,0,2.6921e+08,426.96,12072,10979,1,10979,1,-0.0013548,-2.2336e-08,0,3.0916e-05,-0.00032859,-5.5105e+08,-5283.8,0,1.0298e+07,-49.695,10978,11538,1,11538,1,-0.00066194,-1.7508e-09,0,0.00043098,-0.00017763,-2.6921e+08,-485.75,0,1.5126e+08,174.16,11537,12607,1,12607,1,0.00095483,2.462e-09,0,0.0011858,0.00012444,2.513e+08,660.71,0,3.4952e+08,1007.9,12606,618.61,0,618.61,0,0.000934,6.3223e-09,0,0.0004871,0.00017453,2.8706e+08,1591.4,0,1.3855e+08,832.09,618.61,1
2137,5.44,12073,1,12073,1,0.00020097,9.1526e-10,0,0.00082329,-3.6742e-05,-1.531e+06,213.26,0,2.5157e+08,709.28,12072,13208,1,13208,1,0.0017681,2.9233e-08,0,0.0017681,0.00025465,3.6897e+08,6276.8,0,5.5187e+08,4451.2,13207,12073,1,12073,1,0.00014774,6.6119e-10,0,0.00084209,-2.6939e-05,4.9309e+07,183.93,0,2.6941e+08,380.08,12072,10979,1,10979,1,-0.0013569,-2.1602e-08,0,3.1954e-05,-0.00032948,-5.5187e+08,-5476.9,0,1.0658e+07,-52.392,10978,11538,1,11538,1,-0.00066243,-1.4471e-09,0,0.00043095,-0.00017819,-2.6941e+08,-401.38,0,1.5168e+08,132.41,11537,12607,1,12607,1,0.0009579,2.8755e-09,0,0.0011894,0.00012453,2.5155e+08,757.83,0,3.4934e+08,951.61,12606,618.61,0,618.61,0,0.00093605,6.345e-09,0,0.00048834,0.00017491,2.873e+08,1613.2,0,1.3865e+08,845.89,618.61,1
2137,5.45,12073,1,12073,1,0.00020238,1.8351e-10,0,0.00082522,-3.7001e-05,-1.5326e+06,25.594,0,2.5178e+08,773.24,12072,13208,1,13208,1,0.0017729,2.8904e-08,0,0.0017729,0.00025502,3.6872e+08,6174.5,0,5.5267e+08,4599.7,13207,12073,1,12073,1,0.00014904,2.6948e-10,0,0.0008449,-2.7178e-05,4.9694e+07,70.009,0,2.696e+08,437.54,12072,10979,1,10979,1,-0.0013588,-2.6321e-08,0,3.3002e-05,-0.00033037,-5.5267e+08,-6054.7,0,1.102e+07,-85.067,10978,11538,1,11538,1,-0.00066289,-2.2879e-09,0,0.00043091,-0.00017876,-2.696e+08,-615.77,0,1.5208e+08,149.07,11537,12607,1,12607,1,0.00096096,2.608e-09,0,0.0011929,0.00012462,2.5179e+08,683.21,0,3.4914e+08,1053.5,12606,618.61,0,618.61,0,0.00093809,6.9372e-09,0,0.00048958,0.00017529,2.8753e+08,1740.7,0,1.3875e+08,893.67,618.61,1
2137,5.46,12073,1,12073,1,0.00020381,1.7908e-09,0,0.00082717,-3.7261e-05,-1.5343e+06,455.67,0,2.5199e+08,773.48,12072,13208,1,13208,1,0.0017778,3.1067e-08,0,0.0017778,0.0002554,3.6848e+08,6590.6,0,5.5349e+08,4744,13207,12073,1,12073,1,0.00015035,2.0638e-09,0,0.00084774,-2.7419e-05,5.008e+07,557.27,0,2.6979e+08,406.33,12072,10979,1,10979,1,-0.0013608,-2.3153e-08,0,3.4056e-05,-0.00033127,-5.5349e+08,-6383.2,0,1.1383e+07,-76.648,10978,11538,1,11538,1,-0.00066336,-9.815e-10,0,0.00043087,-0.00017933,-2.6979e+08,-268.08,0,1.5249e+08,140.44,11537,12607,1,12607,1,0.00096406,4.217e-09,0,0.0011966,0.00012471,2.5203e+08,1186.6,0,3.4894e+08,1043.6,12606,618.61,0,618.61,0,0.00094015,6.8966e-09,0,0.00049083,0.00017567,2.8776e+08,1794.7,0,1.3886e+08,929.61,618.61,1
2137,5.47,12073,1,12073,1,0.00020525,-2.3117e-09,0,0.00082911,-3.7524e-05,-1.5363e+06,-644.08,0,2.5219e+08,882.73,12072,13208,1,13208,1,0.0017827,3.3342e-08,0,0.0017827,0.00025578,3.6822e+08,7120.6,0,5.543e+08,5097.1,13207,12073,1,12073,1,0.00015167,-2.7673e-09,0,0.00085057,-2.7662e-05,5.0468e+07,-808.79,0,2.6997e+08,555.11,12072,10979,1,10979,1,-0.0013628,-3.0464e-08,0,3.512e-05,-0.00033217,-5.543e+08,-6579.5,0,1.1748e+07,-156.81,10978,11538,1,11538,1,-0.00066381,-6.959e-09,0,0.00043082,-0.0001799,-2.6997e+08,-1891.3,0,1.529e+08,196.53,11537,12607,1,12607,1,0.00096716,1.2203e-09,0,0.0012002,0.0001248,2.5227e+08,341.31,0,3.4873e+08,1213.7,12606,618.61,0,618.61,0,0.00094221,8.5036e-09,0,0.00049209,0.00017605,2.8799e+08,2092.7,0,1.3895e+08,964.79,618.61,1
2137,5.48,12073,1,12073,1,0.00020669,1.2148e-09,0,0.00083107,-3.7788e-05,-1.5375e+06,260.17,0,2.524e+08,879.86,12072,13208,1,13208,1,0.0017876,3.7422e-08,0,0.0017876,0.00025615,3.6797e+08,7992.6,0,5.551e+08,4941.7,13207,12073,1,12073,1,0.000153,1.9746e-10,0,0.00085343,-2.7907e-05,5.0859e+07,52.494,0,2.7016e+08,500.83,12072,10979,1,10979,1,-0.0013648,-2.636e-08,0,3.6189e-05,-0.00033308,-5.551e+08,-5936.3,0,1.2113e+07,-130.66,10978,11538,1,11538,1,-0.00066428,-1.9921e-09,0,0.00043077,-0.00018047,-2.7016e+08,-591.36,0,1.5332e+08,183.6,11537,12607,1,12607,1,0.00097028,3.6812e-09,0,0.0012038,0.00012489,2.525e+08,947.7,0,3.4853e+08,1212.9,12606,618.61,0,618.61,0,0.00094427,8.0757e-09,0,0.00049335,0.00017644,2.8822e+08,1975.8,0,1.3906e+08,987.27,618.61,1
2137,5.49,12073,1,12073,1,0.00020815,-6.5492e-10,0,0.00083303,-3.8055e-05,-1.5398e+06,-239.02,0,2.526e+08,894.53,12072,13208,1,13208,1,0.0017925,3.3992e-08,0,0.0017925,0.00025653,3.6769e+08,7218.3,0,5.5592e+08,5399.5,13207,12073,1,12073,1,0.00015434,-1.3838e-09,0,0.0008563,-2.8153e-05,5.1252e+07,-393.71,0,2.7035e+08,471.87,12072,10979,1,10979,1,-0.0013668,-2.9467e-08,0,3.7273e-05,-0.00033399,-5.5592e+08,-6784.9,0,1.2482e+07,-106.19,10978,11538,1,11538,1,-0.00066473,-3.7201e-09,0,0.00043071,-0.00018105,-2.7035e+08,-1128.2,0,1.5373e+08,166.6,11537,12607,1,12607,1,0.00097342,2.1333e-09,0,0.0012074,0.00012497,2.5274e+08,539.74,0,3.4831e+08,1235.5,12606,618.61,0,618.61,0,0.00094634,7.945e-09,0,0.00049462,0.00017682,2.8844e+08,1997.8,0,1.3916e+08,1047.1,618.61,1
2137,5.5,12073,1,12073,1,0.00020963,6.6204e-10,0,0.000835,-3.8323e-05,-1.5411e+06,98.952,0,2.528e+08,951.19,12072,13208,1,13208,1,0.0017975,3.4573e-08,0,0.0017975,0.0002569,3.6742e+08,7350.9,0,5.5672e+08,5448.9,13207,12073,1,12073,1,0.0001557,2.8371e-10,0,0.00085918,-2.8403e-05,5.1648e+07,72.511,0,2.7053e+08,523.1,12072,10979,1,10979,1,-0.0013688,-3.0646e-08,0,3.836e-05,-0.0003349,-5.5672e+08,-7816.4,0,1.2851e+07,-64.868,10978,11538,1,11538,1,-0.00066517,-2.4589e-09,0,0.00043064,-0.00018163,-2.7053e+08,-723.15,0,1.5414e+08,187.39,11537,12607,1,12607,1,0.00097657,4.0051e-09,0,0.0012111,0.00012506,2.5297e+08,1005.7,0,3.4809e+08,1298.6,12606,618.61,0,618.61,0,0.00094842,8.4456e-09,0,0.0004959,0.00017721,2.8867e+08,2147.4,0,1.3926e+08,1092.9,618.61,1
2137,5.51,12073,1,12073,1,0.00021111,-7.3444e-10,0,0.00083696,-3.8594e-05,-1.5425e+06,-291.31,0,2.5299e+08,1021.2,12072,13208,1,13208,1,0.0018024,4.0876e-08,0,0.0018024,0.00025727,3.6714e+08,8575.8,0,5.5752e+08,5783.1,13207,12073,1,12073,1,0.00015706,-1.4803e-09,0,0.00086207,-2.8653e-05,5.2046e+07,-419.53,0,2.707e+08,586.13,12072,10979,1,10979,1,-0.0013707,-3.4474e-08,0,3.9468e-05,-0.00033582,-5.5752e+08,-8035.9,0,1.3225e+07,-99.258,10978,11538,1,11538,1,-0.0006656,-4.5251e-09,0,0.00043056,-0.00018221,-2.707e+08,-1283.9,0,1.5455e+08,204.96,11537,12607,1,12607,1,0.00097973,2.7918e-09,0,0.0012148,0.00012514,2.532e+08,690.06,0,3.4785e+08,1412.1,12606,618.61,0,618.61,0,0.00095049,9.6818e-09,0,0.00049718,0.00017759,2.8888e+08,2393.5,0,1.3935e+08,1148.8,618.61,1
2137,5.52,12073,1,12073,1,0.0002126,6.6649e-10,0,0.00083894,-3.8866e-05,-1.5443e+06,69.348,0,2.5319e+08,1051.6,12072,13208,1,13208,1,0.0018074,4.1859e-08,0,0.0018074,0.00025764,3.6686e+08,8785.6,0,5.5833e+08,5928.9,13207,12073,1,12073,1,0.00015843,-3.5743e-11,0,0.00086498,-2.8905e-05,5.2445e+07,-7.9696,0,2.7088e+08,577.01,12072,10979,1,10979,1,-0.0013727,-3.2901e-08,0,4.0572e-05,-0.00033674,-5.5833e+08,-8396.1,0,1.3597e+07,-60.487,10978,11538,1,11538,1,-0.00066604,-2.9398e-09,0,0.00043048,-0.0001828,-2.7088e+08,-840.23,0,1.5497e+08,202.89,11537,12607,1,12607,1,0.00098291,4.0489e-09,0,0.0012185,0.00012523,2.5342e+08,1005.7,0,3.4763e+08,1475.1,12606,618.61,0,618.61,0,0.00095258,9.5717e-09,0,0.00049847,0.00017798,2.8911e+08,2398.7,0,1.3945e+08,1198.3,618.61,1
2137,5.53,12073,1,12073,1,0.0002141,2.8794e-09,0,0.00084093,-3.914e-05,-1.5458e+06,670.34,0,2.5339e+08,1109.4,12072,13208,1,13208,1,0.0018124,4.5084e-08,0,0.0018124,0.00025802,3.6658e+08,9427.1,0,5.5914e+08,5948.7,13207,12073,1,12073,1,0.00015982,3.2347e-09,0,0.00086794,-2.916e-05,5.2848e+07,873.55,0,2.7105e+08,668.75,12072,10979,1,10979,1,-0.0013747,-3.2686e-08,0,4.17e-05,-0.00033766,-5.5914e+08,-8548.3,0,1.3975e+07,-76.623,10978,11538,1,11538,1,-0.00066646,-1.5868e-09,0,0.00043039,-0.00018339,-2.7105e+08,-450,0,1.5539e+08,233.46,11537,12607,1,12607,1,0.00098611,7.1935e-09,0,0.0012222,0.00012531,2.5365e+08,1821.6,0,3.4739e+08,1530.1,12606,618.61,0,618.61,0,0.00095468,1.0067e-08,0,0.00049977,0.00017837,2.8933e+08,2533,0,1.3955e+08,1221.1,618.61,1
2137,5.54,12073,1,12073,1,0.00021562,-1.0173e-10,0,0.00084293,-3.9418e-05,-1.5479e+06,-83.9,0,2.5358e+08,1144.5,12072,13208,1,13208,1,0.0018174,4.551e-08,0,0.0018174,0.00025839,3.6627e+08,9497.7,0,5.5994e+08,6442.6,13207,12073,1,12073,1,0.00016121,-7.9157e-10,0,0.0008709,-2.9417e-05,5.3253e+07,-225.13,0,2.7123e+08,695.46,12072,10979,1,10979,1,-0.0013767,-3.7024e-08,0,4.2841e-05,-0.00033859,-5.5994e+08,-8788,0,1.4356e+07,-62.973,10978,11538,1,11538,1,-0.0006669,-4.2695e-09,0,0.00043029,-0.00018398,-2.7123e+08,-1179,0,1.558e+08,249.87,11537,12607,1,12607,1,0.00098933,3.309e-09,0,0.0012259,0.00012539,2.5388e+08,873.87,0,3.4714e+08,1554.9,12606,618.61,0,618.61,0,0.00095678,1.0566e-08,0,0.00050108,0.00017876,2.8954e+08,2616.3,0,1.3965e+08,1255.4,618.61,1
2137,5.55,12073,1,12073,1,0.00021715,-1.5971e-09,0,0.00084493,-3.9697e-05,-1.5489e+06,-501.28,0,2.5377e+08,1142.2,12072,13208,1,13208,1,0.0018225,4.3918e-08,0,0.0018225,0.00025876,3.6596e+08,9152.7,0,5.6075e+08,6735.5,13207,12073,1,12073,1,0.00016263,-2.4388e-09,0,0.00087384,-2.9677e-05,5.3662e+07,-665.51,0,2.7139e+08,599.39,12072,10979,1,10979,1,-0.0013787,-3.9386e-08,0,4.398e-05,-0.00033953,-5.6075e+08,-10180,0,1.4736e+07,-131.92,10978,11538,1,11538,1,-0.0006673,-6.2438e-09,0,0.00043018,-0.00018458,-2.7139e+08,-1693.5,0,1.5622e+08,182.06,11537,12607,1,12607,1,0.00099256,2.4775e-09,0,0.0012297,0.00012547,2.541e+08,636.22,0,3.4689e+08,1628.9,12606,618.61,0,618.61,0,0.00095889,1.0924e-08,0,0.00050239,0.00017915,2.8976e+08,2789.2,0,1.3975e+08,1345.3,618.61,1
2137,5.56,12073,1,12073,1,0.00021868,6.4967e-10,0,0.00084694,-3.9978e-05,-1.5511e+06,49.637,0,2.5396e+08,1289.9,12072,13208,1,13208,1,0.0018276,5.2291e-08,0,0.0018276,0.00025914,3.6566e+08,10828,0,5.6155e+08,6803.1,13207,12073,1,12073,1,0.00016404,-3.9241e-10,0,0.00087683,-2.9937e-05,5.4071e+07,-107.27,0,2.7156e+08,784.4,12072,10979,1,10979,1,-0.0013807,-3.9745e-08,0,4.5131e-05,-0.00034046,-5.6155e+08,-10229,0,1.5117e+07,-58.506,10978,11538,1,11538,1,-0.00066772,-4.3088e-09,0,0.00043007,-0.00018518,-2.7156e+08,-1190.6,0,1.5664e+08,285.78,11537,12607,1,12607,1,0.00099581,4.71e-09,0,0.0012335,0.00012555,2.5432e+08,1194.5,0,3.4664e+08,1793.1,12606,618.61,0,618.61,0,0.000961,1.2015e-08,0,0.00050371,0.00017954,2.8997e+08,2996.7,0,1.3985e+08,1386.5,618.61,1
2137,5.57,12073,1,12073,1,0.00022024,8.7468e-10,0,0.00084895,-4.0261e-05,-1.5525e+06,128.67,0,2.5415e+08,1317.6,12072,13208,1,13208,1,0.0018327,5.4139e-08,0,0.0018327,0.00025951,3.6534e+08,11203,0,5.6235e+08,7204.5,13207,12073,1,12073,1,0.00016548,-3.0166e-10,0,0.00087983,-3.0201e-05,5.4484e+07,-83.885,0,2.7172e+08,783.12,12072,10979,1,10979,1,-0.0013826,-4.182e-08,0,4.63e-05,-0.0003414,-5.6235e+08,-10226,0,1.5504e+07,-58.374,10978,11538,1,11538,1,-0.00066812,-4.0767e-09,0,0.00042995,-0.00018578,-2.7172e+08,-1134.3,0,1.5706e+08,277.91,11537,12607,1,12607,1,0.00099907,5.0883e-09,0,0.0012372,0.00012563,2.5453e+08,1290,0,3.4637e+08,1818.5,12606,618.61,0,618.61,0,0.00096312,1.2367e-08,0,0.00050504,0.00017993,2.9018e+08,3078.2,0,1.3995e+08,1449.9,618.61,1
2137,5.58,12073,1,12073,1,0.0002218,3.0483e-09,0,0.00085098,-4.0547e-05,-1.5542e+06,729.72,0,2.5433e+08,1415.7,12072,13208,1,13208,1,0.0018378,5.4201e-08,0,0.0018378,0.00025988,3.6503e+08,11158,0,5.6316e+08,7433.5,13207,12073,1,12073,1,0.00016692,3.6496e-09,0,0.00088286,-3.0465e-05,5.4899e+07,971.36,0,2.7188e+08,913.28,12072,10979,1,10979,1,-0.0013846,-4.4316e-08,0,4.7479e-05,-0.00034235,-5.6316e+08,-10961,0,1.5893e+07,-69.109,10978,11538,1,11538,1,-0.00066851,-2.4187e-09,0,0.00042982,-0.00018638,-2.7188e+08,-688.92,0,1.5748e+08,325.18,11537,12607,1,12607,1,0.0010024,8.6026e-09,0,0.0012411,0.00012571,2.5475e+08,2176.6,0,3.461e+08,1908.5,12606,618.61,0,618.61,0,0.00096525,1.2836e-08,0,0.00050638,0.00018033,2.9039e+08,3227.6,0,1.4005e+08,1499.5,618.61,1
2137,5.59,12073,1,12073,1,0.00022338,1.2602e-10,0,0.00085302,-4.0835e-05,-1.5558e+06,0.53556,0,2.5452e+08,1436.4,12072,13208,1,13208,1,0.001843,5.4048e-08,0,0.001843,0.00026026,3.6469e+08,11055,0,5.6397e+08,8095.8,13207,12073,1,12073,1,0.00016838,-1.3225e-11,0,0.0008859,-3.0734e-05,5.5317e+07,-3.4088,0,2.7205e+08,872.67,12072,10979,1,10979,1,-0.0013866,-4.7349e-08,0,4.8673e-05,-0.0003433,-5.6397e+08,-11806,0,1.6285e+07,-11.742,10978,11538,1,11538,1,-0.00066892,-4.984e-09,0,0.00042969,-0.00018699,-2.7205e+08,-1308.3,0,1.579e+08,305.08,11537,12607,1,12607,1,0.0010057,4.9084e-09,0,0.0012449,0.00012578,2.5497e+08,1300.1,0,3.4583e+08,1952.5,12606,618.61,0,618.61,0,0.00096739,1.3068e-08,0,0.00050772,0.00018072,2.906e+08,3332,0,1.4015e+08,1576.6,618.61,1
2137,5.6,12073,1,12073,1,0.00022496,-6.5075e-10,0,0.00085504,-4.1125e-05,-1.5574e+06,-213.57,0,2.547e+08,1542.4,12072,13208,1,13208,1,0.0018481,6.0541e-08,0,0.0018481,0.00026062,3.6435e+08,12423,0,5.6476e+08,8521.7,13207,12073,1,12073,1,0.00016984,-1.3818e-09,0,0.00088894,-3.1003e-05,5.5737e+07,-396.8,0,2.722e+08,1000.3,12072,10979,1,10979,1,-0.0013885,-5.2724e-08,0,4.9873e-05,-0.00034425,-5.6476e+08,-11655,0,1.6678e+07,-87.797,10978,11538,1,11538,1,-0.00066929,-6.8269e-09,0,0.00042954,-0.0001876,-2.722e+08,-1805.9,0,1.5832e+08,354.71,11537,12607,1,12607,1,0.001009,4.5703e-09,0,0.0012487,0.00012586,2.5518e+08,1205.6,0,3.4554e+08,2105,12606,618.61,0,618.61,0,0.00096951,1.4736e-08,0,0.00050907,0.00018112,2.908e+08,3613.7,0,1.4024e+08,1646.2,618.61,1
2137,5.61,12073,1,12073,1,0.00022656,-1.484e-10,0,0.0008571,-4.1417e-05,-1.5589e+06,-108.05,0,2.5488e+08,1561.8,12072,13208,1,13208,1,0.0018533,5.9708e-08,0,0.0018533,0.000261,3.6401e+08,12147,0,5.6557e+08,8791.6,13207,12073,1,12073,1,0.00017132,-8.7631e-10,0,0.000892,-3.1275e-05,5.616e+07,-237.2,0,2.7236e+08,940.17,12072,10979,1,10979,1,-0.0013905,-5.1791e-08,0,5.1077e-05,-0.00034521,-5.6557e+08,-12876,0,1.7072e+07,-19.035,10978,11538,1,11538,1,-0.00066968,-5.7709e-09,0,0.0004294,-0.00018822,-2.7236e+08,-1571.1,0,1.5875e+08,330.73,11537,12607,1,12607,1,0.0010123,5.0015e-09,0,0.0012526,0.00012593,2.5539e+08,1305.1,0,3.4527e+08,2141.3,12606,618.61,0,618.61,0,0.00097167,1.4383e-08,0,0.00051043,0.00018152,2.9101e+08,3647.7,0,1.4034e+08,1726.4,618.61,1
2137,5.62,12073,1,12073,1,0.00022818,4.0017e-09,0,0.00085913,-4.1712e-05,-1.5599e+06,999.38,0,2.5505e+08,1732.6,12072,13208,1,13208,1,0.0018585,6.8168e-08,0,0.0018585,0.00026137,3.6367e+08,13962,0,5.6636e+08,8937.8,13207,12073,1,12073,1,0.00017281,5.0948e-09,0,0.0008951,-3.1549e-05,5.6586e+07,1340.7,0,2.725e+08,1169.7,12072,10979,1,10979,1,-0.0013925,-5.5671e-08,0,5.2302e-05,-0.00034617,-5.6636e+08,-12657,0,1.7471e+07,-113.97,10978,11538,1,11538,1,-0.00067002,-3.1258e-09,0,0.00042922,-0.00018883,-2.725e+08,-850.49,0,1.5917e+08,419.66,11537,12607,1,12607,1,0.0010157,1.0696e-08,0,0.0012565,0.000126,2.556e+08,2828.9,0,3.4496e+08,2363.6,12606,618.61,0,618.61,0,0.00097381,1.6044e-08,0,0.00051179,0.00018191,2.9121e+08,3969,0,1.4044e+08,1797.2,618.61,1
2137,5.63,12073,1,12073,1,0.0002298,2.2891e-09,0,0.0008612,-4.2008e-05,-1.5617e+06,622.54,0,2.5523e+08,1774.1,12072,13208,1,13208,1,0.0018638,6.9772e-08,0,0.0018638,0.00026174,3.6331e+08,14271,0,5.6717e+08,9518.8,13207,12073,1,12073,1,0.00017431,2.1302e-09,0,0.00089818,-3.1825e-05,5.7012e+07,576.47,0,2.7265e+08,1141.3,12072,10979,1,10979,1,-0.0013945,-5.7957e-08,0,5.3538e-05,-0.00034714,-5.6717e+08,-12798,0,1.7872e+07,-84.154,10978,11538,1,11538,1,-0.00067041,-4.5293e-09,0,0.00042906,-0.00018945,-2.7265e+08,-1151.6,0,1.5959e+08,399.1,11537,12607,1,12607,1,0.001019,8.3721e-09,0,0.0012604,0.00012607,2.558e+08,2295.3,0,3.4467e+08,2442,12606,618.61,0,618.61,0,0.00097597,1.6458e-08,0,0.00051317,0.00018231,2.9141e+08,4053.2,0,1.4054e+08,1879.4,618.61,1
2137,5.64,12073,1,12073,1,0.00023144,2.2133e-09,0,0.00086327,-4.2308e-05,-1.563e+06,644.09,0,2.554e+08,1822.2,12072,13208,1,13208,1,0.0018691,6.9545e-08,0,0.0018691,0.00026211,3.6294e+08,14585,0,5.6797e+08,10107,13207,12073,1,12073,1,0.00017583,2.5404e-09,0,0.00090129,-3.2104e-05,5.7444e+07,672.2,0,2.728e+08,1196.6,12072,10979,1,10979,1,-0.0013964,-6.1979e-08,0,5.4777e-05,-0.00034812,-5.6797e+08,-13626,0,1.8273e+07,-122.21,10978,11538,1,11538,1,-0.00067076,-4.6211e-09,0,0.00042889,-0.00019008,-2.728e+08,-1173.3,0,1.6002e+08,401.72,11537,12607,1,12607,1,0.0010224,8.9379e-09,0,0.0012643,0.00012614,2.5601e+08,2429.9,0,3.4437e+08,2474.4,12606,618.61,0,618.61,0,0.00097814,1.6904e-08,0,0.00051456,0.00018272,2.9161e+08,4244.3,0,1.4064e+08,1957.8,618.61,1
2137,5.65,12073,1,12073,1,0.00023309,-8.9192e-11,0,0.00086535,-4.261e-05,-1.5648e+06,46.667,0,2.5558e+08,1958.4,12072,13208,1,13208,1,0.0018744,7.2024e-08,0,0.0018744,0.00026248,3.6258e+08,15270,0,5.6878e+08,10450,13207,12073,1,12073,1,0.00017736,1.0236e-10,0,0.00090444,-3.2385e-05,5.7878e+07,28.712,0,2.7295e+08,1335.1,12072,10979,1,10979,1,-0.0013984,-6.8539e-08,0,5.603e-05,-0.0003491,-5.6878e+08,-15008,0,1.8678e+07,-110.82,10978,11538,1,11538,1,-0.00067114,-7.9711e-09,0,0.00042871,-0.00019071,-2.7295e+08,-2004,0,1.6045e+08,443.1,11537,12607,1,12607,1,0.0010259,7.1093e-09,0,0.0012683,0.00012622,2.5621e+08,1961.9,0,3.4406e+08,2694.8,12606,618.61,0,618.61,0,0.00098033,1.8677e-08,0,0.00051596,0.00018312,2.9181e+08,4607.6,0,1.4074e+08,2042.4,618.61,1
2137,5.66,12073,1,12073,1,0.00023476,4.3884e-09,0,0.00086743,-4.2914e-05,-1.5662e+06,1194.3,0,2.5574e+08,2163.8,12072,13208,1,13208,1,0.0018797,8.3695e-08,0,0.0018797,0.00026285,3.6221e+08,16953,0,5.6957e+08,10606,13207,12073,1,12073,1,0.00017891,5.2872e-09,0,0.00090756,-3.2669e-05,5.8315e+07,1412.9,0,2.7308e+08,1511.8,12072,10979,1,10979,1,-0.0014004,-7.3416e-08,0,5.7301e-05,-0.00035008,-5.6957e+08,-15349,0,1.9087e+07,-214.36,10978,11538,1,11538,1,-0.00067145,-4.5405e-09,0,0.0004285,-0.00019134,-2.7308e+08,-1150,0,1.6087e+08,543.37,11537,12607,1,12607,1,0.0010293,1.278e-08,0,0.0012723,0.00012628,2.5641e+08,3589.8,0,3.4373e+08,3032.9,12606,618.61,0,618.61,0,0.0009825,2.0559e-08,0,0.00051736,0.00018352,2.92e+08,5005,0,1.4083e+08,2173,618.61,1
2137,5.67,12073,1,12073,1,0.00023644,3.2358e-09,0,0.00086954,-4.3221e-05,-1.5678e+06,989.56,0,2.5591e+08,2218.4,12072,13208,1,13208,1,0.0018851,8.3591e-08,0,0.0018851,0.00026323,3.6182e+08,17058,0,5.7038e+08,11478,13207,12073,1,12073,1,0.00018047,4.0279e-09,0,0.00091072,-3.2955e-05,5.8755e+07,1087.5,0,2.7322e+08,1515.1,12072,10979,1,10979,1,-0.0014024,-7.576e-08,0,5.8568e-05,-0.00035107,-5.7038e+08,-15871,0,1.9494e+07,-116.23,10978,11538,1,11538,1,-0.00067181,-5.6546e-09,0,0.00042831,-0.00019198,-2.7322e+08,-1386.7,0,1.613e+08,533.4,11537,12607,1,12607,1,0.0010328,1.1947e-08,0,0.0012763,0.00012635,2.5661e+08,3437.7,0,3.4342e+08,3058.9,12606,618.61,0,618.61,0,0.0009847,2.0787e-08,0,0.00051877,0.00018393,2.922e+08,5139.8,0,1.4093e+08,2280.9,618.61,1
2137,5.68,12073,1,12073,1,0.00023814,2.6773e-09,0,0.00087163,-4.3531e-05,-1.5699e+06,898.75,0,2.5607e+08,2333.7,12072,13208,1,13208,1,0.0018905,8.7463e-08,0,0.0018905,0.0002636,3.6143e+08,17943,0,5.7118e+08,12145,13207,12073,1,12073,1,0.00018204,3.5531e-09,0,0.0009139,-3.3244e-05,5.9198e+07,976.31,0,2.7336e+08,1608.6,12072,10979,1,10979,1,-0.0014043,-8.0595e-08,0,5.9855e-05,-0.00035206,-5.7118e+08,-16276,0,1.9906e+07,-108.05,10978,11538,1,11538,1,-0.00067214,-7.052e-09,0,0.0004281,-0.00019262,-2.7336e+08,-1664.6,0,1.6173e+08,566,11537,12607,1,12607,1,0.0010363,1.1925e-08,0,0.0012803,0.00012641,2.568e+08,3459.9,0,3.4308e+08,3237.8,12606,618.61,0,618.61,0,0.0009869,2.2136e-08,0,0.00052019,0.00018434,2.9239e+08,5407.8,0,1.4103e+08,2373,618.61,1
2137,5.69,12073,1,12073,1,0.00023985,-8.6578e-10,0,0.00087376,-4.3844e-05,-1.5712e+06,-7.0507,0,2.5624e+08,2380.9,12072,13208,1,13208,1,0.0018959,8.6373e-08,0,0.0018959,0.00026397,3.6105e+08,18887,0,5.7199e+08,13028,13207,12073,1,12073,1,0.00018363,4.3516e-11,0,0.00091704,-3.3537e-05,5.9644e+07,9.4481,0,2.735e+08,1537.7,12072,10979,1,10979,1,-0.0014063,-8.6011e-08,0,6.0977e-05,-0.00035306,-5.7199e+08,-17836,0,2.0322e+07,-42.321,10978,11538,1,11538,1,-0.00067249,-1.0798e-08,0,0.00042801,-0.00019326,-2.735e+08,-2589.8,0,1.6216e+08,540.91,11537,12607,1,12607,1,0.0010398,8.5723e-09,0,0.001284,0.00012648,2.5699e+08,2465.7,0,3.4275e+08,3271.1,12606,618.61,0,618.61,0,0.00098913,2.2701e-08,0,0.00052164,0.00018475,2.9259e+08,5605.8,0,1.4113e+08,2514.1,618.61,1
2137,5.7,12073,1,12073,1,0.00024158,1.3306e-09,0,0.00087589,-4.4161e-05,-1.5725e+06,533.95,0,2.564e+08,2540.7,12072,13208,1,13208,1,0.0019014,9.5664e-08,0,0.0019014,0.00026434,3.6063e+08,19706,0,5.7279e+08,13398,13207,12073,1,12073,1,0.00018524,2.2457e-09,0,0.0009179,-3.3832e-05,6.0094e+07,616.24,0,2.7363e+08,1739.7,12072,10979,1,10979,1,-0.0014083,-9.0593e-08,0,5.992e-05,-0.00035407,-5.7279e+08,-18211,0,2.0746e+07,-73.487,10978,11538,1,11538,1,-0.00067281,-8.9913e-09,0,0.00043016,-0.00019391,-2.7363e+08,-2196.9,0,1.626e+08,601.41,11537,12607,1,12607,1,0.0010433,1.1187e-08,0,0.0012857,0.00012654,2.5718e+08,3159,0,3.424e+08,3515.9,12606,618.61,0,618.61,0,0.00099135,2.4446e-08,0,0.00052308,0.00018516,2.9277e+08,5937,0,1.4123e+08,2609.6,618.61,1
2137,5.71,12073,1,12073,1,0.00024333,-3.6974e-09,0,0.00087804,-4.448e-05,-1.5738e+06,-799.21,0,2.5656e+08,2560.4,12072,13208,1,13208,1,0.0019069,9.4208e-08,0,0.0019069,0.00026472,3.6024e+08,20212,0,5.7359e+08,14316,13207,12073,1,12073,1,0.00018686,-3.5154e-09,0,0.00091878,-3.413e-05,6.0547e+07,-935.01,0,2.7376e+08,1605.1,12072,10979,1,10979,1,-0.0014103,-9.6983e-08,0,5.8854e-05,-0.00035508,-5.7359e+08,-20692,0,2.1172e+07,-116.81,10978,11538,1,11538,1,-0.00067312,-1.4821e-08,0,0.00043234,-0.00019457,-2.7376e+08,-3642.1,0,1.6304e+08,544.19,11537,12607,1,12607,1,0.0010469,6.8121e-09,0,0.0012874,0.00012661,2.5737e+08,1918.2,0,3.4205e+08,3540.2,12606,618.61,0,618.61,0,0.00099359,2.5141e-08,0,0.00052455,0.00018558,2.9296e+08,6209.8,0,1.4133e+08,2770.1,618.61,1
2137,5.72,12073,1,12073,1,0.00024509,2.3394e-09,0,0.00088018,-4.4802e-05,-1.5754e+06,693.66,0,2.5672e+08,2789.3,12072,13208,1,13208,1,0.0019124,1.0717e-07,0,0.0019124,0.00026509,3.598e+08,21498,0,5.7439e+08,14484,13207,12073,1,12073,1,0.00018849,3.0244e-09,0,0.00091962,-3.443e-05,6.1003e+07,803.05,0,2.7388e+08,1940.1,12072,10979,1,10979,1,-0.0014122,-9.7667e-08,0,5.7772e-05,-0.0003561,-5.7439e+08,-21114,0,2.1603e+07,-112.08,10978,11538,1,11538,1,-0.00067342,-8.6915e-09,0,0.00043452,-0.00019523,-2.7388e+08,-2133.4,0,1.6347e+08,660.75,11537,12607,1,12607,1,0.0010504,1.304e-08,0,0.0012891,0.00012667,2.5756e+08,3583.1,0,3.4169e+08,3835.7,12606,618.61,0,618.61,0,0.00099583,2.6643e-08,0,0.00052601,0.00018599,2.9314e+08,6546.5,0,1.4143e+08,2853.8,618.61,1
2137,5.73,12073,1,12073,1,0.00024687,1.588e-09,0,0.00088235,-4.5126e-05,-1.5766e+06,535.87,0,2.5688e+08,2904.5,12072,13208,1,13208,1,0.001918,1.1197e-07,0,0.001918,0.00026546,3.5938e+08,23199,0,5.7521e+08,15293,13207,12073,1,12073,1,0.00019015,1.6863e-09,0,0.00092049,-3.4734e-05,6.1463e+07,448.31,0,2.74e+08,2007.3,12072,10979,1,10979,1,-0.0014142,-1.0235e-07,0,5.6683e-05,-0.00035713,-5.7521e+08,-22348,0,2.2033e+07,-58.032,10978,11538,1,11538,1,-0.00067374,-1.0265e-08,0,0.00043671,-0.00019589,-2.7401e+08,-2541,0,1.6391e+08,688.74,11537,12607,1,12607,1,0.0010541,1.3094e-08,0,0.0012908,0.00012673,2.5775e+08,3587.2,0,3.4133e+08,3995.5,12606,618.61,0,618.61,0,0.00099809,2.8085e-08,0,0.00052749,0.00018641,2.9333e+08,6943,0,1.4153e+08,3002.4,618.61,1
2137,5.74,12073,1,12073,1,0.00024866,1.2577e-09,0,0.00088452,-4.5454e-05,-1.5779e+06,451.71,0,2.5703e+08,3066.7,12072,13208,1,13208,1,0.0019235,1.1782e-07,0,0.0019235,0.00026583,3.5894e+08,23691,0,5.76e+08,15840,13207,12073,1,12073,1,0.00019182,1.8379e-09,0,0.00092134,-3.504e-05,6.1926e+07,499.24,0,2.7412e+08,2236,12072,10979,1,10979,1,-0.0014162,-1.1322e-07,0,5.557e-05,-0.00035816,-5.76e+08,-23505,0,2.2468e+07,-107.24,10978,11538,1,11538,1,-0.00067403,-1.1479e-08,0,0.00043893,-0.00019656,-2.7412e+08,-2845.8,0,1.6435e+08,741.79,11537,12607,1,12607,1,0.0010577,1.4072e-08,0,0.0012925,0.00012678,2.5792e+08,3775.4,0,3.4095e+08,4188.5,12606,618.61,0,618.61,0,0.0010003,3.0695e-08,0,0.00052898,0.00018683,2.9351e+08,7411,0,1.4163e+08,3097.5,618.61,1
2137,5.75,12073,1,12073,1,0.00025047,2.6042e-09,0,0.00088671,-4.5784e-05,-1.5794e+06,766.37,0,2.5718e+08,3284.3,12072,13208,1,13208,1,0.0019292,1.281e-07,0,0.0019292,0.00026621,3.585e+08,25345,0,5.7681e+08,16636,13207,12073,1,12073,1,0.0001935,3.4188e-09,0,0.00092218,-3.5349e-05,6.2391e+07,916.52,0,2.7424e+08,2378.2,12072,10979,1,10979,1,-0.0014182,-1.1499e-07,0,5.4453e-05,-0.0003592,-5.7681e+08,-25506,0,2.2154e+07,-184.96,10978,11538,1,11538,1,-0.00067431,-1.0996e-08,0,0.00044116,-0.00019723,-2.7424e+08,-2739.3,0,1.6479e+08,804.24,11537,12607,1,12607,1,0.0010613,1.5978e-08,0,0.0012942,0.00012684,2.581e+08,4343.9,0,3.4057e+08,4542.1,12606,618.61,0,618.61,0,0.0010026,3.2135e-08,0,0.00053049,0.00018725,2.9369e+08,7870.4,0,1.4173e+08,3289.5,618.61,1
2137,5.76,12073,1,12073,1,0.00025231,1.0332e-10,0,0.00088892,-4.6118e-05,-1.5811e+06,149.26,0,2.5733e+08,3435.2,12072,13208,1,13208,1,0.0019349,1.3295e-07,0,0.0019349,0.00026659,3.5806e+08,26907,0,5.7763e+08,17435,13207,12073,1,12073,1,0.0001952,4.2863e-10,0,0.00092306,-3.5662e-05,6.2862e+07,104.58,0,2.7436e+08,2514.6,12072,10979,1,10979,1,-0.0014202,-1.2392e-07,0,5.3319e-05,-0.00036025,-5.7763e+08,-27354,0,2.1699e+07,-60.385,10978,11538,1,11538,1,-0.00067462,-1.4898e-08,0,0.00044342,-0.00019791,-2.7436e+08,-3679.7,0,1.6523e+08,841.94,11537,12607,1,12607,1,0.001065,1.438e-08,0,0.0012959,0.0001269,2.5828e+08,3895.6,0,3.4019e+08,4746.1,12606,618.61,0,618.61,0,0.0010049,3.4456e-08,0,0.00053201,0.00018768,2.9388e+08,8391.8,0,1.4183e+08,3431.2,618.61,1
2137,5.77,12073,1,12073,1,0.00025416,1.5293e-09,0,0.00089113,-4.6456e-05,-1.5826e+06,466.37,0,2.5747e+08,3694.7,12072,13208,1,13208,1,0.0019406,1.4823e-07,0,0.0019406,0.00026696,3.5759e+08,28892,0,5.7843e+08,18195,13207,12073,1,12073,1,0.00019693,1.4528e-09,0,0.00092388,-3.5978e-05,6.3337e+07,391.48,0,2.7444e+08,2712.4,12072,10979,1,10979,1,-0.0014222,-1.3083e-07,0,5.2164e-05,-0.0003613,-5.7843e+08,-28397,0,2.1236e+07,-32.89,10978,11538,1,11538,1,-0.00067488,-1.4706e-08,0,0.0004457,-0.00019859,-2.7447e+08,-3661.5,0,1.6567e+08,929.39,11537,12607,1,12607,1,0.0010688,1.6445e-08,0,0.0012976,0.00012696,2.5845e+08,4487.8,0,3.3979e+08,5153.8,12606,618.61,0,618.61,0,0.0010072,3.7238e-08,0,0.00053354,0.0001881,2.9405e+08,8975.3,0,1.4193e+08,3633.2,618.61,1
2137,5.78,12073,1,12073,1,0.00025602,-1.0314e-09,0,0.00089335,-4.6797e-05,-1.5838e+06,-201.88,0,2.5762e+08,3843.1,12072,13208,1,13208,1,0.0019463,1.5294e-07,0,0.0019463,0.00026733,3.5713e+08,29580,0,5.7923e+08,19114,13207,12073,1,12073,1,0.00019866,-3.9407e-10,0,0.00092473,-3.6297e-05,6.3815e+07,-116.69,0,2.7451e+08,2845.1,12072,10979,1,10979,1,-0.0014241,-1.4304e-07,0,5.0999e-05,-0.00036236,-5.7923e+08,-30178,0,2.0769e+07,-137.36,10978,11538,1,11538,1,-0.00067515,-1.8053e-08,0,0.00044799,-0.00019928,-2.7458e+08,-4539.6,0,1.6612e+08,948.43,11537,12607,1,12607,1,0.0010725,1.4918e-08,0,0.0012993,0.00012701,2.5863e+08,3975.6,0,3.3938e+08,5336.4,12606,618.61,0,618.61,0,0.0010095,3.9436e-08,0,0.00053508,0.00018853,2.9422e+08,9423.5,0,1.4203e+08,3793.4,618.61,1
2137,5.79,12073,1,12073,1,0.00025791,-1.2362e-09,0,0.0008956,-4.7141e-05,-1.5857e+06,-311.28,0,2.5776e+08,4036.7,12072,13208,1,13208,1,0.0019521,1.6031e-07,0,0.0019521,0.00026771,3.5666e+08,30856,0,5.8005e+08,20062,13207,12073,1,12073,1,0.00020042,-1.5002e-09,0,0.00092557,-3.662e-05,6.4296e+07,-396.26,0,2.7459e+08,2924.4,12072,10979,1,10979,1,-0.0014261,-1.4759e-07,0,4.9822e-05,-0.00036343,-5.8005e+08,-32159,0,2.0299e+07,-79.366,10978,11538,1,11538,1,-0.00067542,-1.8739e-08,0,0.00045031,-0.00019998,-2.7469e+08,-4785.4,0,1.6657e+08,974.28,11537,12607,1,12607,1,0.0010763,1.5109e-08,0,0.001301,0.00012706,2.588e+08,4029.1,0,3.3898e+08,5644.1,12606,618.61,0,618.61,0,0.0010119,4.0899e-08,0,0.00053664,0.00018896,2.944e+08,9842.2,0,1.4213e+08,4005.7,618.61,1
2137,5.8,12073,1,12073,1,0.00025981,2.859e-09,0,0.00089782,-4.7488e-05,-1.587e+06,706.98,0,2.5789e+08,4394,12072,13208,1,13208,1,0.0019579,1.771e-07,0,0.0019579,0.00026808,3.5618e+08,34336,0,5.8084e+08,20553,13207,12073,1,12073,1,0.00020219,3.5414e-09,0,0.00092636,-3.6944e-05,6.4779e+07,941.82,0,2.7464e+08,3350.5,12072,10979,1,10979,1,-0.0014281,-1.6081e-07,0,4.8622e-05,-0.00036449,-5.8084e+08,-32083,0,1.982e+07,-190.92,10978,11538,1,11538,1,-0.00067564,-1.5663e-08,0,0.00045263,-0.00020067,-2.7478e+08,-4033.9,0,1.6701e+08,1163.3,11537,12607,1,12607,1,0.00108,2.0606e-08,0,0.0013027,0.00012711,2.5896e+08,5389.7,0,3.3854e+08,6128.6,12606,618.61,0,618.61,0,0.0010142,4.4928e-08,0,0.0005382,0.00018939,2.9456e+08,10435,0,1.4223e+08,4171.2,618.61,1
2137,5.81,12073,1,12073,1,0.00026173,1.5534e-09,0,0.00090011,-4.7839e-05,-1.5882e+06,427.9,0,2.5804e+08,4448.5,12072,13208,1,13208,1,0.0019638,1.782e-07,0,0.0019638,0.00026847,3.5569e+08,34936,0,5.8168e+08,22221,13207,12073,1,12073,1,0.00020398,1.5455e-09,0,0.00092722,-3.7274e-05,6.5268e+07,393.58,0,2.7473e+08,3153.4,12072,10979,1,10979,1,-0.0014301,-1.5763e-07,0,4.7425e-05,-0.00036559,-5.8168e+08,-35122,0,1.9344e+07,-45.628,10978,11538,1,11538,1,-0.00067592,-1.7518e-08,0,0.00045499,-0.00020138,-2.7489e+08,-4322.6,0,1.6746e+08,1084.1,11537,12607,1,12607,1,0.0010839,1.9197e-08,0,0.0013044,0.00012716,2.5913e+08,5124.4,0,3.3814e+08,6195.3,12606,618.61,0,618.61,0,0.0010166,4.4365e-08,0,0.00053979,0.00018983,2.9474e+08,10766,0,1.4233e+08,4466.9,618.61,1
2137,5.82,12073,1,12073,1,0.00026369,4.0358e-09,0,0.0009024,-4.8195e-05,-1.5898e+06,1098.1,0,2.5818e+08,4821.4,12072,13208,1,13208,1,0.0019698,1.9157e-07,0,0.0019698,0.00026884,3.552e+08,37017,0,5.8249e+08,22963,13207,12073,1,12073,1,0.0002058,4.5112e-09,0,0.00092803,-3.7608e-05,6.5765e+07,1166.5,0,2.7478e+08,3580.1,12072,10979,1,10979,1,-0.0014322,-1.7313e-07,0,4.619e-05,-0.00036668,-5.8249e+08,-36501,0,1.8854e+07,-126.53,10978,11538,1,11538,1,-0.00067615,-1.6701e-08,0,0.00045738,-0.0002021,-2.7499e+08,-4140.9,0,1.6792e+08,1228.8,11537,12607,1,12607,1,0.0010878,2.3968e-08,0,0.0013062,0.00012721,2.593e+08,6388.6,0,3.377e+08,6764.7,12606,618.61,0,618.61,0,0.001019,4.8379e-08,0,0.0005414,0.00019027,2.9491e+08,11561,0,1.4243e+08,4678.6,618.61,1
2137,5.83,12073,1,12073,1,0.00026566,6.2443e-10,0,0.00090469,-4.8555e-05,-1.5912e+06,273.78,0,2.5831e+08,5094.5,12072,13208,1,13208,1,0.0019758,2.0353e-07,0,0.0019758,0.00026922,3.5468e+08,38960,0,5.833e+08,24650,13207,12073,1,12073,1,0.00020764,9.3052e-10,0,0.00092885,-3.7945e-05,6.6264e+07,245.98,0,2.7484e+08,3812.9,12072,10979,1,10979,1,-0.0014341,-1.8828e-07,0,4.4937e-05,-0.00036778,-5.833e+08,-38601,0,1.8358e+07,-86.107,10978,11538,1,11538,1,-0.00067639,-2.186e-08,0,0.00045978,-0.00020281,-2.7508e+08,-5402.9,0,1.6837e+08,1292.8,11537,12607,1,12607,1,0.0010917,2.2036e-08,0,0.0013078,0.00012726,2.5945e+08,5733.4,0,3.3725e+08,7101.4,12606,618.61,0,618.61,0,0.0010213,5.2226e-08,0,0.00054301,0.00019071,2.9507e+08,12351,0,1.4253e+08,4936.6,618.61,1
2137,5.84,12073,1,12073,1,0.00026765,-7.457e-10,0,0.00090703,-4.8919e-05,-1.5931e+06,-84.711,0,2.5845e+08,5343.1,12072,13208,1,13208,1,0.0019818,2.1172e-07,0,0.0019818,0.0002696,3.5417e+08,41756,0,5.8413e+08,25917,13207,12073,1,12073,1,0.0002095,-1.0022e-09,0,0.0009297,-3.8287e-05,6.6767e+07,-268.23,0,2.749e+08,3957.2,12072,10979,1,10979,1,-0.0014362,-1.9763e-07,0,4.368e-05,-0.0003689,-5.8413e+08,-41667,0,1.7861e+07,-47.027,10978,11538,1,11538,1,-0.00067663,-2.4337e-08,0,0.00046221,-0.00020354,-2.7518e+08,-6114.3,0,1.6883e+08,1344.4,11537,12607,1,12607,1,0.0010957,2.176e-08,0,0.0013096,0.00012731,2.5962e+08,5713,0,3.3681e+08,7479.8,12606,618.61,0,618.61,0,0.0010238,5.4638e-08,0,0.00054466,0.00019116,2.9525e+08,13037,0,1.4264e+08,5202.8,618.61,1
2137,5.85,12073,1,12073,1,0.00026967,2.4693e-09,0,0.00090935,-4.9287e-05,-1.5941e+06,706.1,0,2.5857e+08,5729.1,12072,13208,1,13208,1,0.0019879,2.2872e-07,0,0.0019879,0.00026998,3.5364e+08,43857,0,5.8494e+08,27103,13207,12073,1,12073,1,0.00021139,3.4076e-09,0,0.00093047,-3.8633e-05,6.7277e+07,896.42,0,2.7494e+08,4327.7,12072,10979,1,10979,1,-0.0014382,-2.1508e-07,0,4.2387e-05,-0.00037002,-5.8494e+08,-44292,0,1.7352e+07,-198.71,10978,11538,1,11538,1,-0.00067682,-2.2208e-08,0,0.00046466,-0.00020427,-2.7526e+08,-5539.4,0,1.6929e+08,1473.7,11537,12607,1,12607,1,0.0010996,2.7423e-08,0,0.0013113,0.00012735,2.5977e+08,7243,0,3.3633e+08,8055.6,12606,618.61,0,618.61,0,0.0010262,5.9334e-08,0,0.00054631,0.00019161,2.954e+08,14026,0,1.4274e+08,5504.5,618.61,1
2137,5.86,12073,1,12073,1,0.0002717,3.129e-09,0,0.0009117,-4.9658e-05,-1.5952e+06,920.22,0,2.587e+08,6022.4,12072,13208,1,13208,1,0.001994,2.4382e-07,0,0.001994,0.00027036,3.531e+08,46827,0,5.8576e+08,28645,13207,12073,1,12073,1,0.00021329,3.4915e-09,0,0.00093126,-3.8982e-05,6.7789e+07,915.66,0,2.7499e+08,4509.6,12072,10979,1,10979,1,-0.0014402,-2.25e-07,0,4.1089e-05,-0.00037115,-5.8576e+08,-46347,0,1.6843e+07,-79.444,10978,11538,1,11538,1,-0.00067703,-2.3213e-08,0,0.00046713,-0.00020501,-2.7534e+08,-5720.8,0,1.6974e+08,1536.1,11537,12607,1,12607,1,0.0011037,2.9091e-08,0,0.001313,0.00012739,2.5992e+08,7700.8,0,3.3586e+08,8468.5,12606,618.61,0,618.61,0,0.0010286,6.2435e-08,0,0.00054797,0.00019206,2.9556e+08,14787,0,1.4284e+08,5839.2,618.61,1
2137,5.87,12073,1,12073,1,0.00027377,2.0916e-09,0,0.00091409,-5.0035e-05,-1.5961e+06,697.32,0,2.5883e+08,6384.9,12072,13208,1,13208,1,0.0020003,2.5505e-07,0,0.0020003,0.00027075,3.5257e+08,50008,0,5.866e+08,30124,13207,12073,1,12073,1,0.00021523,3.0643e-09,0,0.00093208,-3.9336e-05,6.8308e+07,823.52,0,2.7504e+08,4816.5,12072,10979,1,10979,1,-0.0014422,-2.4155e-07,0,3.9771e-05,-0.0003723,-5.866e+08,-50131,0,1.6328e+07,-227.81,10978,11538,1,11538,1,-0.00067725,-2.6534e-08,0,0.00046963,-0.00020576,-2.7543e+08,-6409.2,0,1.7021e+08,1622,11537,12607,1,12607,1,0.0011077,3.0451e-08,0,0.0013147,0.00012744,2.6008e+08,8111,0,3.354e+08,9062.2,12606,618.61,0,618.61,0,0.0010311,6.6618e-08,0,0.00054967,0.00019251,2.9573e+08,15820,0,1.4295e+08,6140.8,618.61,1
2137,5.88,12073,1,12073,1,0.00027586,4.3631e-09,0,0.00091647,-5.0418e-05,-1.597e+06,1334.2,0,2.5895e+08,6755.6,12072,13208,1,13208,1,0.0020065,2.7322e-07,0,0.0020065,0.00027113,3.5201e+08,53518,0,5.8742e+08,31827,13207,12073,1,12073,1,0.00021719,6.1652e-09,0,0.00093285,-3.9696e-05,6.8834e+07,1573.3,0,2.7507e+08,5181.6,12072,10979,1,10979,1,-0.0014443,-2.5874e-07,0,3.842e-05,-0.00037345,-5.8742e+08,-52804,0,1.5803e+07,-344.71,10978,11538,1,11538,1,-0.00067742,-2.612e-08,0,0.00047215,-0.00020652,-2.755e+08,-6318.4,0,1.7067e+08,1693.8,11537,12607,1,12607,1,0.0011119,3.5434e-08,0,0.0013165,0.00012747,2.6023e+08,9405.4,0,3.349e+08,9517.4,12606,618.61,0,618.61,0,0.0010335,7.1642e-08,0,0.00055137,0.00019297,2.9589e+08,16924,0,1.4306e+08,6468.7,618.61,1
2137,5.89,12073,1,12073,1,0.00027797,2.8693e-09,0,0.00091889,-5.0802e-05,-1.5995e+06,1035.5,0,2.5907e+08,7240.7,12072,13208,1,13208,1,0.0020129,2.8811e-07,0,0.0020129,0.00027152,3.5144e+08,56908,0,5.8826e+08,33621,13207,12073,1,12073,1,0.00021917,4.9019e-09,0,0.00093366,-4.0059e-05,6.9363e+07,1249.2,0,2.7511e+08,5498.9,12072,10979,1,10979,1,-0.0014463,-2.7802e-07,0,3.7062e-05,-0.00037462,-5.8826e+08,-56619,0,1.5276e+07,-348.1,10978,11538,1,11538,1,-0.00067762,-2.9893e-08,0,0.0004747,-0.00020728,-2.7558e+08,-7312.7,0,1.7114e+08,1869.4,11537,12607,1,12607,1,0.001116,3.6257e-08,0,0.0013182,0.00012751,2.6038e+08,9699.2,0,3.344e+08,10270,12606,618.61,0,618.61,0,0.001036,7.6296e-08,0,0.0005531,0.00019343,2.9605e+08,18069,0,1.4316e+08,6899.6,618.61,1
2137,5.9,12073,1,12073,1,0.00028012,-1.7049e-09,0,0.00092135,-5.1195e-05,-1.6009e+06,-174.4,0,2.592e+08,7709.7,12072,13208,1,13208,1,0.0020193,3.0795e-07,0,0.0020193,0.00027192,3.5089e+08,60742,0,5.8911e+08,35284,13207,12073,1,12073,1,0.00022119,-5.0664e-10,0,0.00093449,-4.0428e-05,6.9901e+07,-137.81,0,2.7516e+08,5999.6,12072,10979,1,10979,1,-0.0014484,-2.9657e-07,0,3.5679e-05,-0.00037581,-5.8911e+08,-61828,0,1.4743e+07,-73.298,10978,11538,1,11538,1,-0.00067783,-3.8701e-08,0,0.0004773,-0.00020806,-2.7566e+08,-9448.1,0,1.7118e+08,1968.3,11537,12607,1,12607,1,0.0011203,3.383e-08,0,0.00132,0.00012756,2.6052e+08,8965.7,0,3.339e+08,10925,12606,618.61,0,618.61,0,0.0010386,8.1889e-08,0,0.00055486,0.0001939,2.9621e+08,19478,0,1.4327e+08,7255.1,618.61,1
2137,5.91,12073,1,12073,1,0.00028232,2.2704e-09,0,0.00092383,-5.1595e-05,-1.6022e+06,804.32,0,2.5932e+08,8284.6,12072,13208,1,13208,1,0.0020259,3.3142e-07,0,0.0020259,0.00027231,3.503e+08,65112,0,5.8996e+08,36994,13207,12073,1,12073,1,0.00022325,3.9001e-09,0,0.00093527,-4.0804e-05,7.0446e+07,996.94,0,2.7518e+08,6595.7,12072,10979,1,10979,1,-0.0014505,-3.2021e-07,0,3.4256e-05,-0.00037701,-5.8996e+08,-66266,0,1.4197e+07,-199.09,10978,11538,1,11538,1,-0.00067799,-3.7048e-08,0,0.00047994,-0.00020884,-2.7573e+08,-9088.9,0,1.7099e+08,2170.4,11537,12607,1,12607,1,0.0011245,4.2421e-08,0,0.0013218,0.00012759,2.6067e+08,11118,0,3.3338e+08,11797,12606,618.61,0,618.61,0,0.0010411,8.9246e-08,0,0.00055665,0.00019438,2.9637e+08,21059,0,1.4338e+08,7628.9,618.61,1
2137,5.92,12073,1,12073,1,0.00028455,5.9818e-10,0,0.00092634,-5.2002e-05,-1.6032e+06,345.22,0,2.5943e+08,8861.9,12072,13208,1,13208,1,0.0020325,3.6292e-07,0,0.0020325,0.00027271,3.497e+08,70303,0,5.9081e+08,39218,13207,12073,1,12073,1,0.00022534,9.5615e-10,0,0.00093607,-4.1187e-05,7.1001e+07,234.12,0,2.7521e+08,7132.2,12072,10979,1,10979,1,-0.0014526,-3.3849e-07,0,3.2808e-05,-0.00037823,-5.9081e+08,-71728,0,1.3644e+07,-40.097,10978,11538,1,11538,1,-0.00067816,-4.3395e-08,0,0.00048262,-0.00020964,-2.758e+08,-10658,0,1.708e+08,2324.5,11537,12607,1,12607,1,0.0011289,4.2992e-08,0,0.0013235,0.00012763,2.6081e+08,11282,0,3.3285e+08,12533,12606,618.61,0,618.61,0,0.0010437,9.6143e-08,0,0.00055846,0.00019486,2.9652e+08,22783,0,1.4349e+08,8120.3,618.61,1
2137,5.93,12073,1,12073,1,0.00028681,-1.359e-09,0,0.00092888,-5.2414e-05,-1.6049e+06,-175.81,0,2.5955e+08,9535.4,12072,13208,1,13208,1,0.0020392,3.9154e-07,0,0.0020392,0.0002731,3.4909e+08,74983,0,5.9167e+08,41543,13207,12073,1,12073,1,0.00022747,-1.6501e-09,0,0.00093687,-4.1576e-05,7.1562e+07,-449.17,0,2.7523e+08,7774.6,12072,10979,1,10979,1,-0.0014547,-3.669e-07,0,3.1332e-05,-0.00037946,-5.9167e+08,-76770,0,1.3083e+07,-27.306,10978,11538,1,11538,1,-0.00067832,-4.9511e-08,0,0.00048532,-0.00021045,-2.7586e+08,-12315,0,1.7059e+08,2546.8,11537,12607,1,12607,1,0.0011333,4.5064e-08,0,0.0013253,0.00012766,2.6094e+08,11648,0,3.323e+08,13538,12606,618.61,0,618.61,0,0.0010464,1.0447e-07,0,0.0005603,0.00019534,2.9667e+08,24590,0,1.436e+08,8614.8,618.61,1
2137,5.94,12073,1,12073,1,0.0002891,-7.5455e-10,0,0.00093144,-5.2832e-05,-1.6065e+06,-93.454,0,2.5966e+08,10277,12072,13208,1,13208,1,0.0020459,4.2418e-07,0,0.0020459,0.0002735,3.4847e+08,80029,0,5.9253e+08,43922,13207,12073,1,12073,1,0.00022962,-1.5576e-09,0,0.00093766,-4.197e-05,7.213e+07,-419.85,0,2.7524e+08,8526.1,12072,10979,1,10979,1,-0.0014568,-3.9672e-07,0,2.9833e-05,-0.00038071,-5.9253e+08,-82038,0,1.2517e+07,24.936,10978,11538,1,11538,1,-0.00067846,-5.3426e-08,0,0.00048806,-0.00021127,-2.7592e+08,-13256,0,1.7038e+08,2836.6,11537,12607,1,12607,1,0.0011378,4.9919e-08,0,0.0013271,0.00012769,2.6108e+08,12804,0,3.3173e+08,14629,12606,618.61,0,618.61,0,0.001049,1.1335e-07,0,0.00056216,0.00019583,2.9682e+08,26507,0,1.4371e+08,9145.9,618.61,1
2137,5.95,12073,1,12073,1,0.00029143,1.8792e-09,0,0.00093403,-5.3257e-05,-1.6071e+06,498.35,0,2.5977e+08,10948,12072,13208,1,13208,1,0.0020528,4.5597e-07,0,0.0020528,0.0002739,3.4783e+08,85907,0,5.934e+08,46240,13207,12073,1,12073,1,0.00023182,2.2072e-09,0,0.00093842,-4.2371e-05,7.2705e+07,568.47,0,2.7525e+08,9160.1,12072,10979,1,10979,1,-0.001459,-4.2213e-07,0,2.8305e-05,-0.00038197,-5.934e+08,-88027,0,1.1943e+07,-136.42,10978,11538,1,11538,1,-0.00067859,-5.4184e-08,0,0.00049083,-0.0002121,-2.7597e+08,-13464,0,1.7017e+08,2959.9,11537,12607,1,12607,1,0.0011423,5.6188e-08,0,0.0013289,0.00012772,2.6121e+08,14545,0,3.3117e+08,15616,12606,618.61,0,618.61,0,0.0010517,1.2165e-07,0,0.00056405,0.00019632,2.9697e+08,28437,0,1.4383e+08,9707.7,618.61,1
2137,5.96,12073,1,12073,1,0.00029379,-2.5069e-10,0,0.00093665,-5.3688e-05,-1.6084e+06,-25.529,0,2.5987e+08,11775,12072,13208,1,13208,1,0.0020597,4.9364e-07,0,0.0020597,0.00027431,3.4718e+08,91988,0,5.9426e+08,49209,13207,12073,1,12073,1,0.00023405,-2.062e-09,0,0.00093921,-4.2777e-05,7.3288e+07,-543.18,0,2.7525e+08,10002,12072,10979,1,10979,1,-0.0014611,-4.5959e-07,0,2.6747e-05,-0.00038325,-5.9426e+08,-93870,0,1.136e+07,-20.928,10978,11538,1,11538,1,-0.00067872,-6.1693e-08,0,0.00049364,-0.00021294,-2.7602e+08,-15473,0,1.6994e+08,3300.5,11537,12607,1,12607,1,0.0011469,5.9076e-08,0,0.0013307,0.00012775,2.6134e+08,15083,0,3.3058e+08,16681,12606,618.61,0,618.61,0,0.0010544,1.3232e-07,0,0.00056597,0.00019682,2.9712e+08,30729,0,1.4394e+08,10332,618.61,1
2137,5.97,12073,1,12073,1,0.00029619,-4.7734e-10,0,0.0009393,-5.4125e-05,-1.6098e+06,-157.91,0,2.5998e+08,12594,12072,13208,1,13208,1,0.0020668,5.2826e-07,0,0.0020668,0.00027472,3.4653e+08,98438,0,5.9514e+08,51884,13207,12073,1,12073,1,0.00023631,-1.3176e-09,0,0.00093999,-4.319e-05,7.3879e+07,-352.05,0,2.7526e+08,10709,12072,10979,1,10979,1,-0.0014633,-4.9382e-07,0,2.5169e-05,-0.00038455,-5.9514e+08,-1.0144e+05,0,1.0773e+07,-12.496,10978,11538,1,11538,1,-0.00067884,-6.7628e-08,0,0.00049649,-0.0002138,-2.7607e+08,-16742,0,1.6972e+08,3523.9,11537,12607,1,12607,1,0.0011515,6.3954e-08,0,0.0013325,0.00012778,2.6147e+08,16175,0,3.2999e+08,17986,12606,618.61,0,618.61,0,0.0010571,1.4225e-07,0,0.00056791,0.00019733,2.9727e+08,33042,0,1.4405e+08,10990,618.61,1
2137,5.98,12073,1,12073,1,0.00029864,1.7318e-09,0,0.00094199,-5.4571e-05,-1.6109e+06,295.83,0,2.6008e+08,13505,12072,13208,1,13208,1,0.002074,5.7125e-07,0,0.002074,0.00027513,3.4586e+08,1.0602e+05,0,5.9603e+08,54919,13207,12073,1,12073,1,0.00023862,5.3348e-11,0,0.00094076,-4.3612e-05,7.4479e+07,19.195,0,2.7526e+08,11632,12072,10979,1,10979,1,-0.0014654,-5.2944e-07,0,2.3547e-05,-0.00038587,-5.9603e+08,-1.0864e+05,0,1.0172e+07,12.158,10978,11538,1,11538,1,-0.00067895,-7.1236e-08,0,0.00049939,-0.00021466,-2.7612e+08,-17531,0,1.6948e+08,3794.3,11537,12607,1,12607,1,0.0011563,7.1506e-08,0,0.0013344,0.00012781,2.6159e+08,18159,0,3.2943e+08,19265,12606,618.61,0,618.61,0,0.0010599,1.539e-07,0,0.0005699,0.00019784,2.9741e+08,35610,0,1.4417e+08,11662,618.61,1
2137,5.99,12073,1,12073,1,0.00030113,-2.4635e-09,0,0.00094473,-5.5025e-05,-1.6122e+06,-791.57,0,2.6018e+08,14588,12072,13208,1,13208,1,0.0020812,6.1664e-07,0,0.0020812,0.00027554,3.4517e+08,1.1301e+05,0,5.9692e+08,58263,13207,12073,1,12073,1,0.00024098,-6.0195e-09,0,0.00094152,-4.4041e-05,7.509e+07,-1564.7,0,2.7525e+08,12654,12072,10979,1,10979,1,-0.0014676,-5.7918e-07,0,2.1892e-05,-0.00038721,-5.9692e+08,-1.1688e+05,0,9.5624e+06,-133.06,10978,11538,1,11538,1,-0.00067904,-8.2167e-08,0,0.00050232,-0.00021555,-2.7615e+08,-20462,0,1.6923e+08,4125.7,11537,12607,1,12607,1,0.0011611,7.3111e-08,0,0.0013362,0.00012783,2.6171e+08,18440,0,3.2955e+08,20902,12606,618.61,0,618.61,0,0.0010627,1.6756e-07,0,0.00057192,0.00019836,2.9756e+08,38518,0,1.4429e+08,12480,618.61,1
2137,6,12073,1,12073,1,0.00030367,1.8581e-11,0,0.0009475,-5.5487e-05,-1.6144e+06,-330.54,0,2.6027e+08,15708,12072,13208,1,13208,1,0.0020886,6.6546e-07,0,0.0020886,0.00027596,3.4448e+08,1.2199e+05,0,5.9783e+08,61755,13207,12073,1,12073,1,0.00024338,-2.9758e-09,0,0.00094229,-4.4479e-05,7.571e+07,-793.28,0,2.7523e+08,13663,12072,10979,1,10979,1,-0.0014699,-6.192e-07,0,2.0203e-05,-0.00038857,-5.9783e+08,-1.2666e+05,0,8.9424e+06,64.588,10978,11538,1,11538,1,-0.00067913,-8.5754e-08,0,0.00050528,-0.00021644,-2.7619e+08,-21723,0,1.6898e+08,4481,11537,12607,1,12607,1,0.001166,8.3204e-08,0,0.0013381,0.00012785,2.6183e+08,20573,0,3.2972e+08,22533,12606,618.61,0,618.61,0,0.0010655,1.8036e-07,0,0.00057397,0.00019888,2.977e+08,41580,0,1.4441e+08,13335,618.61,1
2137,6.01,12073,1,12073,1,0.00030626,1.4394e-09,0,0.0009503,-5.5958e-05,-1.6149e+06,-81.286,0,2.6037e+08,16916,12072,13208,1,13208,1,0.0020962,7.2671e-07,0,0.0020962,0.00027638,3.4377e+08,1.311e+05,0,5.9873e+08,65501,13207,12073,1,12073,1,0.00024583,-3.7028e-09,0,0.00094304,-4.4924e-05,7.634e+07,-975.77,0,2.7521e+08,14853,12072,10979,1,10979,1,-0.0014721,-6.6952e-07,0,1.8472e-05,-0.00038996,-5.9873e+08,-1.3572e+05,0,8.3096e+06,34.216,10978,11538,1,11538,1,-0.0006792,-9.2783e-08,0,0.00050829,-0.00021736,-2.7622e+08,-23392,0,1.6871e+08,4793.6,11537,12607,1,12607,1,0.001171,9.101e-08,0,0.0013399,0.00012787,2.6194e+08,22855,0,3.2989e+08,24288,12606,618.61,0,618.61,0,0.0010684,1.9682e-07,0,0.00057606,0.00019942,2.9784e+08,45055,0,1.4453e+08,14216,618.61,1
2137,6.02,12073,1,12073,1,0.0003089,4.6135e-09,0,0.00095316,-5.6438e-05,-1.6163e+06,601.23,0,2.6046e+08,18181,12072,13208,1,13208,1,0.0021038,7.8763e-07,0,0.0021038,0.00027682,3.4306e+08,1.4135e+05,0,5.9966e+08,69403,13207,12073,1,12073,1,0.00024833,1.2656e-09,0,0.00094383,-4.5379e-05,7.6982e+07,336.51,0,2.7519e+08,16015,12072,10979,1,10979,1,-0.0014744,-7.1999e-07,0,1.6708e-05,-0.00039137,-5.9966e+08,-1.464e+05,0,7.6668e+06,27.107,10978,11538,1,11538,1,-0.00067928,-9.799e-08,0,0.00051137,-0.00021829,-2.7625e+08,-24509,0,1.6844e+08,5179.4,11537,12607,1,12607,1,0.0011761,1.0231e-07,0,0.0013419,0.00012789,2.6206e+08,25476,0,3.3006e+08,26129,12606,618.61,0,618.61,0,0.0010713,2.1352e-07,0,0.00057819,0.00019996,2.9798e+08,48716,0,1.4465e+08,15154,618.61,1
2137,6.03,12073,1,12073,1,0.0003116,5.6073e-09,0,0.00095608,-5.6929e-05,-1.6177e+06,806.61,0,2.6055e+08,19567,12072,13208,1,13208,1,0.0021117,8.5058e-07,0,0.0021117,0.00027726,3.4232e+08,1.5287e+05,0,6.0061e+08,73602,13207,12073,1,12073,1,0.0002509,2.3727e-09,0,0.00094461,-4.5846e-05,7.7639e+07,568.22,0,2.7517e+08,17295,12072,10979,1,10979,1,-0.0014767,-7.7891e-07,0,1.4894e-05,-0.00039282,-6.0061e+08,-1.5868e+05,0,7.0084e+06,70.83,10978,11538,1,11538,1,-0.00067934,-1.0737e-07,0,0.00051451,-0.00021924,-2.7627e+08,-26340,0,1.6816e+08,5601,11537,12607,1,12607,1,0.0011813,1.1228e-07,0,0.0013438,0.00012791,2.6217e+08,28097,0,3.3023e+08,28297,12606,618.61,0,618.61,0,0.0010743,2.3148e-07,0,0.00058038,0.00020051,2.9813e+08,52810,0,1.4478e+08,16208,618.61,1
2137,6.04,12073,1,12073,1,0.00031436,2.9592e-09,0,0.00095905,-5.7431e-05,-1.6194e+06,151.04,0,2.6064e+08,21279,12072,13208,1,13208,1,0.0021197,9.2612e-07,0,0.0021197,0.00027769,3.4155e+08,1.653e+05,0,6.0156e+08,78572,13207,12073,1,12073,1,0.00025352,-2.6938e-09,0,0.00094535,-4.6322e-05,7.8308e+07,-701.44,0,2.7513e+08,19036,12072,10979,1,10979,1,-0.001479,-8.5265e-07,0,1.303e-05,-0.00039429,-6.0156e+08,-1.7117e+05,0,6.3332e+06,94.652,10978,11538,1,11538,1,-0.00067939,-1.2017e-07,0,0.0005177,-0.00022021,-2.7629e+08,-30038,0,1.6787e+08,6154.9,11537,12607,1,12607,1,0.0011866,1.2047e-07,0,0.0013458,0.00012793,2.6228e+08,29993,0,3.304e+08,30726,12606,618.61,0,618.61,0,0.0010774,2.5381e-07,0,0.00058261,0.00020108,2.9826e+08,57543,0,1.4491e+08,17384,618.61,1
2137,6.05,12073,1,12073,1,0.00031719,5.5764e-09,0,0.00096208,-5.7944e-05,-1.6207e+06,691.07,0,2.6073e+08,22936,12072,13208,1,13208,1,0.0021279,1.0045e-06,0,0.0021279,0.00027815,3.4078e+08,1.7911e+05,0,6.0253e+08,83433,13207,12073,1,12073,1,0.00025622,1.6354e-09,0,0.00094613,-4.6811e-05,7.8992e+07,421.48,0,2.7509e+08,20582,12072,10979,1,10979,1,-0.0014814,-9.2329e-07,0,1.1118e-05,-0.0003958,-6.0253e+08,-1.8593e+05,0,5.6439e+06,116.36,10978,11538,1,11538,1,-0.00067943,-1.3034e-07,0,0.00052095,-0.00022121,-2.7631e+08,-32120,0,1.6757e+08,6647.9,11537,12607,1,12607,1,0.0011921,1.3464e-07,0,0.0013478,0.00012794,2.6239e+08,33615,0,3.3056e+08,33336,12606,618.61,0,618.61,0,0.0010805,2.761e-07,0,0.0005849,0.00020165,2.9841e+08,62517,0,1.4505e+08,18592,618.61,1
2137,6.06,12073,1,12073,1,0.00032008,1.5516e-09,0,0.00096517,-5.8468e-05,-1.622e+06,-357.01,0,2.6081e+08,24948,12072,13208,1,13208,1,0.0021363,1.0904e-06,0,0.0021363,0.0002786,3.3997e+08,1.9446e+05,0,6.0351e+08,89102,13207,12073,1,12073,1,0.00025899,-3.3716e-09,0,0.00094686,-4.7311e-05,7.9693e+07,-879.37,0,2.7504e+08,22645,12072,10979,1,10979,1,-0.0014838,-1.0092e-06,0,9.1475e-06,-0.00039735,-6.0351e+08,-2.0284e+05,0,4.935e+06,116.16,10978,11538,1,11538,1,-0.00067945,-1.4874e-07,0,0.00052425,-0.00022223,-2.7631e+08,-36727,0,1.6725e+08,7240.3,11537,12607,1,12607,1,0.0011976,1.4345e-07,0,0.0013498,0.00012796,2.6249e+08,35645,0,3.3072e+08,36312,12606,618.61,0,618.61,0,0.0010837,3.0198e-07,0,0.00058724,0.00020224,2.9855e+08,68335,0,1.4518e+08,20063,618.61,1
2137,6.07,12073,1,12073,1,0.00032306,4.6063e-09,0,0.00096834,-5.9006e-05,-1.6235e+06,209.63,0,2.6089e+08,27127,12072,13208,1,13208,1,0.0021449,1.197e-06,0,0.0021449,0.00027907,3.3917e+08,2.1124e+05,0,6.0452e+08,94704,13207,12073,1,12073,1,0.00026184,-2.9648e-09,0,0.00094764,-4.7825e-05,8.041e+07,-746.54,0,2.7499e+08,24947,12072,10979,1,10979,1,-0.0014863,-1.1017e-06,0,7.1194e-06,-0.00039893,-6.0452e+08,-2.1966e+05,0,4.2062e+06,171.5,10978,11538,1,11538,1,-0.00067947,-1.6161e-07,0,0.00052762,-0.00022328,-2.7632e+08,-39832,0,1.6693e+08,8029.1,11537,12607,1,12607,1,0.0012034,1.6137e-07,0,0.0013518,0.00012797,2.6259e+08,39955,0,3.3088e+08,39704,12606,618.61,0,618.61,0,0.0010869,3.3237e-07,0,0.00058965,0.00020284,2.9869e+08,74734,0,1.4532e+08,21554,618.61,1
2137,6.08,12073,1,12073,1,0.00032611,5.7502e-09,0,0.00097158,-5.9557e-05,-1.6245e+06,364.31,0,2.6097e+08,29488,12072,13208,1,13208,1,0.0021538,1.3094e-06,0,0.0021538,0.00027955,3.3834e+08,2.2976e+05,0,6.0554e+08,1.0099e+05,13207,12073,1,12073,1,0.00026477,-9.5022e-10,0,0.00094841,-4.8354e-05,8.1147e+07,-247.58,0,2.7493e+08,27243,12072,10979,1,10979,1,-0.0014888,-1.2054e-06,0,5.0286e-06,-0.00040056,-6.0554e+08,-2.3869e+05,0,3.4559e+06,243.28,10978,11538,1,11538,1,-0.00067948,-1.7678e-07,0,0.00053107,-0.00022436,-2.7633e+08,-43955,0,1.6659e+08,8772.4,11537,12607,1,12607,1,0.0012093,1.7786e-07,0,0.0013539,0.00012798,2.6269e+08,44213,0,3.3104e+08,43339,12606,618.61,0,618.61,0,0.0010902,3.6492e-07,0,0.00059212,0.00020345,2.9883e+08,81743,0,1.4547e+08,23225,618.61,1
2137,6.09,12073,1,12073,1,0.00032926,7.5648e-09,0,0.0009749,-6.0126e-05,-1.6259e+06,645.05,0,2.6105e+08,32067,12072,13208,1,13208,1,0.0021629,1.4291e-06,0,0.0021629,0.00028003,3.3749e+08,2.5046e+05,0,6.0659e+08,1.0783e+05,13207,12073,1,12073,1,0.00026779,-9.49e-10,0,0.00094918,-4.8898e-05,8.1903e+07,-223.31,0,2.7486e+08,29984,12072,10979,1,10979,1,-0.0014914,-1.3183e-06,0,2.864e-06,-0.00040224,-6.0659e+08,-2.5964e+05,0,2.6803e+06,280.92,10978,11538,1,11538,1,-0.00067946,-1.9425e-07,0,0.0005346,-0.00022546,-2.7632e+08,-48273,0,1.6623e+08,9641.8,11537,12607,1,12607,1,0.0012153,1.9994e-07,0,0.0013561,0.00012799,2.6279e+08,48977,0,3.312e+08,47270,12606,618.61,0,618.61,0,0.0010936,4.0083e-07,0,0.00059467,0.00020408,2.9896e+08,89477,0,1.4561e+08,25001,618.61,1
2137,6.1,12073,1,12073,1,0.0003325,7.5325e-09,0,0.0009783,-6.071e-05,-1.6276e+06,526.31,0,2.6112e+08,35052,12072,13208,1,13208,1,0.0021723,1.5672e-06,0,0.0021723,0.00028053,3.366e+08,2.7285e+05,0,6.0764e+08,1.1515e+05,13207,12073,1,12073,1,0.00027091,-2.7341e-09,0,0.00094994,-4.9458e-05,8.2679e+07,-695.48,0,2.7478e+08,32974,12072,10979,1,10979,1,-0.001494,-1.4509e-06,0,6.266e-07,-0.00040396,-6.0764e+08,-2.8303e+05,0,1.8797e+06,274.42,10978,11538,1,11538,1,-0.00067943,-2.1374e-07,0,0.00053821,-0.0002266,-2.763e+08,-53485,0,1.6586e+08,10571,11537,12607,1,12607,1,0.0012216,2.1945e-07,0,0.0013582,0.00012799,2.6288e+08,53886,0,3.3135e+08,51912,12606,618.61,0,618.61,0,0.0010971,4.4241e-07,0,0.00059728,0.00020472,2.991e+08,98236,0,1.4576e+08,27029,618.61,1
2137,6.11,12073,1,12073,1,0.00033584,9.7528e-09,0,0.00098188,-6.1312e-05,-1.6286e+06,895.7,0,2.6119e+08,38219,12072,13208,1,13208,1,0.0021819,1.7182e-06,0,0.0021819,0.00028104,3.3571e+08,2.984e+05,0,6.0875e+08,1.2313e+05,13207,12073,1,12073,1,0.00027414,9.6638e-10,0,0.00095178,-5.0037e-05,8.348e+07,242.42,0,2.747e+08,36216,12072,10979,1,10979,1,-0.0014967,-1.5885e-06,0,2.9225e-07,-0.00040575,-6.0875e+08,-3.0991e+05,0,1.0532e+06,343.98,10978,11538,1,11538,1,-0.0006794,-2.3574e-07,0,0.0005419,-0.00022778,-2.7629e+08,-58501,0,1.6547e+08,11447,11537,12607,1,12607,1,0.001228,2.4438e-07,0,0.0013643,0.000128,2.6297e+08,59838,0,3.315e+08,56858,12606,618.61,0,618.61,0,0.0011007,4.8694e-07,0,0.00059988,0.00020538,2.9924e+08,1.079e+05,0,1.4592e+08,29227,618.61,1
2137,6.12,12073,1,12073,1,0.0003393,7.0793e-09,0,0.00098563,-6.1933e-05,-1.63e+06,109.38,0,2.6126e+08,41865,12072,13208,1,13208,1,0.0021919,1.895e-06,0,0.0021919,0.00028156,3.3477e+08,3.2628e+05,0,6.0986e+08,1.3174e+05,13207,12073,1,12073,1,0.00027749,-7.4378e-09,0,0.00095269,-5.0636e-05,8.4306e+07,-1879.3,0,2.746e+08,39863,12072,10979,1,10979,1,-0.0014995,-1.7559e-06,0,1.0927e-06,-0.00040759,-6.0986e+08,-3.3821e+05,0,1.9479e+05,293.01,10978,11538,1,11538,1,-0.00067933,-2.6398e-07,0,0.00054265,-0.00022899,-2.7626e+08,-66161,0,1.6506e+08,12538,11537,12607,1,12607,1,0.0012347,2.6785e-07,0,0.0013715,0.000128,2.6305e+08,65259,0,3.3164e+08,62564,12606,618.61,0,618.61,0,0.0011044,5.4018e-07,0,0.00060242,0.00020606,2.9938e+08,1.1897e+05,0,1.4609e+08,31674,618.61,1
2137,6.13,12073,1,12073,1,0.00034286,1.0549e-08,0,0.00098951,-6.2573e-05,-1.6309e+06,668.66,0,2.6135e+08,45855,12072,13208,1,13208,1,0.0022023,2.0865e-06,0,0.0022023,0.00028209,3.3382e+08,3.5765e+05,0,6.1101e+08,1.4109e+05,13207,12073,1,12073,1,0.00028096,-4.7e-09,0,0.00095358,-5.1254e-05,8.5159e+07,-1185.2,0,2.7449e+08,43718,12072,10979,1,10979,1,-0.0015023,-1.9301e-06,0,3.1949e-06,-0.00040949,-6.1101e+08,-3.7066e+05,0,1.0593e+05,128.83,10978,11538,1,11538,1,-0.00067925,-2.9294e-07,0,0.00054209,-0.00023025,-2.7623e+08,-72831,0,1.6464e+08,13668,11537,12607,1,12607,1,0.0012416,2.9998e-07,0,0.0013789,0.000128,2.6313e+08,73702,0,3.3178e+08,68990,12606,618.61,0,618.61,0,0.0011082,5.9745e-07,0,0.00060503,0.00020676,2.9952e+08,1.3109e+05,0,1.4621e+08,34390,618.61,1
2137,6.14,12073,1,12073,1,0.00034657,1.4144e-08,0,0.00099355,-6.3236e-05,-1.6325e+06,1284.6,0,2.6148e+08,50270,12072,13208,1,13208,1,0.0022131,2.2984e-06,0,0.0022131,0.00028266,3.3286e+08,3.933e+05,0,6.1223e+08,1.5035e+05,13207,12073,1,12073,1,0.00028457,5.4351e-10,0,0.00095453,-5.1898e-05,8.6045e+07,149.56,0,2.7439e+08,48165,12072,10979,1,10979,1,-0.0015053,-2.1285e-06,0,5.3972e-06,-0.00041149,-6.1223e+08,-4.0751e+05,0,3.2168e+05,494.9,10978,11538,1,11538,1,-0.00067919,-3.2479e-07,0,0.00054152,-0.00023156,-2.762e+08,-80253,0,1.642e+08,15047,11537,12607,1,12607,1,0.0012488,3.3824e-07,0,0.0013866,0.00012801,2.6322e+08,83002,0,3.3138e+08,76173,12606,618.61,0,618.61,0,0.0011121,6.6236e-07,0,0.00060776,0.00020749,2.9967e+08,1.449e+05,0,1.4628e+08,37333,618.61,1
2137,6.15,12073,1,12073,1,0.00035043,1.67e-08,0,0.00099772,-6.3926e-05,-1.6341e+06,1670.7,0,2.616e+08,55367,12072,13208,1,13208,1,0.0022244,2.5438e-06,0,0.0022244,0.00028323,3.3184e+08,4.3294e+05,0,6.1346e+08,1.6095e+05,13207,12073,1,12073,1,0.00028836,2.1957e-09,0,0.00095546,-5.2568e-05,8.6966e+07,543.44,0,2.7426e+08,53568,12072,10979,1,10979,1,-0.0015083,-2.3599e-06,0,7.6966e-06,-0.00041356,-6.1346e+08,-4.4793e+05,0,1.1104e+06,596.8,10978,11538,1,11538,1,-0.00067907,-3.6431e-07,0,0.00054088,-0.00023292,-2.7615e+08,-89680,0,1.6372e+08,16853,11537,12607,1,12607,1,0.0012563,3.8348e-07,0,0.0013947,0.000128,2.6329e+08,92788,0,3.3019e+08,84504,12606,618.61,0,618.61,0,0.0011162,7.3807e-07,0,0.00061059,0.00020824,2.9981e+08,1.6066e+05,0,1.4635e+08,40676,618.61,1
2137,6.16,12073,1,12073,1,0.00035445,1.955e-08,0,0.001002,-6.4643e-05,-1.6352e+06,2132.8,0,2.6173e+08,61047,12072,13208,1,13208,1,0.0022362,2.8206e-06,0,0.0022362,0.00028382,3.308e+08,4.7721e+05,0,6.1474e+08,1.7219e+05,13207,12073,1,12073,1,0.00029231,5.4523e-09,0,0.00095641,-5.3265e-05,8.7924e+07,1401.6,0,2.7412e+08,59568,12072,10979,1,10979,1,-0.0015114,-2.6223e-06,0,1.0071e-05,-0.00041572,-6.1474e+08,-4.9304e+05,0,1.9495e+06,599.57,10978,11538,1,11538,1,-0.00067894,-4.1009e-07,0,0.00054021,-0.00023435,-2.761e+08,-1.0074e+05,0,1.6322e+08,18621,11537,12607,1,12607,1,0.0012642,4.2996e-07,0,0.0014031,0.000128,2.6336e+08,1.0471e+05,0,3.2896e+08,94051,12606,618.61,0,618.61,0,0.0011204,8.2415e-07,0,0.00061355,0.00020902,2.9995e+08,1.7848e+05,0,1.4642e+08,44382,618.61,1
2137,6.17,12073,1,12073,1,0.00035865,1.9359e-08,0,0.0010066,-6.5391e-05,-1.6366e+06,1926.8,0,2.6185e+08,67367,12072,13208,1,13208,1,0.0022485,3.1233e-06,0,0.0022485,0.00028445,3.2972e+08,5.2819e+05,0,6.1607e+08,1.8468e+05,13207,12073,1,12073,1,0.00029646,1.7715e-09,0,0.00095741,-5.3995e-05,8.8925e+07,465,0,2.7397e+08,66464,12072,10979,1,10979,1,-0.0015147,-2.9157e-06,0,1.2518e-05,-0.000418,-6.1607e+08,-5.4521e+05,0,2.8145e+06,766.5,10978,11538,1,11538,1,-0.0006788,-4.6726e-07,0,0.00053949,-0.00023584,-2.7604e+08,-1.1328e+05,0,1.627e+08,20742,11537,12607,1,12607,1,0.0012724,4.8081e-07,0,0.0014119,0.000128,2.6343e+08,1.1746e+05,0,3.2768e+08,1.0483e+05,12606,618.61,0,618.61,0,0.0011248,9.2062e-07,0,0.00061664,0.00020984,3.001e+08,1.986e+05,0,1.465e+08,48533,618.61,1
2137,6.18,12073,1,12073,1,0.00036305,2.0042e-08,0,0.0010113,-6.6171e-05,-1.6377e+06,1787.4,0,2.6197e+08,74620,12072,13208,1,13208,1,0.0022615,3.4812e-06,0,0.0022615,0.00028509,3.286e+08,5.8493e+05,0,6.1746e+08,1.9767e+05,13207,12073,1,12073,1,0.00030084,-1.1942e-10,0,0.00095843,-5.476e-05,8.9974e+07,-11.948,0,2.7381e+08,73874,12072,10979,1,10979,1,-0.0015182,-3.2576e-06,0,1.5051e-05,-0.00042038,-6.1746e+08,-6.0344e+05,0,3.7074e+06,815.97,10978,11538,1,11538,1,-0.00067862,-5.3234e-07,0,0.00053872,-0.00023741,-2.7596e+08,-1.2866e+05,0,1.6214e+08,23186,11537,12607,1,12607,1,0.0012811,5.4673e-07,0,0.0014212,0.00012799,2.635e+08,1.324e+05,0,3.2632e+08,1.1763e+05,12606,618.61,0,618.61,0,0.0011294,1.0344e-06,0,0.00061988,0.00021068,3.0024e+08,2.2187e+05,0,1.4659e+08,53244,618.61,1
2137,6.19,12073,1,12073,1,0.00036766,2.4613e-08,0,0.0010162,-6.6989e-05,-1.6392e+06,2530.4,0,2.621e+08,82727,12072,13208,1,13208,1,0.0022752,3.8802e-06,0,0.0022752,0.00028577,3.2745e+08,6.5037e+05,0,6.1892e+08,2.115e+05,13207,12073,1,12073,1,0.00030545,3.3527e-09,0,0.00095948,-5.5563e-05,9.1075e+07,902.34,0,2.7362e+08,82559,12072,10979,1,10979,1,-0.0015217,-3.6375e-06,0,1.7651e-05,-0.00042291,-6.1892e+08,-6.697e+05,0,4.6211e+06,954.94,10978,11538,1,11538,1,-0.00067842,-5.9846e-07,0,0.00053789,-0.00023906,-2.7588e+08,-1.4497e+05,0,1.6154e+08,25953,11537,12607,1,12607,1,0.0012902,6.2196e-07,0,0.001431,0.00012798,2.6356e+08,1.5026e+05,0,3.2489e+08,1.3229e+05,12606,618.61,0,618.61,0,0.0011342,1.1627e-06,0,0.00062329,0.00021157,3.0039e+08,2.483e+05,0,1.4667e+08,58507,618.61,1
2137,6.2,12073,1,12073,1,0.00037251,2.4067e-08,0,0.0010213,-6.7845e-05,-1.6409e+06,2013.4,0,2.6221e+08,92154,12072,13208,1,13208,1,0.0022896,4.3518e-06,0,0.0022896,0.00028647,3.2625e+08,7.2268e+05,0,6.2043e+08,2.2625e+05,13207,12073,1,12073,1,0.00031034,4.5125e-10,0,0.00096054,-5.6407e-05,9.2233e+07,120.85,0,2.7342e+08,93564,12072,10979,1,10979,1,-0.0015254,-4.0885e-06,0,2.0359e-05,-0.00042556,-6.2043e+08,-7.431e+05,0,5.5675e+06,984.99,10978,11538,1,11538,1,-0.00067817,-6.7666e-07,0,0.00053698,-0.0002408,-2.7577e+08,-1.6606e+05,0,1.6117e+08,29196,11537,12607,1,12607,1,0.0012999,7.0052e-07,0,0.0014414,0.00012797,2.636e+08,1.6933e+05,0,3.2337e+08,1.4965e+05,12606,618.61,0,618.61,0,0.0011392,1.3158e-06,0,0.00062687,0.00021249,3.0054e+08,2.7887e+05,0,1.4677e+08,64583,618.61,1
2137,6.21,12073,1,12073,1,0.00037762,2.4591e-08,0,0.0010267,-6.8747e-05,-1.6418e+06,1643.7,0,2.6233e+08,1.0254e+05,12072,13208,1,13208,1,0.002305,4.8642e-06,0,0.002305,0.00028722,3.2501e+08,8.0656e+05,0,6.2204e+08,2.4171e+05,13207,12073,1,12073,1,0.00031553,-6.5492e-09,0,0.00096168,-5.73e-05,9.3457e+07,-1629.8,0,2.732e+08,1.0346e+05,12072,10979,1,10979,1,-0.0015294,-4.5908e-06,0,2.3146e-05,-0.0004284,-6.2204e+08,-8.2999e+05,0,6.5367e+06,1105,10978,11538,1,11538,1,-0.0006779,-7.7802e-07,0,0.00053601,-0.00024264,-2.7566e+08,-1.8828e+05,0,1.6114e+08,32779,11537,12607,1,12607,1,0.0013102,7.9732e-07,0,0.0014524,0.00012795,2.6365e+08,1.9292e+05,0,3.2178e+08,1.6794e+05,12606,618.61,0,618.61,0,0.0011444,1.4856e-06,0,0.00063066,0.00021346,3.007e+08,3.1372e+05,0,1.4687e+08,71381,618.61,1
2137,6.22,12073,1,12073,1,0.00038303,3.3248e-08,0,0.0010325,-6.9699e-05,-1.6434e+06,3049.4,0,2.6245e+08,1.1464e+05,12072,13208,1,13208,1,0.0023215,5.4743e-06,0,0.0023215,0.00028802,3.2376e+08,9.0279e+05,0,6.2375e+08,2.5715e+05,13207,12073,1,12073,1,0.00032108,3.0306e-09,0,0.00096288,-5.8246e-05,9.4757e+07,815.29,0,2.7296e+08,1.1475e+05,12072,10979,1,10979,1,-0.0015336,-5.1731e-06,0,2.6012e-05,-0.00043143,-6.2375e+08,-9.268e+05,0,7.5268e+06,1532.4,10978,11538,1,11538,1,-0.00067761,-8.8394e-07,0,0.00053497,-0.00024462,-2.7554e+08,-2.1416e+05,0,1.6111e+08,37157,11537,12607,1,12607,1,0.0013212,9.1078e-07,0,0.0014642,0.00012794,2.637e+08,2.2067e+05,0,3.2008e+08,1.9076e+05,12606,618.61,0,618.61,0,0.00115,1.6891e-06,0,0.00063469,0.00021449,3.0086e+08,3.5436e+05,0,1.4699e+08,79186,618.61,1
2137,6.23,12073,1,12073,1,0.00038878,3.4565e-08,0,0.0010385,-7.0709e-05,-1.6447e+06,2763.1,0,2.6256e+08,1.2849e+05,12072,13208,1,13208,1,0.0023391,6.1717e-06,0,0.0023391,0.00028885,3.2242e+08,1.0116e+06,0,6.2553e+08,2.7495e+05,13207,12073,1,12073,1,0.00032703,-1.1003e-09,0,0.00096408,-5.925e-05,9.6141e+07,-221.02,0,2.7268e+08,1.2929e+05,12072,10979,1,10979,1,-0.001538,-5.8574e-06,0,2.9008e-05,-0.00043467,-6.2553e+08,-1.0373e+06,0,8.5527e+06,1559.3,10978,11538,1,11538,1,-0.00067723,-1.0168e-06,0,0.00053381,-0.00024672,-2.7538e+08,-2.4613e+05,0,1.6187e+08,42466,11537,12607,1,12607,1,0.0013329,1.0467e-06,0,0.0014768,0.00012792,2.6372e+08,2.5322e+05,0,3.1825e+08,2.1427e+05,12606,618.61,0,618.61,0,0.0011559,1.927e-06,0,0.00063898,0.00021557,3.0101e+08,4.0149e+05,0,1.4711e+08,88249,618.61,1
2137,6.24,12073,1,12073,1,0.00039491,4.4739e-08,0,0.0010449,-7.1781e-05,-1.646e+06,4355.6,0,2.6267e+08,1.4423e+05,12072,13208,1,13208,1,0.0023581,6.9714e-06,0,0.0023581,0.00028975,3.2106e+08,1.1396e+06,0,6.2746e+08,2.9438e+05,13207,12073,1,12073,1,0.00033344,8.6659e-09,0,0.00096538,-6.0325e-05,9.7621e+07,2093.3,0,2.7238e+08,1.4515e+05,12072,10979,1,10979,1,-0.0015427,-6.6332e-06,0,3.2092e-05,-0.00043817,-6.2746e+08,-1.1657e+06,0,9.5992e+06,1874.6,10978,11538,1,11538,1,-0.00067682,-1.1672e-06,0,0.00053255,-0.00024898,-2.7521e+08,-2.818e+05,0,1.6273e+08,45959,11537,12607,1,12607,1,0.0013456,1.2125e-06,0,0.0014904,0.00012791,2.6375e+08,2.9244e+05,0,3.163e+08,2.4231e+05,12606,618.61,0,618.61,0,0.0011621,2.2033e-06,0,0.00064356,0.00021672,3.0118e+08,4.5631e+05,0,1.4725e+08,98718,618.61,1
2137,6.25,12073,1,12073,1,0.00040145,4.3944e-08,0,0.0010517,-7.2921e-05,-1.6471e+06,3481.5,0,2.6277e+08,1.6257e+05,12072,13208,1,13208,1,0.0023787,7.9005e-06,0,0.0023787,0.0002907,3.1962e+08,1.2848e+06,0,6.2951e+08,3.2212e+05,13207,12073,1,12073,1,0.00034037,7.0912e-10,0,0.00096672,-6.1472e-05,9.921e+07,234.05,0,2.7204e+08,1.6147e+05,12072,10979,1,10979,1,-0.0015478,-7.5581e-06,0,3.5263e-05,-0.00044195,-6.2951e+08,-1.3132e+06,0,1.0665e+07,2320.2,10978,11538,1,11538,1,-0.00067634,-1.3615e-06,0,0.00053115,-0.00025142,-2.7501e+08,-3.2743e+05,0,1.636e+08,49496,11537,12607,1,12607,1,0.0013593,1.4067e-06,0,0.0015051,0.00012789,2.6376e+08,3.3652e+05,0,3.1419e+08,2.6857e+05,12606,618.61,0,618.61,0,0.0011687,2.5332e-06,0,0.00064846,0.00021794,3.0134e+08,5.2097e+05,0,1.474e+08,1.1109e+05,618.61,1
2137,6.26,12073,1,12073,1,0.00040847,5.4341e-08,0,0.001059,-7.4142e-05,-1.6479e+06,4704,0,2.6287e+08,1.8366e+05,12072,13208,1,13208,1,0.0024012,8.9952e-06,0,0.0024012,0.00029173,3.1817e+08,1.4533e+06,0,6.3171e+08,3.6795e+05,13207,12073,1,12073,1,0.00034792,4.4009e-09,0,0.00096814,-6.2705e-05,1.0092e+08,1129.2,0,2.7166e+08,1.8629e+05,12072,10979,1,10979,1,-0.0015532,-8.6251e-06,0,3.8543e-05,-0.00044608,-6.3171e+08,-1.4828e+06,0,1.1751e+07,2328.5,10978,11538,1,11538,1,-0.00067579,-1.5838e-06,0,0.00052961,-0.00025407,-2.7478e+08,-3.8178e+05,0,1.6448e+08,55530,11537,12607,1,12607,1,0.0013743,1.6392e-06,0,0.0015212,0.00012782,2.6376e+08,3.8771e+05,0,3.1192e+08,3.0348e+05,12606,618.61,0,618.61,0,0.0011757,2.9261e-06,0,0.00065374,0.00021924,3.015e+08,5.9716e+05,0,1.4757e+08,1.2573e+05,618.61,1
2137,6.27,12073,1,12073,1,0.00041602,6.051e-08,0,0.0010667,-7.5451e-05,-1.649e+06,5034.6,0,2.6295e+08,2.08e+05,12072,13208,1,13208,1,0.0024258,1.0255e-05,0,0.0024258,0.00029284,3.1664e+08,1.6477e+06,0,6.3409e+08,4.3351e+05,13207,12073,1,12073,1,0.00035617,3.3236e-09,0,0.00096964,-6.4033e-05,1.0278e+08,1034.8,0,2.7123e+08,2.1343e+05,12072,10979,1,10979,1,-0.0015591,-9.8795e-06,0,4.1918e-05,-0.00045061,-6.3409e+08,-1.6779e+06,0,1.2855e+07,2449.2,10978,11538,1,11538,1,-0.00067513,-1.8559e-06,0,0.00052788,-0.00025695,-2.7451e+08,-4.4652e+05,0,1.6536e+08,64598,11537,12607,1,12607,1,0.0013907,1.9112e-06,0,0.0015385,0.00012774,2.6373e+08,4.5506e+05,0,3.0943e+08,3.462e+05,12606,618.61,0,618.61,0,0.0011833,3.394e-06,0,0.00065945,0.00022063,3.0167e+08,6.8701e+05,0,1.4775e+08,1.4322e+05,618.61,1
2137,6.28,12073,1,12073,1,0.00042418,7.1442e-08,0,0.0010751,-7.686e-05,-1.65e+06,6187.5,0,2.6303e+08,2.3611e+05,12072,13208,1,13208,1,0.0024529,1.1721e-05,0,0.0024529,0.00029405,3.1509e+08,1.8722e+06,0,6.3668e+08,5.1429e+05,13207,12073,1,12073,1,0.00036525,9.8443e-09,0,0.00097124,-6.5471e-05,1.0481e+08,2865.7,0,2.7075e+08,2.3769e+05,12072,10979,1,10979,1,-0.0015654,-1.1347e-05,0,4.5364e-05,-0.0004556,-6.3668e+08,-1.9026e+06,0,1.3966e+07,2508.9,10978,11538,1,11538,1,-0.00067439,-2.1899e-06,0,0.00052596,-0.00026012,-2.7419e+08,-5.2231e+05,0,1.6624e+08,75392,11537,12607,1,12607,1,0.0014087,2.2584e-06,0,0.0015516,0.00012764,2.6369e+08,5.358e+05,0,3.0672e+08,3.7943e+05,12606,618.61,0,618.61,0,0.0011914,3.9553e-06,0,0.00066564,0.00022212,3.0184e+08,7.9356e+05,0,1.4796e+08,1.6442e+05,618.61,1
2137,6.29,12073,1,12073,1,0.00043305,7.7783e-08,0,0.0010841,-7.8385e-05,-1.6507e+06,6080.2,0,2.631e+08,2.6846e+05,12072,13208,1,13208,1,0.0024832,1.3415e-05,0,0.0024832,0.00029538,3.1347e+08,2.1328e+06,0,6.3953e+08,6.1416e+05,13207,12073,1,12073,1,0.00037532,4.3754e-09,0,0.00097679,-6.7037e-05,1.0703e+08,1866.8,0,2.702e+08,2.6256e+05,12072,10979,1,10979,1,-0.0015724,-1.3062e-05,0,4.89e-05,-0.00046117,-6.3953e+08,-2.1637e+06,0,1.5088e+07,2428.7,10978,11538,1,11538,1,-0.00067353,-2.5797e-06,0,0.00052405,-0.00026362,-2.7383e+08,-6.1612e+05,0,1.6711e+08,87137,11537,12607,1,12607,1,0.0014288,2.6462e-06,0,0.0015616,0.00012751,2.6363e+08,6.3018e+05,0,3.0374e+08,4.3485e+05,12606,618.61,0,618.61,0,0.0012002,4.6298e-06,0,0.00067242,0.00022374,3.0201e+08,9.207e+05,0,1.4819e+08,1.9051e+05,618.61,1
2137,6.3,12073,1,12073,1,0.00044271,9.0072e-08,0,0.0010939,-8.004e-05,-1.6511e+06,6997.9,0,2.6314e+08,3.058e+05,12072,13208,1,13208,1,0.0025171,1.5385e-05,0,0.0025171,0.00029683,3.118e+08,2.4343e+06,0,6.4266e+08,7.3901e+05,13207,12073,1,12073,1,0.00038657,1.0048e-08,0,0.00099434,-6.8747e-05,1.0948e+08,2692.7,0,2.6956e+08,2.9208e+05,12072,10979,1,10979,1,-0.0015801,-1.5067e-05,0,5.2468e-05,-0.00046742,-6.4266e+08,-2.4616e+06,0,1.6204e+07,2137.3,10978,11538,1,11538,1,-0.00067249,-3.0626e-06,0,0.0005235,-0.00026752,-2.734e+08,-7.3054e+05,0,1.6796e+08,96125,11537,12607,1,12607,1,0.0014512,3.1622e-06,0,0.0015711,0.00012734,2.6353e+08,7.4669e+05,0,3.0043e+08,4.8947e+05,12606,618.61,0,618.61,0,0.0012097,5.4487e-06,0,0.00067983,0.00022548,3.0217e+08,1.073e+06,0,1.4845e+08,2.2332e+05,618.61,1
2137,6.31,12073,1,12073,1,0.00045333,1.1111e-07,0,0.0011046,-8.1852e-05,-1.6513e+06,9374.4,0,2.6317e+08,3.4849e+05,12072,13208,1,13208,1,0.0025557,1.7653e-05,0,0.0025557,0.00029847,3.1015e+08,2.7808e+06,0,6.4617e+08,8.9676e+05,13207,12073,1,12073,1,0.00039925,1.8406e-08,0,0.0010142,-7.0624e-05,1.1221e+08,5895,0,2.6884e+08,3.1236e+05,12072,10979,1,10979,1,-0.0015887,-1.7399e-05,0,5.6087e-05,-0.00047452,-6.4617e+08,-2.803e+06,0,1.7315e+07,1872.9,10978,11538,1,11538,1,-0.00067132,-3.6787e-06,0,0.00052279,-0.00027191,-2.729e+08,-8.7249e+05,0,1.6877e+08,1.0205e+05,11537,12607,1,12607,1,0.0014767,3.7825e-06,0,0.001581,0.00012712,2.634e+08,8.9015e+05,0,2.9681e+08,5.605e+05,12606,618.61,0,618.61,0,0.0012201,6.4471e-06,0,0.00068806,0.00022739,3.0235e+08,1.2561e+06,0,1.4875e+08,2.6543e+05,618.61,1
2137,6.32,12073,1,12073,1,0.00046506,1.1769e-07,0,0.0011164,-8.3851e-05,-1.6513e+06,8637.2,0,2.6316e+08,3.9711e+05,12072,13208,1,13208,1,0.0026001,2.0218e-05,0,0.0026001,0.00030031,3.084e+08,3.1763e+06,0,6.5009e+08,1.0971e+06,13207,12073,1,12073,1,0.00041371,1.7814e-08,0,0.0010369,-7.2704e-05,1.1528e+08,5475.8,0,2.6798e+08,3.2698e+05,12072,10979,1,10979,1,-0.0015984,-2.0131e-05,0,5.114e-05,-0.00048268,-6.5009e+08,-3.1887e+06,0,1.8429e+07,992.34,10978,11538,1,11538,1,-0.00066988,-4.4181e-06,0,0.00052189,-0.00027689,-2.7229e+08,-1.0387e+06,0,1.6954e+08,1.0892e+05,11537,12607,1,12607,1,0.0015059,4.5812e-06,0,0.0015912,0.00012682,2.6321e+08,1.0667e+06,0,2.9312e+08,6.4707e+05,12606,618.61,0,618.61,0,0.0012315,7.6697e-06,0,0.00069723,0.00022949,3.0251e+08,1.4767e+06,0,1.4909e+08,3.2066e+05,618.61,1
2137,6.33,12073,1,12073,1,0.0004781,1.4887e-07,0,0.0011293,-8.6066e-05,-1.6508e+06,12174,0,2.6312e+08,4.526e+05,12072,13208,1,13208,1,0.0026516,2.326e-05,0,0.0026516,0.00030239,3.0669e+08,3.6224e+06,0,6.5455e+08,1.3554e+06,13207,12073,1,12073,1,0.00043038,3.739e-08,0,0.0010631,-7.502e-05,1.1876e+08,9489.4,0,2.6697e+08,3.449e+05,12072,10979,1,10979,1,-0.0016094,-2.3238e-05,0,4.0983e-05,-0.00049217,-6.5455e+08,-3.6301e+06,0,1.6856e+07,294.42,10978,11538,1,11538,1,-0.00066815,-5.425e-06,0,0.00052087,-0.00028262,-2.7156e+08,-1.2499e+06,0,1.7023e+08,1.0423e+05,11537,12607,1,12607,1,0.0015392,5.5985e-06,0,0.0016017,0.00012642,2.6296e+08,1.2789e+06,0,2.8917e+08,7.404e+05,12606,618.61,0,618.61,0,0.0012441,9.1838e-06,0,0.00070754,0.0002318,3.0266e+08,1.7448e+06,0,1.4949e+08,3.9453e+05,618.61,1
2137,6.34,12073,1,12073,1,0.00049276,1.7534e-07,0,0.0011437,-8.8558e-05,-1.6489e+06,14946,0,2.6303e+08,5.1315e+05,12072,13208,1,13208,1,0.0027126,2.6957e-05,0,0.0027126,0.00030479,3.0488e+08,4.1299e+06,0,6.5969e+08,1.6894e+06,13207,12073,1,12073,1,0.00044985,6.9075e-08,0,0.0010938,-7.7628e-05,1.2275e+08,13995,0,2.6577e+08,3.5333e+05,12072,10979,1,10979,1,-0.001622,-2.695e-05,0,2.9093e-05,-0.00050339,-6.5969e+08,-4.1283e+06,0,1.242e+07,-1.1917e+05,10978,11538,1,11538,1,-0.00066605,-6.6447e-06,0,0.00051946,-0.00028885,-2.7066e+08,-1.5211e+06,0,1.7085e+08,72008,11537,12607,1,12607,1,0.0015732,6.8791e-06,0,0.0016138,0.0001259,2.6263e+08,1.5403e+06,0,2.8507e+08,8.672e+05,12606,618.61,0,618.61,0,0.0012582,1.1046e-05,0,0.00071928,0.00023438,3.0281e+08,2.0686e+06,0,1.4995e+08,4.952e+05,618.61,1
2137,6.35,12073,1,12073,1,0.00050944,1.9904e-07,0,0.00116,-9.1393e-05,-1.6468e+06,16939,0,2.6288e+08,5.7923e+05,12072,13208,1,13208,1,0.0027862,3.1783e-05,0,0.0027862,0.0003076,3.0301e+08,4.7606e+06,0,6.6569e+08,2.1294e+06,13207,12073,1,12073,1,0.00047299,1.0294e-07,0,0.001118,-8.0593e-05,1.2738e+08,23696,0,2.6277e+08,3.553e+05,12072,10979,1,10979,1,-0.0016368,-3.1808e-05,0,1.4936e-05,-0.00051694,-6.6569e+08,-4.7564e+06,0,7.3664e+06,-3.8002e+05,10978,11538,1,11538,1,-0.00066342,-8.2144e-06,0,0.00051803,-0.0002954,-2.6954e+08,-1.8121e+06,0,1.7137e+08,47975,11537,12607,1,12607,1,0.0016104,8.3655e-06,0,0.0016281,0.0001252,2.6218e+08,1.8448e+06,0,2.8134e+08,1.0175e+06,12606,618.61,0,618.61,0,0.0012742,1.3379e-05,0,0.00073289,0.0002373,3.0294e+08,2.4642e+06,0,1.5049e+08,6.3499e+05,618.61,1
2137,6.36,12073,1,12073,1,0.00052868,2.1394e-07,0,0.0011786,-9.4655e-05,-1.6435e+06,16680,0,2.6264e+08,6.5117e+05,12072,13208,1,13208,1,0.002877,3.8268e-05,0,0.002877,0.00031094,3.0105e+08,5.5713e+06,0,6.7282e+08,2.7131e+06,13207,12073,1,12073,1,0.00050099,1.6647e-07,0,0.0011275,-8.3987e-05,1.3285e+08,36870,0,2.6025e+08,3.5076e+05,12072,10979,1,10979,1,-0.0016543,-3.8299e-05,0,2.2022e-06,-0.00053366,-6.7282e+08,-5.5693e+06,0,1.329e+06,-7.392e+05,10978,11538,1,11538,1,-0.00066012,-9.8875e-06,0,0.00051559,-0.00030231,-2.6813e+08,-2.2294e+06,0,1.7173e+08,18071,11537,12607,1,12607,1,0.001647,1.0108e-05,0,0.0016541,0.00012428,2.6015e+08,2.281e+06,0,2.7757e+08,1.1843e+06,12606,618.61,0,618.61,0,0.0012926,1.6354e-05,0,0.00074892,0.00024065,3.0306e+08,2.954e+06,0,1.5115e+08,8.3053e+05,618.61,1
2137,6.37,12073,1,12073,1,0.00055124,2.4799e-07,0,0.0012007,-9.842e-05,-1.6395e+06,20334,0,2.6237e+08,7.2761e+05,12072,13208,1,13208,1,0.0029923,4.7111e-05,0,0.0029923,0.00031499,2.9891e+08,6.6311e+06,0,6.8146e+08,3.5135e+06,13207,12073,1,12073,1,0.00053307,2.4836e-07,0,0.0011369,-8.7342e-05,1.3942e+08,53086,0,2.5685e+08,3.3009e+05,12072,10979,1,10979,1,-0.0016756,-4.7129e-05,0,9.5932e-06,-0.00055489,-6.8146e+08,-6.6235e+06,0,2.4139e+06,-1.2004e+06,10978,11538,1,11538,1,-0.00065589,-1.2263e-05,0,0.0005357,-0.00030984,-2.6632e+08,-2.7653e+06,0,1.7349e+08,-6700.3,11537,12607,1,12607,1,0.0016875,1.248e-05,0,0.0016881,0.00012308,2.5653e+08,2.813e+06,0,2.7401e+08,1.4259e+06,12606,618.61,0,618.61,0,0.0013142,2.0199e-05,0,0.00076768,0.00024454,3.0315e+08,3.5656e+06,0,1.518e+08,1.1054e+06,618.61,1
2137,6.38,12073,1,12073,1,0.00057842,2.727e-07,0,0.0012272,-0.00010288,-1.6328e+06,21785,0,2.6207e+08,8.091e+05,12072,13208,1,13208,1,0.0031436,5.9605e-05,0,0.0031436,0.00032004,2.9651e+08,8.0521e+06,0,6.9223e+08,4.6403e+06,13207,12073,1,12073,1,0.00056388,3.1992e-07,0,0.0011425,-9.1065e-05,1.4597e+08,68632,0,2.5279e+08,2.7589e+05,12072,10979,1,10979,1,-0.0017021,-5.9653e-05,0,1.4152e-05,-0.00058275,-6.9223e+08,-8.0465e+06,0,3.9794e+06,-1.7689e+06,10978,11538,1,11538,1,-0.0006503,-1.5284e-05,0,0.00057037,-0.00031661,-2.6391e+08,-3.4551e+06,0,1.7956e+08,-1.0941e+05,11537,12607,1,12607,1,0.0017171,1.5792e-05,0,0.0017177,0.00012153,2.5254e+08,3.5371e+06,0,2.6997e+08,1.7148e+06,12606,618.61,0,618.61,0,0.0013405,2.5324e-05,0,0.00079092,0.00024918,3.032e+08,4.345e+06,0,1.5244e+08,1.4935e+06,618.61,1
2137,6.39,12073,1,12073,1,0.00061213,2.8812e-07,0,0.0012599,-0.0001083,-1.6243e+06,24069,0,2.6162e+08,8.9751e+05,12072,13208,1,13208,1,0.0033509,7.787e-05,0,0.0033509,0.00032656,2.9366e+08,1.0024e+07,0,7.0612e+08,6.2565e+06,13207,12073,1,12073,1,0.00059728,4.7782e-07,0,0.0011682,-9.5321e-05,1.5262e+08,98147,0,2.4856e+08,2.1673e+05,12072,10979,1,10979,1,-0.0017362,-7.8092e-05,0,1.7751e-05,-0.00062096,-7.0612e+08,-9.9897e+06,0,5.3e+06,-2.4984e+06,10978,11538,1,11538,1,-0.00064258,-1.9657e-05,0,0.00060821,-0.0003222,-2.6057e+08,-4.3966e+06,0,1.8536e+08,-3.2922e+05,11537,12607,1,12607,1,0.0017707,2.0301e-05,0,0.0017709,0.00011953,2.4816e+08,4.5002e+06,0,2.6639e+08,2.0212e+06,12606,618.61,0,618.61,0,0.0013736,3.2431e-05,0,0.00082139,0.00025491,3.0322e+08,5.3657e+06,0,1.5329e+08,2.0479e+06,618.61,1
2137,6.4,12073,1,12073,1,0.0006557,3.0825e-07,0,0.0013018,-0.00011511,-1.6127e+06,26058,0,2.6086e+08,9.913e+05,12072,13208,1,13208,1,0.0036515,0.0001062,0,0.0036515,0.00033528,2.9015e+08,1.2784e+07,0,7.2464e+08,8.6454e+06,13207,12073,1,12073,1,0.00063875,6.8271e-07,0,0.0011923,-0.00010189,1.5925e+08,1.3251e+05,0,2.4435e+08,1.1186e+05,12072,10979,1,10979,1,-0.0017818,-0.00010654,0,2.0557e-05,-0.00067639,-7.2464e+08,-1.2735e+07,0,6.3993e+06,-3.5658e+06,10978,11538,1,11538,1,-0.00063124,-2.5015e-05,0,0.00063157,-0.00032755,-2.5562e+08,-5.6013e+06,0,1.8182e+08,-7.7443e+05,11537,12607,1,12607,1,0.0018295,2.5858e-05,0,0.0018319,0.00011675,2.4403e+08,5.665e+06,0,2.6232e+08,2.5118e+06,12606,618.61,0,618.61,0,0.0014178,4.2779e-05,0,0.00086408,0.00026229,3.0317e+08,6.7388e+06,0,1.5453e+08,2.8579e+06,618.61,1
2137,6.41,12073,1,12073,1,0.00071547,3.6629e-07,0,0.0013587,-0.00012401,-1.595e+06,29670,0,2.5958e+08,1.0917e+06,12072,13208,1,13208,1,0.0041217,0.00015294,0,0.0041217,0.00034751,2.8538e+08,1.6768e+07,0,7.5058e+08,1.2304e+07,13207,12073,1,12073,1,0.00068322,1.0008e-06,0,0.0012236,-0.00011241,1.6731e+08,2.0077e+05,0,2.4049e+08,46560,12072,10979,1,10979,1,-0.0018456,-0.00015303,0,2.3592e-06,-0.00076318,-7.5058e+08,-1.6758e+07,0,1.0138e+06,-4.9961e+06,10978,11538,1,11538,1,-0.0006133,-3.2634e-05,0,0.00062148,-0.00034133,-2.4779e+08,-7.2846e+06,0,1.8306e+08,-1.5246e+06,11537,12607,1,12607,1,0.0019102,3.3708e-05,0,0.0019108,0.00011256,2.4013e+08,7.3118e+06,0,2.6032e+08,3.036e+06,12606,618.61,0,618.61,0,0.0014815,5.8769e-05,0,0.00092923,0.00027243,3.0304e+08,8.634e+06,0,1.5652e+08,4.0637e+06,618.61,1
2137,6.42,12073,1,12073,1,0.00080282,4.0738e-07,0,0.0014425,-0.00013587,-1.5649e+06,33710,0,2.5784e+08,1.2027e+06,12072,13208,1,13208,1,0.0049415,0.00024152,0,0.0049415,0.00036593,2.7871e+08,2.3138e+07,0,7.8957e+08,1.8263e+07,13207,12073,1,12073,1,0.00075018,1.5698e-06,0,0.0012533,-0.00012712,1.6986e+08,3.1788e+05,0,2.3494e+08,-63003,12072,10979,1,10979,1,-0.0019416,-0.00024177,0,2.3338e-05,-0.0009147,-7.8957e+08,-2.3117e+07,0,7.728e+06,-7.5134e+06,10978,11538,1,11538,1,-0.00058291,-4.5108e-05,0,0.00061628,-0.00034924,-2.3449e+08,-9.5499e+06,0,1.7523e+08,-2.7914e+06,11537,12607,1,12607,1,0.0019827,4.6167e-05,0,0.0019868,0.00010629,2.3468e+08,9.4647e+06,0,2.6125e+08,3.7947e+06,12606,618.61,0,618.61,0,0.0015835,8.6486e-05,0,0.0010383,0.00028737,3.0288e+08,1.1443e+07,0,1.5924e+08,5.9703e+06,618.61,1
2137,6.43,12073,1,12073,1,0.00094305,4.7582e-07,0,0.0015769,-0.00015184,-1.5173e+06,41567,0,2.5472e+08,1.3273e+06,12072,13208,1,13208,1,0.0066133,0.00043775,0,0.0066133,0.0003958,2.8491e+08,3.3861e+07,0,8.5253e+08,2.8287e+07,13207,12073,1,12073,1,0.0008213,1.6199e-06,0,0.001309,-0.00014538,1.5488e+08,2.8084e+05,0,2.2615e+08,-3.0265e+05,12072,10979,1,10979,1,-0.0020965,-0.00043794,0,4.3331e-06,-0.0012236,-8.5253e+08,-3.3834e+07,0,1.0465e+06,-1.189e+07,10978,11538,1,11538,1,-0.00052263,-6.4704e-05,0,0.00066907,-0.00035572,-2.0819e+08,-1.2291e+07,0,1.6394e+08,-4.9365e+06,11537,12607,1,12607,1,0.0020667,6.5485e-05,0,0.0020889,9.804e-05,2.2704e+08,1.2355e+07,0,2.665e+08,4.9979e+06,12606,618.61,0,618.61,0,0.0017747,0.00014146,0,0.0012536,0.00031185,3.0273e+08,1.5795e+07,0,1.6426e+08,9.0948e+06,618.61,1
2137,6.44,12073,1,12073,1,0.0011943,5.2532e-07,0,0.0018204,-0.00016963,-1.4282e+06,44831,0,2.4893e+08,1.4674e+06,12072,13208,1,13208,1,0.010926,0.00098068,0,0.010926,0.00044772,3.1682e+08,5.247e+07,0,9.6124e+08,4.4872e+07,13207,12073,1,12073,1,0.00095366,2.1825e-06,0,0.001355,-0.00016256,1.4003e+08,3.6313e+05,0,2.1398e+08,-9.2442e+05,12072,10979,1,10979,1,-0.0023641,-0.00098047,0,2.2736e-05,-0.0020163,-9.6124e+08,-5.2429e+07,0,8.0168e+06,-1.97e+07,10978,11538,1,11538,1,-0.00041138,-9.66e-05,0,0.00070996,-0.00034303,-1.668e+08,-1.6448e+07,0,1.4701e+08,-8.2067e+06,11537,12607,1,12607,1,0.0021243,9.6436e-05,0,0.0021946,8.7354e-05,2.15e+08,1.6387e+07,0,2.8308e+08,6.4313e+06,12606,618.61,0,618.61,0,0.0022198,0.00027287,0,0.0017646,0.00035635,3.0246e+08,2.2689e+07,0,1.7322e+08,1.4243e+07,618.61,1
2137,6.4425,12073,1,12073,1,0.0016898,6.1232e-07,0,0.0023096,-0.00015813,-1.2619e+06,50727,0,2.355e+08,1.5813e+06,12072,13208,1,13208,1,0.026363,0.0030456,0,0.026364,0.00053756,3.7176e+08,8.2546e+07,0,1.1466e+09,6.7614e+07,13207,12073,1,12073,1,0.0010645,1.9668e-06,0,0.0013706,-0.00017936,1.1933e+08,3.7848e+05,0,1.8947e+08,-1.3875e+06,12072,10979,1,10979,1,-0.0028208,-0.0030476,0,2.1212e-05,-0.0047032,-1.1466e+09,-8.2545e+07,0,7.0797e+06,-3.2313e+07,10978,11538,1,11538,1,-0.00028818,-0.0001445,0,0.00073818,-0.00026971,-1.2039e+08,-2.0858e+07,0,1.231e+08,-1.2343e+07,11537,12607,1,12607,1,0.0020842,0.0001441,0,0.0022752,7.2254e-05,1.9005e+08,2.0885e+07,0,2.7264e+08,8.7238e+06,12606,618.61,0,618.61,0,0.0035674,0.00065185,0,0.0032667,0.00044603,3.0004e+08,3.2394e+07,0,1.8864e+08,2.1358e+07,618.61,1
