"N","Time","avg(GlobalElementId)","avg(ObjectId)","avg(PedigreeElementId)","avg(alpha)","avg(strain_x (0))","avg(strain_x (1))","avg(strain_x (2))","avg(strain_x (Magnitude))","avg(strain_yy)","avg(stress_x (0))","avg(stress_x (1))","avg(stress_x (2))","avg(stress_x (Magnitude))","avg(stress_yy)","avg(vtkOriginalCellIds)","max(GlobalElementId)","max(ObjectId)","max(PedigreeElementId)","max(alpha)","max(strain_x (0))","max(strain_x (1))","max(strain_x (2))","max(strain_x (Magnitude))","max(strain_yy)","max(stress_x (0))","max(stress_x (1))","max(stress_x (2))","max(stress_x (Magnitude))","max(stress_yy)","max(vtkOriginalCellIds)","med(GlobalElementId)","med(ObjectId)","med(PedigreeElementId)","med(alpha)","med(strain_x (0))","med(strain_x (1))","med(strain_x (2))","med(strain_x (Magnitude))","med(strain_yy)","med(stress_x (0))","med(stress_x (1))","med(stress_x (2))","med(stress_x (Magnitude))","med(stress_yy)","med(vtkOriginalCellIds)","min(GlobalElementId)","min(ObjectId)","min(PedigreeElementId)","min(alpha)","min(strain_x (0))","min(strain_x (1))","min(strain_x (2))","min(strain_x (Magnitude))","min(strain_yy)","min(stress_x (0))","min(stress_x (1))","min(stress_x (2))","min(stress_x (Magnitude))","min(stress_yy)","min(vtkOriginalCellIds)","q1(GlobalElementId)","q1(ObjectId)","q1(PedigreeElementId)","q1(alpha)","q1(strain_x (0))","q1(strain_x (1))","q1(strain_x (2))","q1(strain_x (Magnitude))","q1(strain_yy)","q1(stress_x (0))","q1(stress_x (1))","q1(stress_x (2))","q1(stress_x (Magnitude))","q1(stress_yy)","q1(vtkOriginalCellIds)","q3(GlobalElementId)","q3(ObjectId)","q3(PedigreeElementId)","q3(alpha)","q3(strain_x (0))","q3(strain_x (1))","q3(strain_x (2))","q3(strain_x (Magnitude))","q3(strain_yy)","q3(stress_x (0))","q3(stress_x (1))","q3(stress_x (2))","q3(stress_x (Magnitude))","q3(stress_yy)","q3(vtkOriginalCellIds)","std(GlobalElementId)","std(ObjectId)","std(PedigreeElementId)","std(alpha)","std(strain_x (0))","std(strain_x (1))","std(strain_x (2))","std(strain_x (Magnitude))","std(strain_yy)","std(stress_x (0))","std(stress_x (1))","std(stress_x (2))","std(stress_x (Magnitude))","std(stress_yy)","std(vtkOriginalCellIds)","vtkValidPointMask"
2344,0,12116,1,12116,1,0,0,0,0,0,0,0,0,0,0,12115,13336,1,13336,1,0,0,0,0,0,0,0,0,0,0,13335,12118,1,12118,1,0,0,0,0,0,0,0,0,0,0,12117,10867,1,10867,1,0,0,0,0,0,0,0,0,0,0,10866,11508,1,11508,1,0,0,0,0,0,0,0,0,0,0,11507,12724,1,12724,1,0,0,0,0,0,0,0,0,0,0,12723,702.88,0,702.88,0,0,0,0,0,0,0,0,0,0,0,702.88,1
2344,0.01,12116,1,12116,1,1.1129e-07,4.105e-10,0,1.3308e-06,-2.0706e-08,16402,151.39,0,5.1245e+05,-104.54,12115,13336,1,13336,1,2.8574e-06,7.7894e-08,0,2.8576e-06,4.6374e-07,1.0411e+06,23885,0,1.0411e+06,7825.6,13335,12118,1,12118,1,1.1113e-07,4.4328e-10,0,1.2708e-06,-2.0529e-08,40911,141.25,0,5.1284e+05,-4.5435,12117,10867,1,10867,1,-2.4711e-06,-5.6248e-08,0,3.1164e-08,-5.4473e-07,-1.0051e+06,-17240,0,12991,-8480.2,10866,11508,1,11508,1,-1.2561e-06,-4.0162e-09,0,6.6568e-07,-2.6766e-07,-5.1091e+05,-1326.2,0,2.6503e+05,-1031.6,11507,12724,1,12724,1,1.4405e-06,4.6318e-09,0,2.0252e-06,2.3467e-07,5.2933e+05,1563.4,0,7.5331e+05,824.28,12723,702.88,0,702.88,0,1.5347e-06,7.8753e-09,0,7.7202e-07,2.8776e-07,5.9079e+05,2500.7,0,2.9428e+05,2720.3,702.88,1
2344,0.02,12116,1,12116,1,3.3212e-07,1.2998e-09,0,2.739e-06,-6.3002e-08,73663,424.31,0,1.0527e+06,-621.16,12115,13336,1,13336,1,5.6339e-06,1.4401e-08,0,5.6339e-06,9.2542e-07,2.0506e+06,4581.3,0,2.0506e+06,308.06,13335,12118,1,12118,1,3.4767e-07,9.3284e-10,0,2.7762e-06,-6.6862e-08,1.3143e+05,300.65,0,1.0231e+06,-267.27,12117,10867,1,10867,1,-4.9346e-06,-8.5695e-09,0,5.5752e-08,-1.0553e-06,-2.0071e+06,-2726.4,0,23609,-2965.7,10866,11508,1,11508,1,-2.4824e-06,-4.3114e-11,0,1.2726e-06,-5.9621e-07,-1.0097e+06,-14.156,0,5.1772e+05,-1029.7,11507,12724,1,12724,1,3.1784e-06,2.175e-09,0,4.0993e-06,4.6548e-07,1.1674e+06,719.8,0,1.6027e+06,-63.604,12723,702.88,0,702.88,0,3.153e-06,2.7219e-09,0,1.5959e-06,5.9117e-07,1.212e+06,868.47,0,6.0475e+05,742.58,702.88,1
2344,0.03,12116,1,12116,1,4.9857e-07,1.6446e-09,0,4.1101e-06,-9.3138e-08,1.1072e+05,537.9,0,1.5798e+06,-352.08,12115,13336,1,13336,1,8.4496e-06,1.1334e-08,0,8.4496e-06,1.388e-06,3.0755e+06,3635.8,0,3.0755e+06,108.65,13335,12118,1,12118,1,5.227e-07,1.2375e-09,0,4.1661e-06,-9.832e-08,1.9786e+05,403.23,0,1.5354e+06,-53.18,12117,10867,1,10867,1,-7.4011e-06,-6.6873e-09,0,8.4373e-08,-1.5826e-06,-3.0103e+06,-2145.3,0,35553,-2852.6,10866,11508,1,11508,1,-3.7252e-06,1.601e-10,0,1.9094e-06,-8.9309e-07,-1.5151e+06,53.198,0,7.766e+05,-480.13,11507,12724,1,12724,1,4.7698e-06,2.9514e-09,0,6.1514e-06,6.993e-07,1.7522e+06,969.35,0,2.4054e+06,6.2728,12723,702.88,0,702.88,0,4.7315e-06,2.0719e-09,0,2.3949e-06,8.8677e-07,1.8188e+06,668.66,0,9.0752e+05,605.02,702.88,1
2344,0.04,12116,1,12116,1,6.663e-07,1.6501e-09,0,5.4911e-06,-1.2417e-07,1.4802e+05,539.62,0,2.1106e+06,-354.45,12115,13336,1,13336,1,1.1273e-05,1.204e-08,0,1.1273e-05,1.8517e-06,4.1032e+06,3862.2,0,4.1032e+06,105.24,13335,12118,1,12118,1,6.9876e-07,1.2637e-09,0,5.5678e-06,-1.3143e-07,2.6436e+05,414.63,0,2.052e+06,-61.07,12117,10867,1,10867,1,-9.8727e-06,-5.5706e-09,0,1.126e-07,-2.1114e-06,-4.0156e+06,-1786.9,0,47475,-3426.7,10866,11508,1,11508,1,-4.9795e-06,4.6494e-10,0,2.5494e-06,-1.1937e-06,-2.0253e+06,150.71,0,1.0369e+06,-372.97,11507,12724,1,12724,1,6.3764e-06,2.5769e-09,0,8.2234e-06,9.3468e-07,2.3424e+06,851.97,0,3.2155e+06,-6.8544,12723,702.88,0,702.88,0,6.3213e-06,1.7807e-09,0,3.1996e-06,1.1847e-06,2.4299e+06,574.45,0,1.2125e+06,636.96,702.88,1
2344,0.05,12116,1,12116,1,8.3284e-07,-1.4861e-09,0,6.8644e-06,-1.5493e-07,1.8503e+05,-486.91,0,2.6385e+06,-328.26,12115,13336,1,13336,1,1.4087e-05,4.7094e-09,0,1.4087e-05,2.314e-06,5.1274e+06,1510.2,0,5.1274e+06,135.57,13335,12118,1,12118,1,8.7349e-07,-1.0518e-09,0,6.9606e-06,-1.642e-07,3.3062e+05,-342.9,0,2.5653e+06,-74.074,12117,10867,1,10867,1,-1.2337e-05,-9.1649e-09,0,1.4065e-07,-2.6385e-06,-5.0178e+06,-2940.2,0,59411,-3170.1,10866,11508,1,11508,1,-6.2265e-06,-2.293e-09,0,3.1863e-06,-1.4925e-06,-2.5325e+06,-751.59,0,1.2959e+06,-277.65,11507,12724,1,12724,1,7.9728e-06,-5.5289e-10,0,1.0283e-05,1.1684e-06,2.9288e+06,-179.45,0,4.0208e+06,-4.5911,12723,702.88,0,702.88,0,7.9023e-06,1.5371e-09,0,4e-06,1.481e-06,3.0377e+06,501.07,0,1.5157e+06,609.59,702.88,1
2344,0.06,12116,1,12116,1,9.9867e-07,-5.7446e-10,0,8.2293e-06,-1.8517e-07,2.2195e+05,-187.16,0,3.1631e+06,-146.93,12115,13336,1,13336,1,1.689e-05,6.338e-09,0,1.689e-05,2.7744e-06,6.1475e+06,2032.6,0,6.1475e+06,156.76,13335,12118,1,12118,1,1.0475e-06,1.4567e-10,0,8.345e-06,-1.9504e-07,3.966e+05,45.144,0,3.0755e+06,-43.216,12117,10867,1,10867,1,-1.4791e-05,-7.9521e-09,0,1.6849e-07,-3.1635e-06,-6.0161e+06,-2550.6,0,71031,-2471,10866,11508,1,11508,1,-7.4646e-06,-2.1788e-09,0,3.8192e-06,-1.7892e-06,-3.0361e+06,-707.28,0,1.5533e+06,-153.25,11507,12724,1,12724,1,9.5594e-06,1.2072e-09,0,1.2328e-05,1.401e-06,3.5117e+06,386.09,0,4.8206e+06,8.5869,12723,702.88,0,702.88,0,9.4735e-06,2.4377e-09,0,4.7953e-06,1.7754e-06,3.6417e+06,793.33,0,1.8171e+06,345.22,702.88,1
2344,0.07,12116,1,12116,1,1.1666e-06,1.4201e-09,0,9.6145e-06,-2.1625e-07,2.5926e+05,464.55,0,3.6955e+06,-148.61,12115,13336,1,13336,1,1.972e-05,5.9465e-09,0,1.972e-05,3.2391e-06,7.1777e+06,1908,0,7.1777e+06,101.14,13335,12118,1,12118,1,1.224e-06,1.5223e-09,0,9.7517e-06,-2.2653e-07,4.6345e+05,497.2,0,3.5939e+06,-19.602,12117,10867,1,10867,1,-1.7269e-05,-2.4418e-09,0,1.9684e-07,-3.6935e-06,-7.024e+06,-783.59,0,83066,-2839,10866,11508,1,11508,1,-8.7209e-06,5.8791e-10,0,4.4635e-06,-2.09e-06,-3.547e+06,188.43,0,1.8153e+06,-129.13,11507,12724,1,12724,1,1.1166e-05,2.2112e-09,0,1.4402e-05,1.6369e-06,4.1019e+06,733.14,0,5.6314e+06,12.637,12723,702.88,0,702.88,0,1.1068e-05,1.0334e-09,0,5.6025e-06,2.0742e-06,4.2547e+06,336.84,0,2.123e+06,378.36,702.88,1
2344,0.08,12116,1,12116,1,1.3301e-06,2.6703e-09,0,1.0959e-05,-2.4642e-07,2.9564e+05,873.1,0,4.2122e+06,-117.13,12115,13336,1,13336,1,2.2514e-05,1.4484e-08,0,2.2514e-05,3.6979e-06,8.1947e+06,4644.9,0,8.1947e+06,308.83,13335,12118,1,12118,1,1.3948e-06,2.1624e-09,0,1.1109e-05,-2.5785e-07,5.2808e+05,717.58,0,4.0943e+06,-68.862,12117,10867,1,10867,1,-1.9716e-05,-1.0313e-08,0,2.2388e-07,-4.2169e-06,-8.0194e+06,-3308.5,0,94546,-2037.2,10866,11508,1,11508,1,-9.9354e-06,-4.6113e-10,0,5.0889e-06,-2.3816e-06,-4.041e+06,-149.16,0,2.0697e+06,-192.77,11507,12724,1,12724,1,1.2723e-05,6.3665e-09,0,1.6408e-05,1.8653e-06,4.6739e+06,2089.7,0,6.4158e+06,74.306,12723,702.88,0,702.88,0,1.2616e-05,4.4941e-09,0,6.3857e-06,2.3644e-06,4.8496e+06,1467,0,2.4198e+06,317.88,702.88,1
2344,0.09,12116,1,12116,1,1.4998e-06,2.409e-09,0,1.2359e-05,-2.7779e-07,3.3336e+05,788.47,0,4.7502e+06,-100.27,12115,13336,1,13336,1,2.5355e-05,7.0909e-09,0,2.5355e-05,4.1647e-06,9.2289e+06,2274,0,9.2289e+06,124.66,13335,12118,1,12118,1,1.5736e-06,2.5023e-09,0,1.2534e-05,-2.9087e-07,5.9582e+05,818.13,0,4.6193e+06,-17.594,12117,10867,1,10867,1,-2.2204e-05,-1.8387e-09,0,2.5286e-07,-4.7489e-06,-9.0312e+06,-589.98,0,1.0665e+05,-1949.6,10866,11508,1,11508,1,-1.1208e-05,9.542e-10,0,5.7375e-06,-2.6863e-06,-4.5588e+06,308.58,0,2.3335e+06,-115.52,11507,12724,1,12724,1,1.4352e-05,3.8129e-09,0,1.851e-05,2.1038e-06,5.2724e+06,1255.2,0,7.2379e+06,10.706,12723,702.88,0,702.88,0,1.4227e-05,1.6562e-09,0,7.2015e-06,2.6662e-06,5.469e+06,541.51,0,2.7289e+06,254.32,702.88,1
2344,0.1,12116,1,12116,1,1.6662e-06,2.1191e-10,0,1.373e-05,-3.0855e-07,3.7033e+05,69.166,0,5.2774e+06,-89.912,12115,13336,1,13336,1,2.8144e-05,4.7417e-09,0,2.8144e-05,4.6229e-06,1.0244e+07,1523.7,0,1.0244e+07,65.059,13335,12118,1,12118,1,1.7482e-06,5.4537e-11,0,1.3926e-05,-3.2323e-07,6.6191e+05,17.584,0,5.1323e+06,-20.463,12117,10867,1,10867,1,-2.4646e-05,-3.4871e-09,0,2.8089e-07,-5.2711e-06,-1.0025e+07,-1118.5,0,1.185e+05,-2139.6,10866,11508,1,11508,1,-1.2458e-05,-3.0783e-10,0,6.3709e-06,-2.986e-06,-5.0671e+06,-99.654,0,2.5911e+06,-80.95,11507,12724,1,12724,1,1.5954e-05,8.2902e-10,0,2.0576e-05,2.3382e-06,5.861e+06,272.73,0,8.0454e+06,10.804,12723,702.88,0,702.88,0,1.5806e-05,9.5398e-10,0,8.0007e-06,2.9621e-06,6.0759e+06,310.33,0,3.0318e+06,238.72,702.88,1
2344,0.11,12116,1,12116,1,1.8316e-06,-1.7649e-09,0,1.5092e-05,-3.3906e-07,4.0712e+05,-576.75,0,5.8007e+06,-51.093,12115,13336,1,13336,1,3.097e-05,6.4357e-09,0,3.097e-05,5.0871e-06,1.1273e+07,2063.9,0,1.1273e+07,207.35,13335,12118,1,12118,1,1.9211e-06,-1.3539e-09,0,1.5303e-05,-3.5476e-07,7.2739e+05,-427.85,0,5.6398e+06,-44.487,12117,10867,1,10867,1,-2.7121e-05,-9.9204e-09,0,3.087e-07,-5.8006e-06,-1.1031e+07,-3181.5,0,1.3015e+05,-639.9,10866,11508,1,11508,1,-1.3688e-05,-4.732e-09,0,7.0049e-06,-3.2809e-06,-5.5672e+06,-1547.3,0,2.8489e+06,-133.09,11507,12724,1,12724,1,1.7529e-05,8.0012e-10,0,2.2606e-05,2.5692e-06,6.4393e+06,252.74,0,8.8392e+06,52.526,12723,702.88,0,702.88,0,1.7373e-05,3.7674e-09,0,8.7941e-06,3.2559e-06,6.6784e+06,1231.7,0,3.3324e+06,135.02,702.88,1
2344,0.12,12116,1,12116,1,1.9994e-06,1.7738e-09,0,1.6476e-05,-3.7008e-07,4.444e+05,579.4,0,6.3329e+06,-34.294,12115,13336,1,13336,1,3.3792e-05,5.5427e-09,0,3.3792e-05,5.5506e-06,1.23e+07,1753.3,0,1.23e+07,178.47,13335,12118,1,12118,1,2.0975e-06,1.5974e-09,0,1.6709e-05,-3.8734e-07,7.9422e+05,529.03,0,6.158e+06,-8.1373,12117,10867,1,10867,1,-2.9592e-05,-2.7055e-09,0,3.3736e-07,-6.3291e-06,-1.2036e+07,-867.89,0,1.4229e+05,-1803.1,10866,11508,1,11508,1,-1.4945e-05,1.0676e-10,0,7.6471e-06,-3.5821e-06,-6.0787e+06,33.436,0,3.1101e+06,-69.63,11507,12724,1,12724,1,1.9139e-05,3.3579e-09,0,2.4683e-05,2.8053e-06,7.0309e+06,1098.5,0,9.6514e+06,48.627,12723,702.88,0,702.88,0,1.8967e-05,1.8141e-09,0,9.6009e-06,3.5546e-06,7.2912e+06,590.25,0,3.6381e+06,142.71,702.88,1
2344,0.13,12116,1,12116,1,2.1667e-06,4.6308e-10,0,1.7855e-05,-4.011e-07,4.8158e+05,151.65,0,6.8627e+06,-58.784,12115,13336,1,13336,1,3.6588e-05,3.4285e-09,0,3.6588e-05,6.0098e-06,1.3317e+07,1099.3,0,1.3317e+07,63.463,13335,12118,1,12118,1,2.2736e-06,4.296e-10,0,1.811e-05,-4.1991e-07,8.6084e+05,137.66,0,6.6744e+06,-7.4091,12117,10867,1,10867,1,-3.204e-05,-7.0361e-10,0,3.6557e-07,-6.8525e-06,-1.3032e+07,-225.77,0,1.5413e+05,-1800.9,10866,11508,1,11508,1,-1.6202e-05,2.4789e-10,0,8.2842e-06,-3.8832e-06,-6.5898e+06,80.074,0,3.3692e+06,-54.713,11507,12724,1,12724,1,2.0749e-05,5.8391e-10,0,2.676e-05,3.0409e-06,7.6224e+06,197.24,0,1.0463e+07,13.522,12723,702.88,0,702.88,0,2.0554e-05,4.1445e-10,0,1.0404e-05,3.852e-06,7.9012e+06,135.1,0,3.9425e+06,165.26,702.88,1
2344,0.14,12116,1,12116,1,2.3311e-06,-2.1167e-09,0,1.921e-05,-4.3147e-07,5.181e+05,-693.56,0,7.3838e+06,-39.247,12115,13336,1,13336,1,3.9401e-05,4.7556e-09,0,3.9401e-05,6.4721e-06,1.4341e+07,1524.8,0,1.4341e+07,200.89,13335,12118,1,12118,1,2.4457e-06,-2.2117e-09,0,1.9482e-05,-4.5164e-07,9.2606e+05,-713.87,0,7.18e+06,-20.531,12117,10867,1,10867,1,-3.4505e-05,-7.1523e-09,0,3.9341e-07,-7.3796e-06,-1.4034e+07,-2293.7,0,1.6581e+05,-604.19,10866,11508,1,11508,1,-1.7425e-05,-4.258e-09,0,8.9165e-06,-4.1764e-06,-7.0873e+06,-1396.7,0,3.6264e+06,-78.438,11507,12724,1,12724,1,2.2314e-05,5.4436e-12,0,2.8778e-05,3.2707e-06,8.1973e+06,1.7904,0,1.1252e+07,34.494,12723,702.88,0,702.88,0,2.2115e-05,2.5044e-09,0,1.1194e-05,4.1445e-06,8.5011e+06,818.99,0,4.2419e+06,123.39,702.88,1
2344,0.15,12116,1,12116,1,2.4997e-06,1.2232e-09,0,2.0599e-05,-4.6271e-07,5.5559e+05,400.03,0,7.9176e+06,-56.396,12115,13336,1,13336,1,4.2238e-05,7.7152e-09,0,4.2238e-05,6.9381e-06,1.5374e+07,2474.8,0,1.5374e+07,204.29,13335,12118,1,12118,1,2.6226e-06,3.8141e-10,0,2.0891e-05,-4.8437e-07,9.9303e+05,123.91,0,7.6993e+06,-11.206,12117,10867,1,10867,1,-3.6989e-05,-3.4962e-09,0,4.2183e-07,-7.911e-06,-1.5045e+07,-1121.4,0,1.7788e+05,-1167.7,10866,11508,1,11508,1,-1.8689e-05,-4.612e-10,0,9.559e-06,-4.4794e-06,-7.6014e+06,-150.59,0,3.8876e+06,-98.033,11507,12724,1,12724,1,2.3934e-05,2.8655e-09,0,3.0867e-05,3.5078e-06,8.7924e+06,926.66,0,1.2069e+07,43.728,12723,702.88,0,702.88,0,2.3714e-05,2.3677e-09,0,1.2003e-05,4.4441e-06,9.1157e+06,772.8,0,4.5485e+06,177.58,702.88,1
2344,0.16,12116,1,12116,1,2.6674e-06,8.2681e-10,0,2.1981e-05,-4.9378e-07,5.9285e+05,270.18,0,8.4487e+06,-72.615,12115,13336,1,13336,1,4.5049e-05,3.4007e-09,0,4.5049e-05,7.3996e-06,1.6397e+07,1142.6,0,1.6397e+07,211.4,13335,12118,1,12118,1,2.799e-06,6.867e-10,0,2.2296e-05,-5.1679e-07,1.0598e+06,223.04,0,8.2171e+06,-19.486,12117,10867,1,10867,1,-3.945e-05,-8.9727e-10,0,4.5007e-07,-8.4377e-06,-1.6046e+07,-301.39,0,1.8983e+05,-1671.8,10866,11508,1,11508,1,-1.9945e-05,3.4702e-10,0,1.0199e-05,-4.7801e-06,-8.1124e+06,113.82,0,4.1482e+06,-67.264,11507,12724,1,12724,1,2.5541e-05,1.211e-09,0,3.2941e-05,3.7434e-06,9.3827e+06,388.1,0,1.288e+07,8.9368,12723,702.88,0,702.88,0,2.5304e-05,7.1195e-10,0,1.2809e-05,4.7421e-06,9.7271e+06,233.6,0,4.8537e+06,182.54,702.88,1
2344,0.17,12116,1,12116,1,2.8334e-06,9.995e-10,0,2.3347e-05,-5.253e-07,6.2975e+05,326.71,0,8.9738e+06,-393.11,12115,13336,1,13336,1,4.7852e-05,7.0212e-09,0,4.7852e-05,7.86e-06,1.7417e+07,2252.2,0,1.7417e+07,240.25,13335,12118,1,12118,1,2.973e-06,5.3232e-10,0,2.368e-05,-5.5008e-07,1.1256e+06,175.71,0,8.7273e+06,-216.77,12117,10867,1,10867,1,-4.1903e-05,-1.643e-09,0,4.772e-07,-8.9635e-06,-1.7044e+07,-527.24,0,2.014e+05,-3119.8,10866,11508,1,11508,1,-2.1185e-05,2.2353e-10,0,1.0832e-05,-5.0782e-06,-8.6167e+06,71.194,0,4.4056e+06,-509.01,11507,12724,1,12724,1,2.7131e-05,1.2886e-09,0,3.499e-05,3.9759e-06,9.9669e+06,421.06,0,1.3681e+07,-57.753,12723,702.88,0,702.88,0,2.6877e-05,1.2236e-09,0,1.3605e-05,5.0372e-06,1.0332e+07,397.85,0,5.1553e+06,500.16,702.88,1
2344,0.18,12116,1,12116,1,2.9998e-06,-3.4697e-09,0,2.472e-05,-5.5554e-07,6.6675e+05,-1134.4,0,9.5013e+06,-167.05,12115,13336,1,13336,1,5.07e-05,2.3557e-09,0,5.07e-05,8.3279e-06,1.8454e+07,755.14,0,1.8454e+07,333.49,13335,12118,1,12118,1,3.147e-06,-3.4219e-09,0,2.5071e-05,-5.8194e-07,1.1916e+06,-1110.3,0,9.2397e+06,-83.53,12117,10867,1,10867,1,-4.4399e-05,-9.1735e-09,0,5.0578e-07,-9.4963e-06,-1.8059e+07,-2942,0,2.1329e+05,-1428.9,10866,11508,1,11508,1,-2.2421e-05,-5.8771e-09,0,1.1475e-05,-5.3738e-06,-9.1192e+06,-1937,0,4.6669e+06,-287.13,11507,12724,1,12724,1,2.8709e-05,-1.1775e-09,0,3.7027e-05,4.2083e-06,1.0547e+07,-384.77,0,1.4478e+07,28.394,12723,702.88,0,702.88,0,2.8457e-05,2.7478e-09,0,1.4405e-05,5.3331e-06,1.0939e+07,895.34,0,5.4585e+06,274.66,702.88,1
2344,0.19,12116,1,12116,1,3.168e-06,4.921e-10,0,2.6105e-05,-5.8685e-07,7.0412e+05,161.48,0,1.0034e+07,-244.07,12115,13336,1,13336,1,5.35e-05,4.2092e-09,0,5.35e-05,8.7877e-06,1.9473e+07,1350.5,0,1.9473e+07,631.45,13335,12118,1,12118,1,3.3242e-06,4.3996e-10,0,2.6478e-05,-6.1471e-07,1.2586e+06,144.85,0,9.7585e+06,-161.73,12117,10867,1,10867,1,-4.6851e-05,-2.7316e-09,0,5.3441e-07,-1.0023e-05,-1.9056e+07,-876.08,0,2.2521e+05,-2486.1,10866,11508,1,11508,1,-2.3688e-05,1.2309e-10,0,1.2113e-05,-5.6771e-06,-9.6347e+06,39.64,0,4.9263e+06,-427.4,11507,12724,1,12724,1,3.0336e-05,8.0371e-10,0,3.9123e-05,4.4452e-06,1.1144e+07,264.41,0,1.5298e+07,-18.258,12723,702.88,0,702.88,0,3.0052e-05,5.7079e-10,0,1.5212e-05,5.6321e-06,1.1552e+07,186.01,0,5.7644e+06,389.38,702.88,1
2344,0.2,12116,1,12116,1,3.3342e-06,-1.1679e-09,0,2.7475e-05,-6.1743e-07,7.4106e+05,-382.13,0,1.056e+07,-175.09,12115,13336,1,13336,1,5.6318e-05,3.2369e-09,0,5.6318e-05,9.2503e-06,2.0499e+07,1038.6,0,2.0499e+07,997.7,13335,12118,1,12118,1,3.4984e-06,-1.1263e-09,0,2.7867e-05,-6.4613e-07,1.3246e+06,-368.62,0,1.027e+07,-114.61,12117,10867,1,10867,1,-4.9319e-05,-5.4856e-09,0,5.6236e-07,-1.055e-05,-2.006e+07,-1759.4,0,2.3704e+05,-1801.8,10866,11508,1,11508,1,-2.4929e-05,-2.0711e-09,0,1.2749e-05,-5.9756e-06,-1.0139e+07,-687.14,0,5.1853e+06,-288.08,11507,12724,1,12724,1,3.1925e-05,-2.0792e-10,0,4.1171e-05,4.6789e-06,1.1728e+07,-68.774,0,1.6099e+07,-16.937,12723,702.88,0,702.88,0,3.1629e-05,1.2229e-09,0,1.601e-05,5.9275e-06,1.2158e+07,396.02,0,6.0669e+06,282.69,702.88,1
2344,0.21,12116,1,12116,1,3.501e-06,-4.4754e-10,0,2.8852e-05,-6.4857e-07,7.781e+05,-145.88,0,1.109e+07,-284.27,12115,13336,1,13336,1,5.9132e-05,8.0776e-09,0,5.9132e-05,9.7128e-06,2.1523e+07,2589,0,2.1523e+07,1230.8,13335,12118,1,12118,1,3.6736e-06,-4.7658e-10,0,2.9264e-05,-6.7879e-07,1.3908e+06,-153.8,0,1.0785e+07,-165.51,12117,10867,1,10867,1,-5.1782e-05,-5.9683e-09,0,5.8874e-07,-1.1075e-05,-2.1062e+07,-1914.1,0,2.4823e+05,-3176,10866,11508,1,11508,1,-2.6179e-05,-1.0927e-09,0,1.3388e-05,-6.2744e-06,-1.0648e+07,-358.98,0,5.445e+06,-417.82,11507,12724,1,12724,1,3.3526e-05,8.8076e-11,0,4.3236e-05,4.9132e-06,1.2316e+07,28.506,0,1.6906e+07,20.625,12723,702.88,0,702.88,0,3.3214e-05,1.3008e-09,0,1.6812e-05,6.2245e-06,1.2768e+07,418.74,0,6.3709e+06,578.91,702.88,1
2344,0.22,12116,1,12116,1,3.668e-06,-1.2349e-09,0,3.0228e-05,-6.7985e-07,8.1515e+05,-404.1,0,1.1619e+07,-440.8,12115,13336,1,13336,1,6.1962e-05,9.8627e-09,0,6.1962e-05,1.0178e-05,2.2553e+07,3163.4,0,2.2553e+07,798.82,13335,12118,1,12118,1,3.8483e-06,-1.1846e-09,0,3.066e-05,-7.1247e-07,1.457e+06,-385.48,0,1.1299e+07,-264.46,12117,10867,1,10867,1,-5.4262e-05,-9.2172e-09,0,6.1873e-07,-1.1606e-05,-2.207e+07,-2956.3,0,2.6071e+05,-3353.5,10866,11508,1,11508,1,-2.7427e-05,-2.3181e-09,0,1.4028e-05,-6.5745e-06,-1.1155e+07,-773.18,0,5.7053e+06,-629.83,11507,12724,1,12724,1,3.5123e-05,-1.3816e-10,0,4.5297e-05,5.1472e-06,1.2903e+07,-46.625,0,1.7712e+07,-67.778,12723,702.88,0,702.88,0,3.4799e-05,2.1091e-09,0,1.7615e-05,6.5217e-06,1.3377e+07,677.29,0,6.6749e+06,582.48,702.88,1
2344,0.23,12116,1,12116,1,3.8356e-06,-1.041e-10,0,3.1607e-05,-7.098e-07,8.5255e+05,-33.981,0,1.2149e+07,-3.6504,12115,13336,1,13336,1,6.4769e-05,2.1995e-10,0,6.4769e-05,1.0639e-05,2.3575e+07,72.673,0,2.3575e+07,79.726,13335,12118,1,12118,1,4.025e-06,-6.2867e-11,0,3.206e-05,-7.4265e-07,1.5241e+06,-20.754,0,1.1815e+07,1.8535,12117,10867,1,10867,1,-5.6718e-05,-7.4117e-10,0,6.474e-07,-1.2131e-05,-2.307e+07,-237.73,0,2.7291e+05,-128.57,10866,11508,1,11508,1,-2.8682e-05,-1.9748e-10,0,1.4665e-05,-6.8744e-06,-1.1666e+07,-64.852,0,5.9643e+06,-13.518,11507,12724,1,12724,1,3.6732e-05,3.589e-12,0,4.7372e-05,5.3832e-06,1.3494e+07,1.1572,0,1.8523e+07,13.2,12723,702.88,0,702.88,0,3.6386e-05,1.6707e-10,0,1.8418e-05,6.8189e-06,1.3987e+07,54.605,0,6.9793e+06,28.13,702.88,1
2344,0.24,12116,1,12116,1,4.004e-06,-1.068e-09,0,3.2996e-05,-7.4121e-07,8.8992e+05,-350.35,0,1.2682e+07,-107.46,12115,13336,1,13336,1,6.7623e-05,4.5147e-09,0,6.7623e-05,1.1108e-05,2.4614e+07,1541.3,0,2.4614e+07,2732,13335,12118,1,12118,1,4.2014e-06,-9.3085e-10,0,3.3469e-05,-7.759e-07,1.5908e+06,-303.16,0,1.2335e+07,-91.817,12117,10867,1,10867,1,-5.9218e-05,-6.822e-09,0,6.7474e-07,-1.2667e-05,-2.4086e+07,-2329.6,0,2.8436e+05,-2331.7,10866,11508,1,11508,1,-2.9939e-05,-2.0193e-09,0,1.5311e-05,-7.1751e-06,-1.2177e+07,-659.72,0,6.2271e+06,-255.14,11507,12724,1,12724,1,3.834e-05,-3.6009e-11,0,4.9447e-05,5.6193e-06,1.4084e+07,-11.111,0,1.9334e+07,64.798,12723,702.88,0,702.88,0,3.7985e-05,1.45e-09,0,1.9227e-05,7.1184e-06,1.4602e+07,482.47,0,7.286e+06,469.74,702.88,1
2344,0.25,12116,1,12116,1,4.1673e-06,1.1565e-09,0,3.4347e-05,-7.7226e-07,9.2606e+05,377.51,0,1.3202e+07,-443.57,12115,13336,1,13336,1,7.0394e-05,1.1446e-08,0,7.0394e-05,1.1563e-05,2.5622e+07,3671,0,2.5622e+07,1205.4,13335,12118,1,12118,1,4.3715e-06,1.0533e-09,0,3.4837e-05,-8.0797e-07,1.6552e+06,346.43,0,1.2839e+07,-388.32,12117,10867,1,10867,1,-6.1646e-05,-1.0982e-08,0,7.0429e-07,-1.3186e-05,-2.5074e+07,-3522,0,2.9674e+05,-3583.4,10866,11508,1,11508,1,-3.1166e-05,1.3572e-11,0,1.5939e-05,-7.4703e-06,-1.2676e+07,4.4141,0,6.4824e+06,-681.19,11507,12724,1,12724,1,3.9911e-05,2.0041e-09,0,5.1472e-05,5.8483e-06,1.4661e+07,677.18,0,2.0126e+07,-144.83,12723,702.88,0,702.88,0,3.954e-05,2.6252e-09,0,2.0014e-05,7.4102e-06,1.5199e+07,838.08,0,7.5842e+06,506.9,702.88,1
2344,0.26,12116,1,12116,1,4.3348e-06,-1.0988e-09,0,3.5729e-05,-8.0313e-07,9.6324e+05,-350.06,0,1.3733e+07,-395.86,12115,13336,1,13336,1,7.322e-05,4.9256e-09,0,7.322e-05,1.2028e-05,2.6651e+07,1681.9,0,2.6651e+07,1129.8,13335,12118,1,12118,1,4.5475e-06,-4.7285e-10,0,3.6239e-05,-8.4036e-07,1.7218e+06,-157.25,0,1.3356e+07,-353.47,12117,10867,1,10867,1,-6.4122e-05,-7.7484e-09,0,7.3177e-07,-1.3716e-05,-2.6081e+07,-2645.8,0,3.0832e+05,-1780.1,10866,11508,1,11508,1,-3.2423e-05,-1.8973e-09,0,1.6579e-05,-7.7717e-06,-1.3187e+07,-595.25,0,6.7429e+06,-651.83,11507,12724,1,12724,1,4.1519e-05,-1.4332e-11,0,5.3549e-05,6.0845e-06,1.5252e+07,-4.4981,0,2.0937e+07,-136.05,12723,702.88,0,702.88,0,4.1132e-05,2.0196e-09,0,2.082e-05,7.7086e-06,1.5811e+07,646.13,0,7.8896e+06,407.4,702.88,1
2344,0.27,12116,1,12116,1,4.5008e-06,1.0457e-09,0,3.7092e-05,-8.3403e-07,1.0002e+06,342.5,0,1.4257e+07,-467.73,12115,13336,1,13336,1,7.6026e-05,1.2156e-08,0,7.6026e-05,1.2488e-05,2.7672e+07,3897.8,0,2.7672e+07,1171.9,13335,12118,1,12118,1,4.722e-06,8.5025e-10,0,3.7622e-05,-8.7186e-07,1.7879e+06,281.99,0,1.3865e+07,-295.13,12117,10867,1,10867,1,-6.658e-05,-9.4629e-09,0,7.5966e-07,-1.4243e-05,-2.708e+07,-3035.2,0,3.2023e+05,-3573.5,10866,11508,1,11508,1,-3.3656e-05,-2.0569e-10,0,1.7212e-05,-8.0674e-06,-1.3689e+07,-67.544,0,7.0004e+06,-714.12,11507,12724,1,12724,1,4.3101e-05,2.0541e-09,0,5.5586e-05,6.3163e-06,1.5833e+07,692.49,0,2.1735e+07,-99.361,12723,702.88,0,702.88,0,4.27e-05,2.4329e-09,0,2.1614e-05,8.0027e-06,1.6414e+07,775.87,0,8.1904e+06,547.51,702.88,1
2344,0.28,12116,1,12116,1,4.6696e-06,-4.8021e-11,0,3.8479e-05,-8.6413e-07,1.0379e+06,-15.673,0,1.479e+07,-8.2929,12115,13336,1,13336,1,7.8849e-05,5.52e-10,0,7.8849e-05,1.2952e-05,2.87e+07,185.38,0,2.87e+07,31.974,13335,12118,1,12118,1,4.9001e-06,-3.4903e-11,0,3.903e-05,-9.041e-07,1.8554e+06,-11.24,0,1.4384e+07,0.17388,12117,10867,1,10867,1,-6.9049e-05,-6.1658e-10,0,7.8813e-07,-1.4768e-05,-2.8085e+07,-197.71,0,3.3224e+05,-153.06,10866,11508,1,11508,1,-3.4918e-05,-1.9155e-10,0,1.7853e-05,-8.3689e-06,-1.4202e+07,-61.38,0,7.2609e+06,-10.679,11507,12724,1,12724,1,4.4718e-05,6.3869e-11,0,5.7671e-05,6.5535e-06,1.6427e+07,20.638,0,2.255e+07,4.1706,12723,702.88,0,702.88,0,4.4297e-05,2.1026e-10,0,2.2422e-05,8.3014e-06,1.7028e+07,68.897,0,8.4967e+06,25.458,702.88,1
2344,0.29,12116,1,12116,1,4.8363e-06,-3.4967e-10,0,3.9861e-05,-8.959e-07,1.0748e+06,-110.18,0,1.5321e+07,-374.12,12115,13336,1,13336,1,8.1684e-05,6.8686e-09,0,8.1684e-05,1.3418e-05,2.9732e+07,2202.5,0,2.9732e+07,1836.6,13335,12118,1,12118,1,5.074e-06,-1.1746e-10,0,4.0431e-05,-9.3693e-07,1.9211e+06,-37.519,0,1.4901e+07,-273.57,12117,10867,1,10867,1,-7.1533e-05,-1.0424e-08,0,8.1692e-07,-1.5305e-05,-2.9095e+07,-3343.6,0,3.4419e+05,-2869.7,10866,11508,1,11508,1,-3.6172e-05,-9.8054e-10,0,1.8497e-05,-8.6699e-06,-1.4712e+07,-316.75,0,7.5228e+06,-574.46,11507,12724,1,12724,1,4.6323e-05,5.6993e-10,0,5.9741e-05,6.7883e-06,1.7017e+07,182.68,0,2.336e+07,-72.407,12723,702.88,0,702.88,0,4.5888e-05,2.2661e-09,0,2.3228e-05,8.6e-06,1.764e+07,733,0,8.802e+06,561.28,702.88,1
2344,0.3,12116,1,12116,1,5.003e-06,-4.8839e-11,0,4.1226e-05,-9.2582e-07,1.112e+06,-15.942,0,1.5846e+07,-3.5035,12115,13336,1,13336,1,8.448e-05,7.8035e-10,0,8.448e-05,1.3876e-05,3.0749e+07,250.28,0,3.0749e+07,33.832,13335,12118,1,12118,1,5.2499e-06,-4.6387e-11,0,4.1816e-05,-9.6868e-07,1.9879e+06,-14.919,0,1.5411e+07,2.1861,12117,10867,1,10867,1,-7.3979e-05,-8.5306e-10,0,8.444e-07,-1.5822e-05,-3.009e+07,-273.58,0,3.5596e+05,-107.35,10866,11508,1,11508,1,-3.7411e-05,-2.7088e-10,0,1.9128e-05,-8.9664e-06,-1.5216e+07,-89.829,0,7.7794e+06,-8.6289,11507,12724,1,12724,1,4.791e-05,1.2712e-10,0,6.1788e-05,7.0214e-06,1.76e+07,42.033,0,2.416e+07,7.5635,12723,702.88,0,702.88,0,4.7459e-05,3.1915e-10,0,2.4023e-05,8.8941e-06,1.8244e+07,104.5,0,9.1033e+06,19.402,702.88,1
2344,0.31,12116,1,12116,1,5.1698e-06,6.1295e-11,0,4.2601e-05,-9.5672e-07,1.1491e+06,20.121,0,1.6375e+07,-13.188,12115,13336,1,13336,1,8.7297e-05,7.1279e-10,0,8.7297e-05,1.4339e-05,3.1775e+07,228.63,0,3.1775e+07,40.911,13335,12118,1,12118,1,5.425e-06,2.7755e-11,0,4.3211e-05,-1.0011e-06,2.0542e+06,9.0505,0,1.5925e+07,-5.1044,12117,10867,1,10867,1,-7.6447e-05,-4.6998e-10,0,8.7258e-07,-1.635e-05,-3.1094e+07,-150.77,0,3.6784e+05,-126.77,10866,11508,1,11508,1,-3.8659e-05,-1.0797e-10,0,1.9766e-05,-9.2655e-06,-1.5724e+07,-35.809,0,8.0389e+06,-24.875,11507,12724,1,12724,1,4.9509e-05,2.3151e-10,0,6.3849e-05,7.2556e-06,1.8187e+07,74.849,0,2.4966e+07,5.1741,12723,702.88,0,702.88,0,4.9043e-05,2.4161e-10,0,2.4825e-05,9.1908e-06,1.8852e+07,78.787,0,9.407e+06,26.856,702.88,1
2344,0.32,12116,1,12116,1,5.3368e-06,2.9254e-11,0,4.3977e-05,-9.8761e-07,1.1862e+06,9.6206,0,1.6903e+07,-11.33,12115,13336,1,13336,1,9.0115e-05,2.1143e-10,0,9.0115e-05,1.4802e-05,3.2801e+07,67.762,0,3.2801e+07,37.8,13335,12118,1,12118,1,5.6003e-06,1.7741e-11,0,4.4607e-05,-1.0333e-06,2.1205e+06,5.7021,0,1.644e+07,-7.9295,12117,10867,1,10867,1,-7.8915e-05,-1.7272e-10,0,9.0077e-07,-1.6878e-05,-3.2098e+07,-55.427,0,3.7972e+05,-83.421,10866,11508,1,11508,1,-3.9907e-05,-1.3743e-11,0,2.0404e-05,-9.5649e-06,-1.6231e+07,-4.3621,0,8.2985e+06,-19.883,11507,12724,1,12724,1,5.1108e-05,7.5242e-11,0,6.5912e-05,7.4899e-06,1.8775e+07,24.549,0,2.5772e+07,-0.18652,12723,702.88,0,702.88,0,5.0627e-05,5.7151e-11,0,2.5626e-05,9.4877e-06,1.9461e+07,18.696,0,9.7108e+06,16.554,702.88,1
2344,0.33,12116,1,12116,1,5.4974e-06,-3.8277e-10,0,4.5325e-05,-1.0182e-06,1.2214e+06,-137.16,0,1.7421e+07,-356.71,12115,13336,1,13336,1,9.2901e-05,1.3635e-08,0,9.2901e-05,1.5261e-05,3.3814e+07,4372.9,0,3.3814e+07,1587.6,13335,12118,1,12118,1,5.7673e-06,-2.8643e-10,0,4.597e-05,-1.0636e-06,2.1839e+06,-96.828,0,1.6942e+07,-216.66,12117,10867,1,10867,1,-8.136e-05,-1.2962e-08,0,9.2727e-07,-1.7402e-05,-3.3092e+07,-4157.1,0,3.9076e+05,-3335.8,10866,11508,1,11508,1,-4.113e-05,-2.7753e-09,0,2.1035e-05,-9.8588e-06,-1.6729e+07,-934.65,0,8.555e+06,-670.47,11507,12724,1,12724,1,5.2663e-05,1.9764e-09,0,6.7928e-05,7.7189e-06,1.9346e+07,629.4,0,2.6557e+07,-24.896,12723,702.88,0,702.88,0,5.2178e-05,4.3461e-09,0,2.6411e-05,9.7788e-06,2.0058e+07,1383.8,0,1.0008e+07,620.03,702.88,1
2344,0.34,12116,1,12116,1,5.6701e-06,-3.3585e-11,0,4.6724e-05,-1.0493e-06,1.2603e+06,-10.985,0,1.7959e+07,-4.2939,12115,13336,1,13336,1,9.5745e-05,6.1459e-10,0,9.5745e-05,1.5727e-05,3.485e+07,197.11,0,3.485e+07,21.982,13335,12118,1,12118,1,5.95e-06,-2.5656e-11,0,4.7393e-05,-1.0979e-06,2.253e+06,-8.2261,0,1.7466e+07,-1.8723,12117,10867,1,10867,1,-8.3845e-05,-5.7561e-10,0,9.5706e-07,-1.7932e-05,-3.4103e+07,-184.62,0,4.0345e+05,-117.99,10866,11508,1,11508,1,-4.24e-05,-1.9323e-10,0,2.1679e-05,-1.0162e-05,-1.7245e+07,-63.961,0,8.8168e+06,-7.7042,11507,12724,1,12724,1,5.43e-05,8.4441e-11,0,7.0028e-05,7.9578e-06,1.9947e+07,27.948,0,2.7382e+07,2.6148,12723,702.88,0,702.88,0,5.3789e-05,2.3367e-10,0,2.7227e-05,1.008e-05,2.0677e+07,76.73,0,1.0317e+07,12.626,702.88,1
2344,0.35,12116,1,12116,1,5.8295e-06,-5.6621e-10,0,4.8073e-05,-1.0795e-06,1.295e+06,-190.45,0,1.8478e+07,-307.76,12115,13336,1,13336,1,9.8538e-05,1.4614e-08,0,9.8538e-05,1.6187e-05,3.5867e+07,4686,0,3.5867e+07,1673.6,13335,12118,1,12118,1,6.1164e-06,-1.4452e-10,0,4.8755e-05,-1.1287e-06,2.316e+06,-49.238,0,1.7968e+07,-231.07,12117,10867,1,10867,1,-8.6296e-05,-1.3806e-08,0,9.8349e-07,-1.8456e-05,-3.51e+07,-4390.7,0,4.1445e+05,-1894.9,10866,11508,1,11508,1,-4.3624e-05,-3.0937e-09,0,2.2312e-05,-1.0455e-05,-1.7743e+07,-1024,0,9.0745e+06,-649.57,11507,12724,1,12724,1,5.5854e-05,1.8565e-09,0,7.2046e-05,8.187e-06,2.0518e+07,597.78,0,2.8167e+07,-2.5978,12723,702.88,0,702.88,0,5.5341e-05,4.7722e-09,0,2.8012e-05,1.0372e-05,2.1274e+07,1517.3,0,1.0615e+07,493.89,702.88,1
2344,0.36,12116,1,12116,1,6.0017e-06,1.0767e-09,0,4.9456e-05,-1.1099e-06,1.334e+06,353.64,0,1.9009e+07,280.52,12115,13336,1,13336,1,0.00010137,1.6676e-08,0,0.00010137,1.665e-05,3.6896e+07,5347.2,0,3.6896e+07,3886.3,13335,12118,1,12118,1,6.2971e-06,8.8713e-10,0,5.0162e-05,-1.1603e-06,2.3844e+06,293.39,0,1.8487e+07,44.413,12117,10867,1,10867,1,-8.8767e-05,-7.5689e-09,0,1.0112e-06,-1.8988e-05,-3.6105e+07,-2427.4,0,4.2565e+05,-2085,10866,11508,1,11508,1,-4.4875e-05,-2.0391e-10,0,2.2948e-05,-1.0754e-05,-1.8252e+07,-67.448,0,9.3327e+06,-299.19,11507,12724,1,12724,1,5.7469e-05,2.1673e-09,0,7.4116e-05,8.4216e-06,2.1112e+07,720.11,0,2.898e+07,691.09,12723,702.88,0,702.88,0,5.6934e-05,2.243e-09,0,2.8819e-05,1.0669e-05,2.1886e+07,718.94,0,1.0921e+07,941.76,702.88,1
2344,0.37,12116,1,12116,1,6.1697e-06,-6.766e-10,0,5.0842e-05,-1.1425e-06,1.3713e+06,-221.55,0,1.9542e+07,-310.51,12115,13336,1,13336,1,0.00010419,6.353e-09,0,0.00010419,1.7114e-05,3.7923e+07,2169.1,0,3.7923e+07,916,13335,12118,1,12118,1,6.4736e-06,-5.5303e-10,0,5.157e-05,-1.1953e-06,2.4511e+06,-178,0,1.9006e+07,-199.41,12117,10867,1,10867,1,-9.124e-05,-7.67e-09,0,1.0411e-06,-1.9517e-05,-3.7111e+07,-2459.8,0,4.3876e+05,-2919,10866,11508,1,11508,1,-4.6135e-05,-9.6687e-10,0,2.3591e-05,-1.1058e-05,-1.8765e+07,-319,0,9.5945e+06,-397.91,11507,12724,1,12724,1,5.9083e-05,-1.2974e-10,0,7.6197e-05,8.6583e-06,2.1705e+07,-41.164,0,2.9794e+07,-51.08,12723,702.88,0,702.88,0,5.8529e-05,1.4464e-09,0,2.9627e-05,1.0969e-05,2.2499e+07,472.61,0,1.1227e+07,451.57,702.88,1
2344,0.38,12116,1,12116,1,6.3316e-06,6.3108e-11,0,5.2204e-05,-1.1721e-06,1.4067e+06,15.436,0,2.0066e+07,-168.61,12115,13336,1,13336,1,0.00010698,1.1626e-08,0,0.00010698,1.7573e-05,3.8939e+07,3697.6,0,3.8939e+07,2080.9,13335,12118,1,12118,1,6.6425e-06,-1.3663e-10,0,5.2949e-05,-1.2252e-06,2.5153e+06,-46.293,0,1.9514e+07,-149.92,12117,10867,1,10867,1,-9.3686e-05,-1.133e-08,0,1.0694e-06,-2.0039e-05,-3.8106e+07,-3633.4,0,4.5049e+05,-1841.6,10866,11508,1,11508,1,-4.7376e-05,-8.0792e-10,0,2.4226e-05,-1.1354e-05,-1.9269e+07,-269.77,0,9.8528e+06,-408.53,11507,12724,1,12724,1,6.0661e-05,7.6955e-10,0,7.8244e-05,8.891e-06,2.2284e+07,256.24,0,3.059e+07,-1.5795,12723,702.88,0,702.88,0,6.0097e-05,2.957e-09,0,3.042e-05,1.1263e-05,2.3102e+07,940.27,0,1.1527e+07,411.66,702.88,1
2344,0.39,12116,1,12116,1,6.5029e-06,6.1731e-10,0,5.359e-05,-1.2034e-06,1.4453e+06,203.39,0,2.0598e+07,2.711,12115,13336,1,13336,1,0.00010982,1.0941e-08,0,0.00010982,1.804e-05,3.9973e+07,3508.8,0,3.9973e+07,2717.7,13335,12118,1,12118,1,6.823e-06,4.4669e-10,0,5.4356e-05,-1.2584e-06,2.5836e+06,148.52,0,2.0033e+07,-20.347,12117,10867,1,10867,1,-9.6173e-05,-6.8659e-09,0,1.0971e-06,-2.0571e-05,-3.9117e+07,-2202.1,0,4.6244e+05,-1520.1,10866,11508,1,11508,1,-4.863e-05,-3.3025e-11,0,2.4866e-05,-1.1654e-05,-1.9779e+07,-10.613,0,1.0113e+07,-233.61,11507,12724,1,12724,1,6.2278e-05,1.2629e-09,0,8.0317e-05,9.1267e-06,2.2878e+07,414.5,0,3.1405e+07,240.32,12723,702.88,0,702.88,0,6.1693e-05,2.0469e-09,0,3.1228e-05,1.1562e-05,2.3715e+07,652.91,0,1.1833e+07,432.54,702.88,1
2344,0.4,12116,1,12116,1,6.6692e-06,-9.004e-10,0,5.4956e-05,-1.2342e-06,1.4824e+06,-293.93,0,2.1123e+07,-37.591,12115,13336,1,13336,1,0.00011263,6.791e-09,0,0.00011263,1.8501e-05,4.0996e+07,2177.7,0,4.0996e+07,1014.2,13335,12118,1,12118,1,6.998e-06,-8.3852e-10,0,5.574e-05,-1.2913e-06,2.6497e+06,-275.64,0,2.0543e+07,-13.571,12117,10867,1,10867,1,-9.8634e-05,-7.4271e-09,0,1.1249e-06,-2.1097e-05,-4.0118e+07,-2381.6,0,4.7412e+05,-1229.2,10866,11508,1,11508,1,-4.9866e-05,-2.1956e-09,0,2.55e-05,-1.1952e-05,-2.0282e+07,-726.22,0,1.0371e+07,-152.31,11507,12724,1,12724,1,6.3861e-05,2.7562e-10,0,8.2359e-05,9.3592e-06,2.346e+07,89.39,0,3.2203e+07,71.92,12723,702.88,0,702.88,0,6.3265e-05,1.9251e-09,0,3.2024e-05,1.1856e-05,2.4319e+07,621.05,0,1.2135e+07,255.24,702.88,1
2344,0.41,12116,1,12116,1,6.8363e-06,-3.0932e-10,0,5.6337e-05,-1.2653e-06,1.5194e+06,-103.87,0,2.1654e+07,-83.724,12115,13336,1,13336,1,0.00011545,9.2188e-09,0,0.00011545,1.8963e-05,4.2021e+07,2956,0,4.2021e+07,1724.2,13335,12118,1,12118,1,7.1728e-06,-2.6491e-10,0,5.7142e-05,-1.3231e-06,2.7159e+06,-88.03,0,2.106e+07,-86.313,12117,10867,1,10867,1,-0.0001011,-7.6085e-09,0,1.1527e-06,-2.1623e-05,-4.1121e+07,-2440.2,0,4.8561e+05,-1341,10866,11508,1,11508,1,-5.1123e-05,-8.4819e-10,0,2.614e-05,-1.2253e-05,-2.0793e+07,-272.41,0,1.0631e+07,-242.28,11507,12724,1,12724,1,6.547e-05,1.9024e-10,0,8.4434e-05,9.5945e-06,2.4051e+07,60.151,0,3.3015e+07,74.159,12723,702.88,0,702.88,0,6.4855e-05,2.0113e-09,0,3.2829e-05,1.2154e-05,2.4931e+07,645.66,0,1.244e+07,328.26,702.88,1
2344,0.42,12116,1,12116,1,7.0026e-06,-1.0062e-09,0,5.7707e-05,-1.2958e-06,1.5564e+06,-329.69,0,2.2181e+07,24.384,12115,13336,1,13336,1,0.00011828,9.3868e-09,0,0.00011828,1.9428e-05,4.3052e+07,3010.2,0,4.3052e+07,1941,13335,12118,1,12118,1,7.3476e-06,-8.1714e-10,0,5.853e-05,-1.3548e-06,2.7823e+06,-271.41,0,2.1571e+07,-21.857,12117,10867,1,10867,1,-0.00010358,-1.0006e-08,0,1.1814e-06,-2.2153e-05,-4.2129e+07,-3208.8,0,4.9778e+05,-1256.2,10866,11508,1,11508,1,-5.2362e-05,-2.4381e-09,0,2.6777e-05,-1.2551e-05,-2.1297e+07,-810.58,0,1.089e+07,-218.16,11507,12724,1,12724,1,6.7058e-05,4.4508e-10,0,8.6482e-05,9.8272e-06,2.4634e+07,143.46,0,3.3815e+07,224.87,12723,702.88,0,702.88,0,6.6432e-05,2.7616e-09,0,3.3627e-05,1.245e-05,2.5537e+07,880.87,0,1.2743e+07,528.36,702.88,1
2344,0.43,12116,1,12116,1,7.1714e-06,-9.646e-10,0,5.9095e-05,-1.3266e-06,1.594e+06,-313.14,0,2.2714e+07,174.66,12115,13336,1,13336,1,0.0001211,5.2694e-09,0,0.0001211,1.9893e-05,4.408e+07,1770.5,0,4.408e+07,1853.3,13335,12118,1,12118,1,7.525e-06,-8.4497e-10,0,5.9941e-05,-1.3885e-06,2.8493e+06,-280.51,0,2.2091e+07,41.825,12117,10867,1,10867,1,-0.00010605,-6.0502e-09,0,1.2103e-06,-2.2682e-05,-4.3135e+07,-1939.8,0,5.1008e+05,-612.56,10866,11508,1,11508,1,-5.3623e-05,-1.6093e-09,0,2.742e-05,-1.2851e-05,-2.181e+07,-523.14,0,1.1152e+07,-56.026,11507,12724,1,12724,1,6.8671e-05,-2.0193e-10,0,8.8563e-05,1.0064e-05,2.5227e+07,-66.88,0,3.4629e+07,199.83,12723,702.88,0,702.88,0,6.803e-05,1.2447e-09,0,3.4436e-05,1.2749e-05,2.6151e+07,404.76,0,1.3049e+07,441.85,702.88,1
2344,0.44,12116,1,12116,1,7.3347e-06,-1.1407e-09,0,6.0449e-05,-1.3581e-06,1.6301e+06,-372.9,0,2.3234e+07,-328.33,12115,13336,1,13336,1,0.0001239,1.3074e-08,0,0.0001239,2.0352e-05,4.5098e+07,4193.7,0,4.5098e+07,1714,13335,12118,1,12118,1,7.6954e-06,-7.8852e-10,0,6.1309e-05,-1.4195e-06,2.9138e+06,-257.21,0,2.2595e+07,-292.58,12117,10867,1,10867,1,-0.0001085,-1.4065e-08,0,1.2378e-06,-2.3208e-05,-4.4132e+07,-4510.3,0,5.2182e+05,-1949.9,10866,11508,1,11508,1,-5.485e-05,-2.9389e-09,0,2.8051e-05,-1.3147e-05,-2.2309e+07,-981.39,0,1.1409e+07,-630.14,11507,12724,1,12724,1,7.0241e-05,7.0358e-10,0,9.0589e-05,1.0294e-05,2.5804e+07,230.3,0,3.5421e+07,-16.942,12723,702.88,0,702.88,0,6.9589e-05,3.8635e-09,0,3.5225e-05,1.3042e-05,2.675e+07,1232.5,0,1.3348e+07,520.58,702.88,1
2344,0.45,12116,1,12116,1,7.5038e-06,-2.8247e-10,0,6.1838e-05,-1.3892e-06,1.6677e+06,-100.49,0,2.3769e+07,-252.39,12115,13336,1,13336,1,0.00012672,1.0284e-08,0,0.00012672,2.0815e-05,4.6125e+07,3270.4,0,4.6125e+07,3545.1,13335,12118,1,12118,1,7.8729e-06,-4.2394e-10,0,6.2722e-05,-1.4534e-06,2.981e+06,-137.4,0,2.3116e+07,-186.42,12117,10867,1,10867,1,-0.00011097,-9.9587e-09,0,1.2654e-06,-2.3735e-05,-4.5137e+07,-3400.3,0,5.3287e+05,-2869.8,10866,11508,1,11508,1,-5.6115e-05,-1.2377e-09,0,2.8693e-05,-1.345e-05,-2.2823e+07,-407.34,0,1.167e+07,-549.16,11507,12724,1,12724,1,7.1862e-05,2.4963e-10,0,9.2678e-05,1.0531e-05,2.6399e+07,81.146,0,3.6238e+07,104.67,12723,702.88,0,702.88,0,7.1188e-05,2.2653e-09,0,3.6034e-05,1.3341e-05,2.7365e+07,733.25,0,1.3655e+07,790.65,702.88,1
2344,0.46,12116,1,12116,1,7.6715e-06,8.0609e-11,0,6.3218e-05,-1.4191e-06,1.7052e+06,28.077,0,2.4299e+07,205.2,12115,13336,1,13336,1,0.00012954,7.7518e-09,0,0.00012954,2.1279e-05,4.7152e+07,2486.1,0,4.7152e+07,1934.6,13335,12118,1,12118,1,8.0498e-06,-2.6098e-11,0,6.4123e-05,-1.4838e-06,3.0482e+06,-8.3703,0,2.3632e+07,96.863,12117,10867,1,10867,1,-0.00011344,-3.8091e-09,0,1.2949e-06,-2.4265e-05,-4.6141e+07,-1221.7,0,5.4581e+05,-1243.5,10866,11508,1,11508,1,-5.7368e-05,-2.1201e-10,0,2.9332e-05,-1.3748e-05,-2.3333e+07,-68.309,0,1.1929e+07,-50.8,11507,12724,1,12724,1,7.3468e-05,2.1942e-10,0,9.4749e-05,1.0767e-05,2.6989e+07,72.9,0,3.7048e+07,408.4,12723,702.88,0,702.88,0,7.2777e-05,1.1093e-09,0,3.6838e-05,1.3638e-05,2.7976e+07,362.45,0,1.3959e+07,453.32,702.88,1
2344,0.47,12116,1,12116,1,7.8375e-06,-8.0438e-10,0,6.4587e-05,-1.4501e-06,1.742e+06,-262.97,0,2.4825e+07,115.09,12115,13336,1,13336,1,0.00013236,5.2275e-09,0,0.00013236,2.1741e-05,4.8176e+07,1757.3,0,4.8176e+07,1334.3,13335,12118,1,12118,1,8.2242e-06,-7.0691e-10,0,6.5513e-05,-1.5173e-06,3.1141e+06,-232.59,0,2.4144e+07,45.002,12117,10867,1,10867,1,-0.00011591,-4.7085e-09,0,1.3231e-06,-2.4789e-05,-4.7144e+07,-1581.6,0,5.5763e+05,-1223.4,10866,11508,1,11508,1,-5.8608e-05,-1.4263e-09,0,2.9969e-05,-1.4045e-05,-2.3838e+07,-457.37,0,1.2188e+07,-99.717,11507,12724,1,12724,1,7.5053e-05,-1.1068e-10,0,9.6796e-05,1.1e-05,2.7572e+07,-36.074,0,3.7848e+07,370.13,12723,702.88,0,702.88,0,7.4353e-05,1.107e-09,0,3.7636e-05,1.3934e-05,2.8582e+07,366.56,0,1.4262e+07,444.48,702.88,1
2344,0.48,12116,1,12116,1,8.0033e-06,-7.4583e-10,0,6.5951e-05,-1.481e-06,1.7789e+06,-241.92,0,2.5349e+07,9.6678,12115,13336,1,13336,1,0.00013517,1.1497e-08,0,0.00013517,2.2203e-05,4.92e+07,3687.6,0,4.92e+07,4309.4,13335,12118,1,12118,1,8.3976e-06,-6.3782e-10,0,6.6893e-05,-1.5491e-06,3.1798e+06,-211.09,0,2.4653e+07,-11.6,12117,10867,1,10867,1,-0.00011837,-1.1259e-08,0,1.3503e-06,-2.5317e-05,-4.8146e+07,-3610.7,0,5.6898e+05,-2738.9,10866,11508,1,11508,1,-5.9844e-05,-2.4415e-09,0,3.0602e-05,-1.4343e-05,-2.434e+07,-805.18,0,1.2446e+07,-228.19,11507,12724,1,12724,1,7.6639e-05,7.882e-10,0,9.8838e-05,1.1232e-05,2.8154e+07,251.11,0,3.8647e+07,182.5,12723,702.88,0,702.88,0,7.5923e-05,3.1107e-09,0,3.8431e-05,1.4228e-05,2.9185e+07,997.89,0,1.4563e+07,648.2,702.88,1
2344,0.49,12116,1,12116,1,8.1688e-06,-1.1022e-09,0,6.7318e-05,-1.5111e-06,1.8157e+06,-358.81,0,2.5875e+07,246.67,12115,13336,1,13336,1,0.00013798,9.2276e-09,0,0.00013798,2.2664e-05,5.0222e+07,2958.5,0,5.0222e+07,5091.5,13335,12118,1,12118,1,8.5715e-06,-8.4391e-10,0,6.8278e-05,-1.5804e-06,3.2457e+06,-279.78,0,2.5163e+07,135.41,12117,10867,1,10867,1,-0.00012083,-9.5865e-09,0,1.379e-06,-2.5842e-05,-4.9146e+07,-3074.2,0,5.8118e+05,-2266.5,10866,11508,1,11508,1,-6.1084e-05,-3.0289e-09,0,3.1236e-05,-1.464e-05,-2.4845e+07,-999.43,0,1.2704e+07,-1.826,11507,12724,1,12724,1,7.8226e-05,5.9584e-10,0,0.00010089,1.1465e-05,2.8737e+07,193.66,0,3.9447e+07,419.76,12723,702.88,0,702.88,0,7.7497e-05,2.9636e-09,0,3.9228e-05,1.4523e-05,2.979e+07,956.13,0,1.4865e+07,560.14,702.88,1
2344,0.5,12116,1,12116,1,8.3372e-06,-8.6974e-10,0,6.8702e-05,-1.5414e-06,1.8532e+06,-285.02,0,2.6407e+07,558.9,12115,13336,1,13336,1,0.00014079,5.8376e-09,0,0.00014079,2.3128e-05,5.1247e+07,1871.3,0,5.1247e+07,5713.3,13335,12118,1,12118,1,8.7485e-06,-9.0513e-10,0,6.9684e-05,-1.6116e-06,3.3128e+06,-293.6,0,2.5682e+07,311.26,12117,10867,1,10867,1,-0.00012329,-7.1742e-09,0,1.4065e-06,-2.637e-05,-5.0148e+07,-2299.8,0,5.9249e+05,-2010.7,10866,11508,1,11508,1,-6.2341e-05,-1.7305e-09,0,3.1877e-05,-1.4939e-05,-2.5356e+07,-570,0,1.2965e+07,22.32,11507,12724,1,12724,1,7.9838e-05,-3.536e-11,0,0.00010296,1.1701e-05,2.9329e+07,-11.706,0,4.026e+07,1122.9,12723,702.88,0,702.88,0,7.909e-05,1.3211e-09,0,4.0034e-05,1.4821e-05,3.0403e+07,427.46,0,1.517e+07,897.62,702.88,1
2344,0.51,12116,1,12116,1,8.504e-06,1.3844e-09,0,7.0077e-05,-1.574e-06,1.8901e+06,450.99,0,2.6935e+07,-114.5,12115,13336,1,13336,1,0.00014362,1.5281e-08,0,0.00014362,2.3591e-05,5.2276e+07,4900.5,0,5.2276e+07,1215.3,13335,12118,1,12118,1,8.9231e-06,5.6061e-10,0,7.1078e-05,-1.6467e-06,3.3787e+06,178.56,0,2.6195e+07,-92.953,12117,10867,1,10867,1,-0.00012577,-5.0135e-09,0,1.434e-06,-2.6901e-05,-5.1156e+07,-1608.3,0,6.0439e+05,-1911.9,10866,11508,1,11508,1,-6.3588e-05,-4.4337e-10,0,3.2514e-05,-1.5241e-05,-2.5863e+07,-144.32,0,1.3224e+07,-303.13,11507,12724,1,12724,1,8.1435e-05,2.8303e-09,0,0.00010502,1.1934e-05,2.9916e+07,923.62,0,4.1065e+07,27.812,12723,702.88,0,702.88,0,8.0672e-05,3.0147e-09,0,4.0835e-05,1.5118e-05,3.1011e+07,967.03,0,1.5474e+07,326.03,702.88,1
2344,0.52,12116,1,12116,1,8.6693e-06,-1.342e-09,0,7.1438e-05,-1.6042e-06,1.9269e+06,-437.05,0,2.7458e+07,52.03,12115,13336,1,13336,1,0.00014642,9.265e-09,0,0.00014642,2.4051e-05,5.3295e+07,2970.9,0,5.3295e+07,1987.9,13335,12118,1,12118,1,9.0967e-06,-1.1174e-09,0,7.2458e-05,-1.677e-06,3.4445e+06,-363.87,0,2.6704e+07,33.704,12117,10867,1,10867,1,-0.00012822,-1.0189e-08,0,1.4622e-06,-2.7424e-05,-5.2153e+07,-3267.2,0,6.1605e+05,-1096.6,10866,11508,1,11508,1,-6.4821e-05,-3.4959e-09,0,3.3147e-05,-1.5536e-05,-2.6365e+07,-1160.4,0,1.3481e+07,-120.2,11507,12724,1,12724,1,8.3014e-05,6.4162e-10,0,0.00010706,1.2166e-05,3.0496e+07,207.02,0,4.1861e+07,198.25,12723,702.88,0,702.88,0,8.2239e-05,3.2512e-09,0,4.1628e-05,1.5412e-05,3.1613e+07,1049.5,0,1.5775e+07,351.41,702.88,1
2344,0.53,12116,1,12116,1,8.8376e-06,-2.2056e-09,0,7.2826e-05,-1.6356e-06,1.9643e+06,-720.24,0,2.7992e+07,-61.561,12115,13336,1,13336,1,0.00014926,3.3319e-09,0,0.00014926,2.4518e-05,5.4329e+07,1067.4,0,5.4329e+07,1756.3,13335,12118,1,12118,1,9.2733e-06,-2.1137e-09,0,7.3867e-05,-1.7111e-06,3.5113e+06,-689.39,0,2.7223e+07,-47.003,12117,10867,1,10867,1,-0.00013071,-9.1355e-09,0,1.491e-06,-2.796e-05,-5.3165e+07,-2929.3,0,6.2839e+05,-1748.8,10866,11508,1,11508,1,-6.608e-05,-3.6762e-09,0,3.3793e-05,-1.5838e-05,-2.6877e+07,-1197.3,0,1.3744e+07,-209.8,11507,12724,1,12724,1,8.4623e-05,-6.0922e-10,0,0.00010914,1.2402e-05,3.1087e+07,-199.18,0,4.2674e+07,95.636,12723,702.88,0,702.88,0,8.3838e-05,1.9077e-09,0,4.2437e-05,1.5712e-05,3.2228e+07,617.17,0,1.6081e+07,340.96,702.88,1
2344,0.54,12116,1,12116,1,9.005e-06,6.5266e-10,0,7.4204e-05,-1.6666e-06,2.0015e+06,212.32,0,2.8522e+07,-78.306,12115,13336,1,13336,1,0.00015206,7.2144e-09,0,0.00015206,2.4977e-05,5.5348e+07,2313.9,0,5.5348e+07,796.14,13335,12118,1,12118,1,9.4491e-06,4.6031e-10,0,7.5267e-05,-1.7435e-06,3.5779e+06,149.8,0,2.7739e+07,-68.058,12117,10867,1,10867,1,-0.00013316,-2.4176e-09,0,1.5189e-06,-2.8482e-05,-5.4161e+07,-775.52,0,6.4025e+05,-1072.3,10866,11508,1,11508,1,-6.7336e-05,1.272e-10,0,3.4429e-05,-1.6139e-05,-2.7388e+07,41.604,0,1.4002e+07,-209.4,11507,12724,1,12724,1,8.6235e-05,8.9734e-10,0,0.00011121,1.2638e-05,3.1679e+07,297.85,0,4.3486e+07,35.769,12723,702.88,0,702.88,0,8.5424e-05,1.1309e-09,0,4.324e-05,1.6009e-05,3.2838e+07,362.67,0,1.6385e+07,238.53,702.88,1
2344,0.55,12116,1,12116,1,9.171e-06,-4.6171e-10,0,7.5571e-05,-1.697e-06,2.0385e+06,-150.7,0,2.9047e+07,56.044,12115,13336,1,13336,1,0.00015487,3.816e-09,0,0.00015487,2.5439e-05,5.637e+07,1223.6,0,5.637e+07,916.48,13335,12118,1,12118,1,9.6235e-06,-2.6052e-10,0,7.6652e-05,-1.7755e-06,3.6439e+06,-87.363,0,2.8249e+07,29.5,12117,10867,1,10867,1,-0.00013562,-4.6561e-09,0,1.5472e-06,-2.9005e-05,-5.5162e+07,-1493.2,0,6.5218e+05,-742.75,10866,11508,1,11508,1,-6.8575e-05,-1.4117e-09,0,3.5063e-05,-1.6436e-05,-2.7891e+07,-457.77,0,1.426e+07,-28.515,11507,12724,1,12724,1,8.7822e-05,4.2117e-10,0,0.00011326,1.2871e-05,3.2262e+07,134.98,0,4.4286e+07,78.421,12723,702.88,0,702.88,0,8.6997e-05,1.5015e-09,0,4.4037e-05,1.6304e-05,3.3442e+07,485.58,0,1.6687e+07,188.02,702.88,1
2344,0.56,12116,1,12116,1,9.3377e-06,-1.1649e-09,0,7.6947e-05,-1.7281e-06,2.0755e+06,-379.85,0,2.9576e+07,-63.033,12115,13336,1,13336,1,0.0001577,7.4032e-09,0,0.0001577,2.5904e-05,5.7401e+07,2373.6,0,5.7401e+07,2115.9,13335,12118,1,12118,1,9.7982e-06,-8.9087e-10,0,7.8045e-05,-1.8079e-06,3.7101e+06,-291.4,0,2.8763e+07,-38.72,12117,10867,1,10867,1,-0.0001381,-9.6762e-09,0,1.5751e-06,-2.9538e-05,-5.6171e+07,-3102.7,0,6.6399e+05,-1159,10866,11508,1,11508,1,-6.9821e-05,-2.673e-09,0,3.5703e-05,-1.6735e-05,-2.8398e+07,-883.26,0,1.4521e+07,-228.23,11507,12724,1,12724,1,8.9416e-05,3.1459e-10,0,0.00011532,1.3104e-05,3.2848e+07,102.36,0,4.509e+07,80.149,12723,702.88,0,702.88,0,8.8581e-05,2.51e-09,0,4.4838e-05,1.66e-05,3.4051e+07,806.75,0,1.6991e+07,363.65,702.88,1
2344,0.57,12116,1,12116,1,9.5039e-06,-3.1938e-10,0,7.8316e-05,-1.7579e-06,2.1125e+06,-102.32,0,3.0102e+07,309.47,12115,13336,1,13336,1,0.0001605,5.5186e-09,0,0.0001605,2.6364e-05,5.842e+07,1768.8,0,5.842e+07,2676.9,13335,12118,1,12118,1,9.9726e-06,-1.1934e-10,0,7.9436e-05,-1.8391e-06,3.7762e+06,-39.457,0,2.9275e+07,127.24,12117,10867,1,10867,1,-0.00014055,-7.7459e-09,0,1.6035e-06,-3.0059e-05,-5.7167e+07,-2484.5,0,6.7572e+05,-742.24,10866,11508,1,11508,1,-7.1066e-05,-1.4374e-09,0,3.6337e-05,-1.7031e-05,-2.8904e+07,-472.68,0,1.4778e+07,-55.94,11507,12724,1,12724,1,9.101e-05,7.8406e-10,0,0.00011737,1.3338e-05,3.3434e+07,251.64,0,4.5894e+07,587.31,12723,702.88,0,702.88,0,9.0157e-05,1.9093e-09,0,4.5636e-05,1.6895e-05,3.4657e+07,614.11,0,1.7293e+07,537.65,702.88,1
2344,0.58,12116,1,12116,1,9.6727e-06,-1.2582e-09,0,7.9707e-05,-1.7901e-06,2.1499e+06,-410.97,0,3.0637e+07,-74.515,12115,13336,1,13336,1,0.00016335,4.8436e-09,0,0.00016335,2.6832e-05,5.9457e+07,1553,0,5.9457e+07,1010.9,13335,12118,1,12118,1,1.015e-05,-1.1494e-09,0,8.0846e-05,-1.8729e-06,3.8432e+06,-381.88,0,2.9795e+07,-79.662,12117,10867,1,10867,1,-0.00014305,-7.072e-09,0,1.6313e-06,-3.0594e-05,-5.8183e+07,-2267.8,0,6.8764e+05,-1542.5,10866,11508,1,11508,1,-7.2326e-05,-2.1879e-09,0,3.6984e-05,-1.7336e-05,-2.9417e+07,-725.05,0,1.5042e+07,-198.87,11507,12724,1,12724,1,9.2624e-05,-1.2174e-10,0,0.00011945,1.3574e-05,3.4026e+07,-39.265,0,4.6708e+07,11.634,12723,702.88,0,702.88,0,9.1758e-05,1.4728e-09,0,4.6447e-05,1.7196e-05,3.5272e+07,473.8,0,1.76e+07,292,702.88,1
2344,0.59,12116,1,12116,1,9.8367e-06,-1.289e-09,0,8.1057e-05,-1.8202e-06,2.1864e+06,-421.11,0,3.1156e+07,31.518,12115,13336,1,13336,1,0.00016613,5.4385e-09,0,0.00016613,2.7289e-05,6.0469e+07,1743.8,0,6.0469e+07,542,13335,12118,1,12118,1,1.0322e-05,-9.1644e-10,0,8.2214e-05,-1.9042e-06,3.9084e+06,-299.72,0,3.0299e+07,27.615,12117,10867,1,10867,1,-0.00014548,-7.4309e-09,0,1.6596e-06,-3.1115e-05,-5.9173e+07,-2383.2,0,6.9953e+05,-921.7,10866,11508,1,11508,1,-7.355e-05,-3.4855e-09,0,3.761e-05,-1.7628e-05,-2.9915e+07,-1139.2,0,1.5296e+07,-37.598,11507,12724,1,12724,1,9.4193e-05,6.1048e-10,0,0.00012148,1.3804e-05,3.4602e+07,202.78,0,4.7498e+07,98.151,12723,702.88,0,702.88,0,9.3313e-05,2.8784e-09,0,4.7233e-05,1.7487e-05,3.587e+07,938.41,0,1.7899e+07,123.01,702.88,1
2344,0.6,12116,1,12116,1,1.0005e-05,-7.0799e-10,0,8.2443e-05,-1.8513e-06,2.2238e+06,-230.48,0,3.1688e+07,46.332,12115,13336,1,13336,1,0.00016896,6.385e-09,0,0.00016896,2.7753e-05,6.1497e+07,2047.1,0,6.1497e+07,3809.8,13335,12118,1,12118,1,1.0499e-05,-6.7969e-10,0,8.3622e-05,-1.9367e-06,3.9754e+06,-228.35,0,3.0818e+07,8.7467,12117,10867,1,10867,1,-0.00014796,-4.7721e-09,0,1.6881e-06,-3.1646e-05,-6.0179e+07,-1530.1,0,7.1143e+05,-2682.5,10866,11508,1,11508,1,-7.4811e-05,-1.9108e-09,0,3.8252e-05,-1.7931e-05,-3.0428e+07,-632.29,0,1.5557e+07,-145.95,11507,12724,1,12724,1,9.5807e-05,2.6929e-10,0,0.00012356,1.4041e-05,3.5195e+07,90.332,0,4.8313e+07,183.11,12723,702.88,0,702.88,0,9.4909e-05,1.6784e-09,0,4.8041e-05,1.7786e-05,3.6484e+07,544.52,0,1.8205e+07,506.28,702.88,1
2344,0.61,12116,1,12116,1,1.0172e-05,3.4331e-10,0,8.3823e-05,-1.8817e-06,2.2611e+06,112.25,0,3.2219e+07,281.67,12115,13336,1,13336,1,0.00017177,4.4338e-09,0,0.00017177,2.8216e-05,6.2521e+07,1421.1,0,6.2521e+07,4935.9,13335,12118,1,12118,1,1.0674e-05,2.9924e-10,0,8.5023e-05,-1.9685e-06,4.0419e+06,97.74,0,3.1335e+07,114.94,12117,10867,1,10867,1,-0.00015042,-2.7604e-09,0,1.7166e-06,-3.2182e-05,-6.118e+07,-885.93,0,7.2345e+05,-4628.6,10866,11508,1,11508,1,-7.6065e-05,6.3783e-11,0,3.8891e-05,-1.8228e-05,-3.0938e+07,20.706,0,1.5817e+07,-7.0921,11507,12724,1,12724,1,9.7413e-05,5.2261e-10,0,0.00012563,1.4276e-05,3.5786e+07,172.3,0,4.9123e+07,423.96,12723,702.88,0,702.88,0,9.6497e-05,6.6244e-10,0,4.8845e-05,1.8084e-05,3.7094e+07,215.31,0,1.8509e+07,594.41,702.88,1
2344,0.62,12116,1,12116,1,1.034e-05,1.4635e-09,0,8.5201e-05,-1.913e-06,2.2982e+06,478.43,0,3.2748e+07,146.91,12115,13336,1,13336,1,0.0001746,5.4452e-09,0,0.0001746,2.868e-05,6.3552e+07,1830.6,0,6.3552e+07,2777.9,13335,12118,1,12118,1,1.085e-05,1.3613e-09,0,8.6422e-05,-2.0013e-06,4.1084e+06,444.96,0,3.185e+07,35.632,12117,10867,1,10867,1,-0.0001529,-2.443e-09,0,1.745e-06,-3.2704e-05,-6.219e+07,-817.55,0,7.3552e+05,-1854.3,10866,11508,1,11508,1,-7.7313e-05,5.7209e-10,0,3.9533e-05,-1.8527e-05,-3.1445e+07,183.96,0,1.6078e+07,-69.731,11507,12724,1,12724,1,9.9009e-05,2.2898e-09,0,0.00012769,1.451e-05,3.6372e+07,747.98,0,4.9928e+07,256.39,12723,702.88,0,702.88,0,9.8084e-05,1.1415e-09,0,4.9649e-05,1.8381e-05,3.7704e+07,374.09,0,1.8814e+07,419.55,702.88,1
2344,0.63,12116,1,12116,1,1.0505e-05,-2.2433e-09,0,8.6565e-05,-1.9441e-06,2.3349e+06,-732.85,0,3.3273e+07,-48.408,12115,13336,1,13336,1,0.00017742,5.23e-09,0,0.00017742,2.9143e-05,6.458e+07,1677,0,6.458e+07,948.75,13335,12118,1,12118,1,1.1023e-05,-2.1901e-09,0,8.78e-05,-2.0342e-06,4.1738e+06,-719.64,0,3.2358e+07,-34.603,12117,10867,1,10867,1,-0.00015537,-8.3175e-09,0,1.7723e-06,-3.323e-05,-6.3196e+07,-2667.3,0,7.4716e+05,-1265.4,10866,11508,1,11508,1,-7.8545e-05,-4.5321e-09,0,4.0167e-05,-1.8826e-05,-3.1947e+07,-1486.2,0,1.6336e+07,-184.5,11507,12724,1,12724,1,0.00010059,4.553e-11,0,0.00012973,1.4742e-05,3.6952e+07,15.064,0,5.0724e+07,92.561,12723,702.88,0,702.88,0,9.9653e-05,2.7402e-09,0,5.0443e-05,1.8676e-05,3.8307e+07,890.02,0,1.9115e+07,276.46,702.88,1
2344,0.64,12116,1,12116,1,1.0673e-05,-1.0446e-09,0,8.7948e-05,-1.975e-06,2.3723e+06,-341.37,0,3.3804e+07,8.7807,12115,13336,1,13336,1,0.00018023,2.7383e-09,0,0.00018023,2.9604e-05,6.56e+07,920.26,0,6.56e+07,636.45,13335,12118,1,12118,1,1.12e-05,-9.7988e-10,0,8.9208e-05,-2.0664e-06,4.2408e+06,-318.04,0,3.2877e+07,-2.3238,12117,10867,1,10867,1,-0.00015783,-4.2531e-09,0,1.8012e-06,-3.3755e-05,-6.4194e+07,-1429,0,7.5925e+05,-1091.6,10866,11508,1,11508,1,-7.9807e-05,-1.609e-09,0,4.0807e-05,-1.9127e-05,-3.246e+07,-529.94,0,1.6596e+07,-25.193,11507,12724,1,12724,1,0.0001022,-4.5107e-10,0,0.00013181,1.4978e-05,3.7545e+07,-148.2,0,5.1539e+07,26.587,12723,702.88,0,702.88,0,0.00010125,8.5718e-10,0,5.1249e-05,1.8974e-05,3.892e+07,281.5,0,1.942e+07,128.34,702.88,1
2344,0.65,12116,1,12116,1,1.084e-05,-4.8618e-10,0,8.9322e-05,-2.0058e-06,2.4093e+06,-159.6,0,3.4332e+07,38.996,12115,13336,1,13336,1,0.00018304,6.5912e-09,0,0.00018304,3.0067e-05,6.6625e+07,2113.7,0,6.6625e+07,2014.7,13335,12118,1,12118,1,1.1374e-05,-4.9739e-10,0,9.06e-05,-2.0986e-06,4.3069e+06,-164.07,0,3.339e+07,35.165,12117,10867,1,10867,1,-0.00016029,-4.7519e-09,0,1.8291e-06,-3.4285e-05,-6.5197e+07,-1524.5,0,7.7089e+05,-1673.3,10866,11508,1,11508,1,-8.1054e-05,-1.2654e-09,0,4.1444e-05,-1.9426e-05,-3.2967e+07,-422.15,0,1.6855e+07,-70.883,11507,12724,1,12724,1,0.0001038,1.528e-10,0,0.00013387,1.5213e-05,3.8133e+07,48.851,0,5.2345e+07,141.82,12723,702.88,0,702.88,0,0.00010283,1.3394e-09,0,5.205e-05,1.927e-05,3.9528e+07,430.65,0,1.9724e+07,362.44,702.88,1
2344,0.66,12116,1,12116,1,1.1006e-05,1.3518e-10,0,9.0689e-05,-2.0365e-06,2.4462e+06,44.815,0,3.4858e+07,40.097,12115,13336,1,13336,1,0.00018583,3.0705e-09,0,0.00018583,3.0525e-05,6.7641e+07,1029.2,0,6.7641e+07,2146.3,13335,12118,1,12118,1,1.1549e-05,1.5795e-10,0,9.1987e-05,-2.1311e-06,4.3729e+06,50.886,0,3.3901e+07,22.557,12117,10867,1,10867,1,-0.00016274,-2.5427e-09,0,1.8572e-06,-3.4808e-05,-6.6191e+07,-854.23,0,7.8289e+05,-1986.2,10866,11508,1,11508,1,-8.2296e-05,-4.8223e-11,0,4.2077e-05,-1.9722e-05,-3.3472e+07,-15.754,0,1.7113e+07,-140.56,11507,12724,1,12724,1,0.00010539,3.0018e-10,0,0.00013592,1.5445e-05,3.8717e+07,96.642,0,5.3147e+07,170.16,12723,702.88,0,702.88,0,0.0001044,5.1486e-10,0,5.2846e-05,1.9565e-05,4.0132e+07,171.06,0,2.0025e+07,450.28,702.88,1
2344,0.67,12116,1,12116,1,1.1173e-05,-1.3367e-09,0,9.2066e-05,-2.0675e-06,2.4835e+06,-436.93,0,3.5387e+07,47.065,12115,13336,1,13336,1,0.00018868,1.7529e-09,0,0.00018868,3.0991e-05,6.8675e+07,562.04,0,6.8675e+07,726.59,13335,12118,1,12118,1,1.1724e-05,-1.3681e-09,0,9.3384e-05,-2.1631e-06,4.4394e+06,-445.41,0,3.4416e+07,18.597,12117,10867,1,10867,1,-0.00016522,-4.7653e-09,0,1.8853e-06,-3.5338e-05,-6.7203e+07,-1601.4,0,7.9465e+05,-259.8,10866,11508,1,11508,1,-8.3541e-05,-2.2991e-09,0,4.2718e-05,-2.0023e-05,-3.3978e+07,-750.36,0,1.7374e+07,-22.618,11507,12724,1,12724,1,0.00010699,-3.6693e-10,0,0.00013798,1.568e-05,3.9303e+07,-119.04,0,5.3951e+07,102.58,12723,702.88,0,702.88,0,0.00010599,1.1629e-09,0,5.3649e-05,1.9862e-05,4.0742e+07,380.21,0,2.033e+07,123.05,702.88,1
2344,0.68,12116,1,12116,1,1.1338e-05,-3.956e-10,0,9.3431e-05,-2.098e-06,2.5201e+06,-128.86,0,3.5912e+07,78.723,12115,13336,1,13336,1,0.00019146,3.6258e-09,0,0.00019146,3.145e-05,6.969e+07,1162.7,0,6.969e+07,898.33,13335,12118,1,12118,1,1.1898e-05,-3.1523e-10,0,9.4767e-05,-2.1946e-06,4.5051e+06,-101.81,0,3.4926e+07,35.258,12117,10867,1,10867,1,-0.00016767,-4.6487e-09,0,1.9135e-06,-3.586e-05,-6.8197e+07,-1491,0,8.065e+05,-338.84,10866,11508,1,11508,1,-8.4783e-05,-1.3042e-09,0,4.335e-05,-2.032e-05,-3.4483e+07,-432.64,0,1.763e+07,-2.7892,11507,12724,1,12724,1,0.00010858,4.3294e-10,0,0.00014003,1.5912e-05,3.9887e+07,138.13,0,5.4752e+07,104.89,12723,702.88,0,702.88,0,0.00010756,1.5339e-09,0,5.4444e-05,2.0157e-05,4.1346e+07,499.22,0,2.0631e+07,151.63,702.88,1
2344,0.69,12116,1,12116,1,1.1506e-05,7.2047e-10,0,9.4813e-05,-2.1282e-06,2.5575e+06,234.86,0,3.6443e+07,404.12,12115,13336,1,13336,1,0.00019429,9.7936e-09,0,0.00019429,3.1915e-05,7.072e+07,3143.5,0,7.072e+07,4913.3,13335,12118,1,12118,1,1.2074e-05,6.2208e-10,0,9.6169e-05,-2.2266e-06,4.5717e+06,204.38,0,3.5442e+07,196.06,12117,10867,1,10867,1,-0.00017015,-3.1409e-09,0,1.9414e-06,-3.639e-05,-6.9204e+07,-1007.8,0,8.1811e+05,-1623.2,10866,11508,1,11508,1,-8.6036e-05,-1.9421e-11,0,4.3991e-05,-2.0618e-05,-3.4993e+07,-6.5717,0,1.7891e+07,-53.858,11507,12724,1,12724,1,0.00011018,1.2027e-09,0,0.0001421,1.6147e-05,4.0477e+07,390.41,0,5.5562e+07,646.93,12723,702.88,0,702.88,0,0.00010915,1.2995e-09,0,5.5249e-05,2.0454e-05,4.1957e+07,417.54,0,2.0936e+07,782.54,702.88,1
2344,0.7,12116,1,12116,1,1.1672e-05,-1.2214e-09,0,9.6177e-05,-2.1597e-06,2.5943e+06,-398.71,0,3.6967e+07,51.765,12115,13336,1,13336,1,0.00019711,6.1293e-09,0,0.00019711,3.2377e-05,7.1746e+07,1965.7,0,7.1746e+07,880.28,13335,12118,1,12118,1,1.2247e-05,-1.1312e-09,0,9.7551e-05,-2.2593e-06,4.6375e+06,-361.52,0,3.5952e+07,37.071,12117,10867,1,10867,1,-0.00017261,-6.9099e-09,0,1.9695e-06,-3.6918e-05,-7.0208e+07,-2216,0,8.302e+05,-191.25,10866,11508,1,11508,1,-8.7271e-05,-3.6822e-09,0,4.4625e-05,-2.0917e-05,-3.5496e+07,-1210,0,1.8149e+07,-24.004,11507,12724,1,12724,1,0.00011176,7.4143e-10,0,0.00014414,1.638e-05,4.1058e+07,241.69,0,5.636e+07,119.34,12723,702.88,0,702.88,0,0.00011072,3.0779e-09,0,5.6044e-05,2.0749e-05,4.2561e+07,1004,0,2.1237e+07,121.85,702.88,1
2344,0.71,12116,1,12116,1,1.1839e-05,-6.1602e-10,0,9.7557e-05,-2.1899e-06,2.6314e+06,-200.05,0,3.7497e+07,367.49,12115,13336,1,13336,1,0.00019992,6.1108e-09,0,0.00019992,3.2838e-05,7.2768e+07,1959.6,0,7.2768e+07,3018.6,13335,12118,1,12118,1,1.2423e-05,-6.6882e-10,0,9.8952e-05,-2.2908e-06,4.7041e+06,-218.76,0,3.6468e+07,130.57,12117,10867,1,10867,1,-0.00017507,-6.7914e-09,0,1.9979e-06,-3.7446e-05,-7.1209e+07,-2178.9,0,8.4209e+05,-1146.3,10866,11508,1,11508,1,-8.8526e-05,-1.8401e-09,0,4.5265e-05,-2.1214e-05,-3.6006e+07,-607.14,0,1.8409e+07,29.73,11507,12724,1,12724,1,0.00011337,4.0274e-10,0,0.00014621,1.6615e-05,4.1648e+07,125.96,0,5.717e+07,328.94,12723,702.88,0,702.88,0,0.00011231,1.9258e-09,0,5.6848e-05,2.1046e-05,4.3172e+07,622.08,0,2.1542e+07,701.71,702.88,1
2344,0.72,12116,1,12116,1,1.2007e-05,-8.27e-10,0,9.8945e-05,-2.2219e-06,2.6688e+06,-270.69,0,3.8031e+07,32.059,12115,13336,1,13336,1,0.00020276,2.3004e-09,0,0.00020276,3.3305e-05,7.3801e+07,737.52,0,7.3801e+07,737.66,13335,12118,1,12118,1,1.26e-05,-8.2657e-10,0,0.00010036,-2.3246e-06,4.771e+06,-269.6,0,3.6987e+07,9.825,12117,10867,1,10867,1,-0.00017756,-4.5673e-09,0,2.0261e-06,-3.7975e-05,-7.2219e+07,-1534.2,0,8.5403e+05,-266.65,10866,11508,1,11508,1,-8.9786e-05,-1.2136e-09,0,4.5909e-05,-2.152e-05,-3.6519e+07,-396.33,0,1.8671e+07,-20.364,11507,12724,1,12724,1,0.00011498,-3.3098e-10,0,0.00014829,1.6851e-05,4.224e+07,-107.98,0,5.7984e+07,62.451,12723,702.88,0,702.88,0,0.00011391,7.4132e-10,0,5.7657e-05,2.1346e-05,4.3786e+07,245.04,0,2.1849e+07,104.2,702.88,1
2344,0.73,12116,1,12116,1,1.2174e-05,-1.8139e-09,0,0.00010032,-2.2523e-06,2.7059e+06,-592.15,0,3.8558e+07,188.45,12115,13336,1,13336,1,0.00020559,1.3463e-09,0,0.00020559,3.3769e-05,7.4831e+07,431.59,0,7.4831e+07,2987.4,13335,12118,1,12118,1,1.2775e-05,-1.8019e-09,0,0.00010175,-2.3564e-06,4.8371e+06,-589.99,0,3.7499e+07,33.796,12117,10867,1,10867,1,-0.00018003,-5.2154e-09,0,2.0544e-06,-3.8504e-05,-7.3227e+07,-1672.3,0,8.6601e+05,-198.53,10866,11508,1,11508,1,-9.1027e-05,-3.1535e-09,0,4.6546e-05,-2.1817e-05,-3.7023e+07,-1027.1,0,1.8931e+07,-17.906,11507,12724,1,12724,1,0.00011657,-4.6681e-10,0,0.00015034,1.7084e-05,4.2824e+07,-151.07,0,5.8785e+07,126.91,12723,702.88,0,702.88,0,0.00011548,1.5359e-09,0,5.8456e-05,2.1642e-05,4.4393e+07,498.87,0,2.2151e+07,477.48,702.88,1
2344,0.74,12116,1,12116,1,1.2341e-05,-1.1433e-09,0,0.00010169,-2.2837e-06,2.7431e+06,-373.01,0,3.9088e+07,36.496,12115,13336,1,13336,1,0.0002084,3.2367e-09,0,0.0002084,3.4231e-05,7.5854e+07,1037.1,0,7.5854e+07,1522.8,13335,12118,1,12118,1,1.295e-05,-1.1234e-09,0,0.00010315,-2.3895e-06,4.9037e+06,-363.55,0,3.8015e+07,1.2289,12117,10867,1,10867,1,-0.00018249,-5.9121e-09,0,2.082e-06,-3.9032e-05,-7.4227e+07,-1986.4,0,8.7751e+05,-1048.6,10866,11508,1,11508,1,-9.2279e-05,-1.7349e-09,0,4.7185e-05,-2.2116e-05,-3.7533e+07,-560.63,0,1.919e+07,-104.45,11507,12724,1,12724,1,0.00011818,-3.9024e-10,0,0.00015241,1.7319e-05,4.3413e+07,-128.28,0,5.9594e+07,156.42,12723,702.88,0,702.88,0,0.00011707,1.036e-09,0,5.9259e-05,2.1939e-05,4.5003e+07,339.78,0,2.2456e+07,323.41,702.88,1
2344,0.75,12116,1,12116,1,1.2507e-05,-1.9845e-09,0,0.00010306,-2.3141e-06,2.78e+06,-648.12,0,3.9614e+07,172.72,12115,13336,1,13336,1,0.00021122,2.4434e-09,0,0.00021122,3.4696e-05,7.6882e+07,783.42,0,7.6882e+07,1903.1,13335,12118,1,12118,1,1.3124e-05,-1.8886e-09,0,0.00010454,-2.421e-06,4.9696e+06,-620.68,0,3.8526e+07,68.229,12117,10867,1,10867,1,-0.00018497,-6.1519e-09,0,2.1106e-06,-3.9561e-05,-7.5235e+07,-1972.6,0,8.8964e+05,-335.78,10866,11508,1,11508,1,-9.3519e-05,-3.547e-09,0,4.7822e-05,-2.2414e-05,-3.8037e+07,-1164.7,0,1.9449e+07,-7.5512,11507,12724,1,12724,1,0.00011977,-3.6406e-10,0,0.00015446,1.7552e-05,4.3997e+07,-121.52,0,6.0394e+07,186.32,12723,702.88,0,702.88,0,0.00011865,1.8794e-09,0,6.0058e-05,2.2235e-05,4.5609e+07,610.97,0,2.2758e+07,361.28,702.88,1
2344,0.76,12116,1,12116,1,1.2675e-05,-1.2723e-09,0,0.00010444,-2.3451e-06,2.8172e+06,-415.96,0,4.0145e+07,145.59,12115,13336,1,13336,1,0.00021403,1.2503e-09,0,0.00021403,3.5157e-05,7.7905e+07,419.22,0,7.7905e+07,1883.5,13335,12118,1,12118,1,1.33e-05,-1.2882e-09,0,0.00010594,-2.4532e-06,5.0362e+06,-423.72,0,3.9043e+07,27.428,12117,10867,1,10867,1,-0.00018743,-4.9986e-09,0,2.1391e-06,-4.0086e-05,-7.6235e+07,-1679.5,0,9.0164e+05,-270.42,10866,11508,1,11508,1,-9.4775e-05,-1.9237e-09,0,4.8461e-05,-2.2715e-05,-3.8548e+07,-632.45,0,1.9709e+07,-9.5799,11507,12724,1,12724,1,0.00012137,-5.798e-10,0,0.00015653,1.7788e-05,4.4587e+07,-184.91,0,6.1205e+07,132.58,12723,702.88,0,702.88,0,0.00012024,9.0591e-10,0,6.0862e-05,2.2533e-05,4.622e+07,296.81,0,2.3063e+07,349.14,702.88,1
2344,0.77,12116,1,12116,1,1.2841e-05,-1.2072e-09,0,0.00010581,-2.3761e-06,2.8542e+06,-394.49,0,4.0672e+07,89.004,12115,13336,1,13336,1,0.00021684,2.2897e-09,0,0.00021684,3.5618e-05,7.8928e+07,769.59,0,7.8928e+07,1843.8,13335,12118,1,12118,1,1.3475e-05,-1.1436e-09,0,0.00010733,-2.4861e-06,5.1022e+06,-372.55,0,3.9555e+07,7.2049,12117,10867,1,10867,1,-0.00018989,-4.5269e-09,0,2.167e-06,-4.0613e-05,-7.7236e+07,-1521.7,0,9.1351e+05,-544.76,10866,11508,1,11508,1,-9.6018e-05,-2.0665e-09,0,4.9097e-05,-2.3012e-05,-3.9053e+07,-669.37,0,1.9968e+07,-59.224,11507,12724,1,12724,1,0.00012296,-3.7368e-10,0,0.00015858,1.8022e-05,4.5172e+07,-124.89,0,6.2008e+07,151.99,12723,702.88,0,702.88,0,0.00012181,1.0516e-09,0,6.166e-05,2.2828e-05,4.6826e+07,344,0,2.3365e+07,295.33,702.88,1
2344,0.78,12116,1,12116,1,1.3008e-05,1.2678e-09,0,0.00010719,-2.4068e-06,2.8912e+06,414.32,0,4.1198e+07,112.14,12115,13336,1,13336,1,0.00021966,4.8041e-09,0,0.00021966,3.6081e-05,7.9952e+07,1540.8,0,7.9952e+07,1538.2,13335,12118,1,12118,1,1.365e-05,1.3659e-09,0,0.00010872,-2.5183e-06,5.1684e+06,448.13,0,4.0067e+07,19.883,12117,10867,1,10867,1,-0.00019236,-2.3821e-09,0,2.195e-06,-4.114e-05,-7.8239e+07,-763.73,0,9.2515e+05,-267.23,10866,11508,1,11508,1,-9.7261e-05,1.668e-10,0,4.9733e-05,-2.331e-05,-3.9559e+07,52.554,0,2.0226e+07,-11.76,11507,12724,1,12724,1,0.00012456,2.3153e-09,0,0.00016064,1.8254e-05,4.5757e+07,757.03,0,6.2811e+07,74.02,12723,702.88,0,702.88,0,0.00012339,1.3074e-09,0,6.2459e-05,2.3124e-05,4.7432e+07,425.89,0,2.3668e+07,281.26,702.88,1
2344,0.79,12116,1,12116,1,1.3175e-05,-1.5195e-10,0,0.00010856,-2.4378e-06,2.9283e+06,-49.69,0,4.1727e+07,73.589,12115,13336,1,13336,1,0.00022246,1.2986e-09,0,0.00022246,3.654e-05,8.0971e+07,435.96,0,8.0971e+07,938.87,13335,12118,1,12118,1,1.3825e-05,4.7579e-11,0,0.00011012,-2.5503e-06,5.2348e+06,15.171,0,4.0582e+07,33.564,12117,10867,1,10867,1,-0.00019481,-2.6775e-09,0,2.2233e-06,-4.1665e-05,-7.9236e+07,-858.61,0,9.3718e+05,-290.55,10866,11508,1,11508,1,-9.8514e-05,-2.7517e-10,0,5.0369e-05,-2.3612e-05,-4.0068e+07,-89.942,0,2.0485e+07,11.318,11507,12724,1,12724,1,0.00012616,1.8665e-10,0,0.00016271,1.849e-05,4.6347e+07,60.901,0,6.3621e+07,95.573,12723,702.88,0,702.88,0,0.00012498,5.8244e-10,0,6.3261e-05,2.3421e-05,4.8042e+07,190.9,0,2.3972e+07,115.22,702.88,1
2344,0.8,12116,1,12116,1,1.3342e-05,1.4198e-10,0,0.00010994,-2.4686e-06,2.9655e+06,46.288,0,4.2258e+07,158.27,12115,13336,1,13336,1,0.00022529,3.6362e-09,0,0.00022529,3.7005e-05,8.2001e+07,1166,0,8.2001e+07,1421.8,13335,12118,1,12118,1,1.4001e-05,2.1837e-10,0,0.00011152,-2.5826e-06,5.3013e+06,70.738,0,4.1098e+07,64.376,12117,10867,1,10867,1,-0.00019728,-2.6997e-09,0,2.2512e-06,-4.2194e-05,-8.0243e+07,-865.7,0,9.4896e+05,-310.34,10866,11508,1,11508,1,-9.9766e-05,-5.4504e-11,0,5.1009e-05,-2.391e-05,-4.0578e+07,-18.11,0,2.0746e+07,11.338,11507,12724,1,12724,1,0.00012777,4.1062e-10,0,0.00016477,1.8724e-05,4.6936e+07,135.5,0,6.4429e+07,168.18,12723,702.88,0,702.88,0,0.00012656,5.9777e-10,0,6.4065e-05,2.3718e-05,4.8652e+07,194.43,0,2.4277e+07,276.51,702.88,1
2344,0.81,12116,1,12116,1,1.3507e-05,9.2376e-10,0,0.0001113,-2.4994e-06,3.0023e+06,301.65,0,4.2782e+07,57.639,12115,13336,1,13336,1,0.00022809,4.6032e-09,0,0.00022809,3.7466e-05,8.302e+07,1546.9,0,8.302e+07,1391.2,13335,12118,1,12118,1,1.4174e-05,6.2462e-10,0,0.0001129,-2.6147e-06,5.3671e+06,202.38,0,4.1608e+07,11.983,12117,10867,1,10867,1,-0.00019974,-2.2177e-09,0,2.2791e-06,-4.2719e-05,-8.1241e+07,-745.41,0,9.6081e+05,-425.1,10866,11508,1,11508,1,-0.000101,1.6006e-10,0,5.1644e-05,-2.4207e-05,-4.108e+07,52.258,0,2.1004e+07,-31.063,11507,12724,1,12724,1,0.00012935,1.676e-09,0,0.00016681,1.8956e-05,4.7516e+07,540.89,0,6.5226e+07,77.456,12723,702.88,0,702.88,0,0.00012813,1.0681e-09,0,6.486e-05,2.4013e-05,4.9256e+07,349.09,0,2.4578e+07,186.32,702.88,1
2344,0.82,12116,1,12116,1,1.3675e-05,-4.8252e-11,0,0.00011268,-2.5303e-06,3.0395e+06,-15.656,0,4.3311e+07,94.834,12115,13336,1,13336,1,0.0002309,1.2541e-09,0,0.0002309,3.7927e-05,8.4044e+07,421.67,0,8.4044e+07,1301.6,13335,12118,1,12118,1,1.435e-05,9.1449e-11,0,0.0001143,-2.6471e-06,5.4335e+06,28.941,0,4.2122e+07,22.073,12117,10867,1,10867,1,-0.0002022,-2.6884e-09,0,2.3077e-06,-4.3246e-05,-8.2243e+07,-862,0,9.7274e+05,-261.21,10866,11508,1,11508,1,-0.00010225,-1.922e-10,0,5.2281e-05,-2.4507e-05,-4.1589e+07,-64.178,0,2.1263e+07,3.4046,11507,12724,1,12724,1,0.00013095,2.6021e-10,0,0.00016888,1.9191e-05,4.8106e+07,84.277,0,6.6035e+07,87.93,12723,702.88,0,702.88,0,0.00012972,5.6664e-10,0,6.5662e-05,2.431e-05,4.9865e+07,184.63,0,2.4882e+07,201.84,702.88,1
2344,0.83,12116,1,12116,1,1.3842e-05,-3.6111e-10,0,0.00011406,-2.5608e-06,3.0767e+06,-117.15,0,4.3841e+07,287.11,12115,13336,1,13336,1,0.00023373,3.126e-09,0,0.00023373,3.8392e-05,8.5074e+07,1050,0,8.5074e+07,3751,13335,12118,1,12118,1,1.4525e-05,-3.2344e-10,0,0.00011569,-2.6791e-06,5.5e+06,-107.18,0,4.2638e+07,51.518,12117,10867,1,10867,1,-0.00020468,-3.8848e-09,0,2.3358e-06,-4.3776e-05,-8.325e+07,-1305.5,0,9.8452e+05,-241.3,10866,11508,1,11508,1,-0.0001035,-6.6671e-10,0,5.2921e-05,-2.4805e-05,-4.2098e+07,-214.82,0,2.1523e+07,-2.4962,11507,12724,1,12724,1,0.00013255,-2.137e-11,0,0.00017095,1.9426e-05,4.8694e+07,-6.9031,0,6.6843e+07,225.72,12723,702.88,0,702.88,0,0.00013131,6.1842e-10,0,6.6466e-05,2.4607e-05,5.0475e+07,204.29,0,2.5186e+07,630.12,702.88,1
2344,0.84,12116,1,12116,1,1.4006e-05,-2.311e-11,0,0.00011541,-2.5917e-06,3.1131e+06,-7.7216,0,4.4361e+07,84.617,12115,13336,1,13336,1,0.00023651,7.7896e-09,0,0.00023651,3.8849e-05,8.6087e+07,2497.9,0,8.6087e+07,1191.9,13335,12118,1,12118,1,1.4697e-05,-1.7852e-10,0,0.00011706,-2.7107e-06,5.5652e+06,-56.377,0,4.3143e+07,26.181,12117,10867,1,10867,1,-0.00020712,-6.2498e-09,0,2.3635e-06,-4.4297e-05,-8.4242e+07,-2004.4,0,9.9613e+05,-199.37,10866,11508,1,11508,1,-0.00010473,-1.9902e-09,0,5.3549e-05,-2.5101e-05,-4.2596e+07,-656.14,0,2.1779e+07,-17.927,11507,12724,1,12724,1,0.00013412,1.5634e-09,0,0.00017297,1.9656e-05,4.9271e+07,504.67,0,6.7634e+07,111.21,12723,702.88,0,702.88,0,0.00013286,2.7097e-09,0,6.7254e-05,2.4899e-05,5.1074e+07,883.16,0,2.5485e+07,197.27,702.88,1
2344,0.85,12116,1,12116,1,1.4175e-05,-1.1747e-09,0,0.0001168,-2.6228e-06,3.1506e+06,-383.76,0,4.4895e+07,102.37,12115,13336,1,13336,1,0.00023936,2.774e-09,0,0.00023936,3.9317e-05,8.7125e+07,889.51,0,8.7125e+07,1717.8,13335,12118,1,12118,1,1.4874e-05,-1.1049e-09,0,0.00011847,-2.7442e-06,5.6321e+06,-360.13,0,4.3662e+07,23.524,12117,10867,1,10867,1,-0.00020961,-4.4775e-09,0,2.392e-06,-4.4831e-05,-8.5258e+07,-1435.9,0,1.0083e+06,-306.61,10866,11508,1,11508,1,-0.00010599,-2.3679e-09,0,5.4195e-05,-2.5403e-05,-4.3109e+07,-784.86,0,2.2041e+07,-24.817,11507,12724,1,12724,1,0.00013574,2.6973e-11,0,0.00017505,1.9893e-05,4.9864e+07,8.268,0,6.8448e+07,79.775,12723,702.88,0,702.88,0,0.00013446,1.5009e-09,0,6.8063e-05,2.5199e-05,5.1688e+07,488.03,0,2.5792e+07,300.58,702.88,1
2344,0.86,12116,1,12116,1,1.4342e-05,-7.2443e-10,0,0.00011818,-2.6536e-06,3.1878e+06,-236.26,0,4.5426e+07,182.62,12115,13336,1,13336,1,0.00024218,2.345e-09,0,0.00024218,3.978e-05,8.815e+07,789.51,0,8.815e+07,2735,13335,12118,1,12118,1,1.505e-05,-6.066e-10,0,0.00011988,-2.7763e-06,5.6987e+06,-200.84,0,4.4179e+07,27.888,12117,10867,1,10867,1,-0.00021208,-5.4728e-09,0,2.4207e-06,-4.5358e-05,-8.6261e+07,-1838.7,0,1.0204e+06,-219.99,10866,11508,1,11508,1,-0.00010725,-1.0598e-09,0,5.4835e-05,-2.5703e-05,-4.362e+07,-341.32,0,2.2302e+07,-0.48356,11507,12724,1,12724,1,0.00013734,-2.5141e-10,0,0.00017713,2.0128e-05,5.0455e+07,-81.826,0,6.9259e+07,109.76,12723,702.88,0,702.88,0,0.00013605,7.6519e-10,0,6.8869e-05,2.5497e-05,5.23e+07,251.89,0,2.6097e+07,434.64,702.88,1
2344,0.87,12116,1,12116,1,1.4508e-05,-1.2056e-09,0,0.00011955,-2.6846e-06,3.2247e+06,-393.32,0,4.5952e+07,88.005,12115,13336,1,13336,1,0.000245,2.4076e-09,0,0.000245,4.0243e-05,8.9176e+07,771.94,0,8.9176e+07,1654.5,13335,12118,1,12118,1,1.5224e-05,-1.2394e-09,0,0.00012126,-2.809e-06,5.7646e+06,-403.35,0,4.469e+07,4.7322,12117,10867,1,10867,1,-0.00021455,-3.8154e-09,0,2.4483e-06,-4.5887e-05,-8.7265e+07,-1213.3,0,1.0321e+06,-231.87,10866,11508,1,11508,1,-0.00010848,-2.3675e-09,0,5.547e-05,-2.6001e-05,-4.4123e+07,-776.71,0,2.256e+07,-41.54,11507,12724,1,12724,1,0.00013893,-1.4316e-12,0,0.00017917,2.0361e-05,5.1037e+07,-0.44975,0,7.0058e+07,48.689,12723,702.88,0,702.88,0,0.00013763,1.3595e-09,0,6.9665e-05,2.5792e-05,5.2905e+07,441.86,0,2.6399e+07,296.72,702.88,1
2344,0.88,12116,1,12116,1,1.4676e-05,6.1819e-11,0,0.00012094,-2.7155e-06,3.2621e+06,20.198,0,4.6484e+07,143.44,12115,13336,1,13336,1,0.00024782,3.28e-09,0,0.00024782,4.0706e-05,9.0202e+07,1102.3,0,9.0202e+07,2047.1,13335,12118,1,12118,1,1.5401e-05,3.2481e-11,0,0.00012267,-2.8413e-06,5.8316e+06,10.834,0,4.5208e+07,40.947,12117,10867,1,10867,1,-0.00021702,-4.2964e-09,0,2.4766e-06,-4.6415e-05,-8.8268e+07,-1443.9,0,1.0439e+06,-339.18,10866,11508,1,11508,1,-0.00010974,-2.0831e-10,0,5.6111e-05,-2.6302e-05,-4.4636e+07,-67.088,0,2.2821e+07,1.6952,11507,12724,1,12724,1,0.00014055,3.9087e-10,0,0.00018125,2.0597e-05,5.163e+07,127.2,0,7.0873e+07,138.88,12723,702.88,0,702.88,0,0.00013922,6.0506e-10,0,7.0472e-05,2.6091e-05,5.3518e+07,200.21,0,2.6705e+07,300.35,702.88,1
2344,0.89,12116,1,12116,1,1.4843e-05,-2.8229e-10,0,0.00012231,-2.7461e-06,3.2991e+06,-92.216,0,4.7013e+07,244.98,12115,13336,1,13336,1,0.00025063,2.7835e-09,0,0.00025063,4.1169e-05,9.1227e+07,936.28,0,9.1227e+07,2437.1,13335,12118,1,12118,1,1.5576e-05,-1.9141e-10,0,0.00012406,-2.8729e-06,5.8979e+06,-62.523,0,4.5722e+07,81.489,12117,10867,1,10867,1,-0.00021948,-4.1602e-09,0,2.5051e-06,-4.6942e-05,-8.9272e+07,-1397.7,0,1.0559e+06,-340.99,10866,11508,1,11508,1,-0.00011099,-5.0805e-10,0,5.675e-05,-2.6601e-05,-4.5144e+07,-163.21,0,2.308e+07,27.054,11507,12724,1,12724,1,0.00014214,1.7819e-11,0,0.00018332,2.0831e-05,5.2217e+07,6.1031,0,7.1679e+07,194.87,12723,702.88,0,702.88,0,0.00014081,5.5156e-10,0,7.1274e-05,2.6387e-05,5.4127e+07,183.4,0,2.7008e+07,477.12,702.88,1
2344,0.9,12116,1,12116,1,1.5008e-05,-2.5832e-10,0,0.00012367,-2.7772e-06,3.3359e+06,-84.279,0,4.7535e+07,46.924,12115,13336,1,13336,1,0.00025343,3.9716e-09,0,0.00025343,4.1628e-05,9.2244e+07,1273.8,0,9.2244e+07,1186.2,13335,12118,1,12118,1,1.5749e-05,-1.9922e-10,0,0.00012544,-2.9054e-06,5.9634e+06,-62.659,0,4.623e+07,12.407,12117,10867,1,10867,1,-0.00022193,-4.8634e-09,0,2.5326e-06,-4.7465e-05,-9.0267e+07,-1559.7,0,1.0676e+06,-127.46,10866,11508,1,11508,1,-0.00011222,-1.4311e-09,0,5.738e-05,-2.6898e-05,-4.5645e+07,-473.88,0,2.3337e+07,-26.22,11507,12724,1,12724,1,0.00014372,7.5102e-10,0,0.00018535,2.1063e-05,5.2797e+07,249.4,0,7.2474e+07,60.171,12723,702.88,0,702.88,0,0.00014237,1.7129e-09,0,7.2066e-05,2.6681e-05,5.4728e+07,558.8,0,2.7308e+07,146.16,702.88,1
2344,0.91,12116,1,12116,1,1.5176e-05,-2.8162e-10,0,0.00012505,-2.8084e-06,3.3732e+06,-92.023,0,4.8066e+07,-12.099,12115,13336,1,13336,1,0.00025625,8.3019e-10,0,0.00025625,4.2091e-05,9.3272e+07,283.74,0,9.3272e+07,82.073,13335,12118,1,12118,1,1.5925e-05,-2.6788e-10,0,0.00012684,-2.9384e-06,6.0301e+06,-88.032,0,4.6746e+07,-4.2572,12117,10867,1,10867,1,-0.0002244,-1.7399e-09,0,2.5609e-06,-4.7994e-05,-9.1273e+07,-584.72,0,1.0796e+06,-358.6,10866,11508,1,11508,1,-0.00011348,-4.7501e-10,0,5.8021e-05,-2.7198e-05,-4.6155e+07,-154.35,0,2.3597e+07,-19.02,11507,12724,1,12724,1,0.00014533,-2.3907e-11,0,0.00018742,2.1298e-05,5.3387e+07,-7.4306,0,7.3285e+07,6.027,12723,702.88,0,702.88,0,0.00014396,3.805e-10,0,7.2871e-05,2.6979e-05,5.5339e+07,124.82,0,2.7614e+07,41.121,702.88,1
2344,0.92,12116,1,12116,1,1.5342e-05,-6.7843e-10,0,0.00012642,-2.8384e-06,3.4102e+06,-221.89,0,4.8593e+07,291.23,12115,13336,1,13336,1,0.00025907,3.6441e-09,0,0.00025907,4.2554e-05,9.4296e+07,1169.5,0,9.4296e+07,2440.8,13335,12118,1,12118,1,1.61e-05,-6.7416e-10,0,0.00012823,-2.9688e-06,6.0963e+06,-217.58,0,4.7259e+07,78.035,12117,10867,1,10867,1,-0.00022687,-4.38e-09,0,2.5882e-06,-4.8521e-05,-9.2275e+07,-1473.8,0,1.0909e+06,-567.5,10866,11508,1,11508,1,-0.00011472,-1.1429e-09,0,5.8658e-05,-2.7494e-05,-4.666e+07,-369.12,0,2.3856e+07,-39.461,11507,12724,1,12724,1,0.00014692,-1.9138e-10,0,0.00018947,2.1532e-05,5.3971e+07,-62.967,0,7.4087e+07,455.46,12723,702.88,0,702.88,0,0.00014554,7.5058e-10,0,7.367e-05,2.7274e-05,5.5946e+07,247.25,0,2.7916e+07,546.12,702.88,1
2344,0.93,12116,1,12116,1,1.5509e-05,-5.3463e-10,0,0.00012779,-2.8697e-06,3.4471e+06,-174.36,0,4.912e+07,76.53,12115,13336,1,13336,1,0.00026189,4.0485e-09,0,0.00026189,4.3017e-05,9.5322e+07,1298.2,0,9.5322e+07,1647.7,13335,12118,1,12118,1,1.6274e-05,-5.4549e-10,0,0.00012962,-3.0024e-06,6.1622e+06,-179.37,0,4.777e+07,14.13,12117,10867,1,10867,1,-0.00022934,-4.031e-09,0,2.6168e-06,-4.905e-05,-9.3279e+07,-1283.6,0,1.1032e+06,-394.23,10866,11508,1,11508,1,-0.00011596,-1.922e-09,0,5.9294e-05,-2.7794e-05,-4.7166e+07,-627.31,0,2.4115e+07,-44.835,11507,12724,1,12724,1,0.00014851,5.538e-10,0,0.00019153,2.1765e-05,5.4556e+07,175.83,0,7.4889e+07,99.755,12723,702.88,0,702.88,0,0.00014712,1.7616e-09,0,7.4468e-05,2.757e-05,5.6552e+07,573.8,0,2.8219e+07,280.71,702.88,1
2344,0.94,12116,1,12116,1,1.5675e-05,-1.1855e-10,0,0.00012917,-2.9007e-06,3.4841e+06,-38.869,0,4.9648e+07,36.051,12115,13336,1,13336,1,0.00026469,3.3442e-09,0,0.00026469,4.3478e-05,9.6344e+07,1090.8,0,9.6344e+07,786.35,13335,12118,1,12118,1,1.6449e-05,-1.7956e-10,0,0.00013102,-3.0346e-06,6.2284e+06,-58.287,0,4.8284e+07,16.627,12117,10867,1,10867,1,-0.00023179,-2.8293e-09,0,2.6453e-06,-4.9575e-05,-9.4279e+07,-907.38,0,1.115e+06,-162.11,10866,11508,1,11508,1,-0.00011721,-1.1769e-09,0,5.993e-05,-2.8093e-05,-4.7674e+07,-382.84,0,2.4374e+07,-19.267,11507,12724,1,12724,1,0.00015011,6.2919e-10,0,0.00019359,2.1999e-05,5.5144e+07,205.34,0,7.5696e+07,58.739,12723,702.88,0,702.88,0,0.0001487,1.4066e-09,0,7.5269e-05,2.7867e-05,5.7161e+07,459.62,0,2.8522e+07,94.956,702.88,1
2344,0.95,12116,1,12116,1,1.5842e-05,-9.9651e-10,0,0.00013054,-2.9316e-06,3.5211e+06,-325.66,0,5.0173e+07,-31.662,12115,13336,1,13336,1,0.00026751,5.0021e-09,0,0.00026751,4.394e-05,9.7369e+07,1603.7,0,9.7369e+07,508.9,13335,12118,1,12118,1,1.6623e-05,-9.5023e-10,0,0.0001324,-3.0671e-06,6.2944e+06,-308.19,0,4.8795e+07,-9.8804,12117,10867,1,10867,1,-0.00023426,-5.1689e-09,0,2.6729e-06,-5.0102e-05,-9.5282e+07,-1657.7,0,1.1267e+06,-1307.8,10866,11508,1,11508,1,-0.00011845,-2.8477e-09,0,6.0566e-05,-2.839e-05,-4.8177e+07,-931.74,0,2.4632e+07,-75.626,11507,12724,1,12724,1,0.0001517,5.0652e-10,0,0.00019564,2.2231e-05,5.5727e+07,162.79,0,7.6496e+07,42.447,12723,702.88,0,702.88,0,0.00015027,2.2758e-09,0,7.6066e-05,2.8162e-05,5.7766e+07,742.92,0,2.8824e+07,159.59,702.88,1
2344,0.96,12116,1,12116,1,1.6009e-05,-7.4664e-10,0,0.00013192,-2.9626e-06,3.5584e+06,-243.87,0,5.0706e+07,6.6733,12115,13336,1,13336,1,0.00027034,3.1701e-09,0,0.00027034,4.4406e-05,9.8401e+07,1021.5,0,9.8401e+07,867.72,13335,12118,1,12118,1,1.68e-05,-7.0252e-10,0,0.00013381,-3.0995e-06,6.3612e+06,-232.22,0,4.9313e+07,-1.0526,12117,10867,1,10867,1,-0.00023674,-4.0376e-09,0,2.7015e-06,-5.0633e-05,-9.6292e+07,-1294.8,0,1.1388e+06,-257.63,10866,11508,1,11508,1,-0.00011971,-2.0641e-09,0,6.1209e-05,-2.8692e-05,-4.8689e+07,-670.67,0,2.4894e+07,-46.196,11507,12724,1,12724,1,0.00015331,3.2504e-10,0,0.00019771,2.2467e-05,5.6318e+07,104.73,0,7.7308e+07,54.37,12723,702.88,0,702.88,0,0.00015187,1.6106e-09,0,7.6873e-05,2.8461e-05,5.8379e+07,525,0,2.913e+07,91.335,702.88,1
2344,0.97,12116,1,12116,1,1.6177e-05,1.0189e-09,0,0.0001333,-2.9935e-06,3.5955e+06,332.87,0,5.1236e+07,-5.8839,12115,13336,1,13336,1,0.00027316,2.8932e-09,0,0.00027316,4.4869e-05,9.9427e+07,927.92,0,9.9427e+07,187.53,13335,12118,1,12118,1,1.6975e-05,1.094e-09,0,0.00013521,-3.132e-06,6.4276e+06,354.7,0,4.9829e+07,1.9714,12117,10867,1,10867,1,-0.00023921,-8.5264e-10,0,2.7298e-06,-5.1161e-05,-9.7295e+07,-291.93,0,1.1508e+06,-251.38,10866,11508,1,11508,1,-0.00012096,2.6967e-10,0,6.1848e-05,-2.8991e-05,-4.9198e+07,86.034,0,2.5154e+07,-19.91,11507,12724,1,12724,1,0.00015491,1.7222e-09,0,0.00019978,2.2702e-05,5.6907e+07,566.54,0,7.8116e+07,17.154,12723,702.88,0,702.88,0,0.00015345,8.4459e-10,0,7.7676e-05,2.8758e-05,5.8989e+07,275.62,0,2.9434e+07,44.751,702.88,1
2344,0.98,12116,1,12116,1,1.6343e-05,-1.1917e-09,0,0.00013467,-3.0243e-06,3.6325e+06,-389.31,0,5.1762e+07,0.93953,12115,13336,1,13336,1,0.00027597,2.4161e-09,0,0.00027597,4.5329e-05,1.0045e+08,812.27,0,1.0045e+08,439.58,13335,12118,1,12118,1,1.715e-05,-1.2008e-09,0,0.0001366,-3.1642e-06,6.4937e+06,-394.29,0,5.0341e+07,-0.19904,12117,10867,1,10867,1,-0.00024167,-4.9573e-09,0,2.7578e-06,-5.1686e-05,-9.8294e+07,-1665.9,0,1.1625e+06,-399.34,10866,11508,1,11508,1,-0.0001222,-1.7693e-09,0,6.2484e-05,-2.9289e-05,-4.9703e+07,-575.12,0,2.5412e+07,-24.676,11507,12724,1,12724,1,0.0001565,-5.5445e-10,0,0.00020183,2.2936e-05,5.7491e+07,-185.87,0,7.8918e+07,26.21,12723,702.88,0,702.88,0,0.00015503,9.0743e-10,0,7.8474e-05,2.9053e-05,5.9595e+07,296.77,0,2.9737e+07,56.089,702.88,1
2344,0.99,12116,1,12116,1,1.651e-05,-6.0903e-10,0,0.00013605,-3.0549e-06,3.6696e+06,-198.85,0,5.2291e+07,118.34,12115,13336,1,13336,1,0.00027879,2.7373e-09,0,0.00027879,4.5794e-05,1.0148e+08,877.83,0,1.0148e+08,1599,13335,12118,1,12118,1,1.7325e-05,-5.4321e-10,0,0.00013799,-3.1963e-06,6.5601e+06,-178.17,0,5.0855e+07,30.278,12117,10867,1,10867,1,-0.00024414,-3.1664e-09,0,2.786e-06,-5.2215e-05,-9.93e+07,-1015.8,0,1.1744e+06,-180.78,10866,11508,1,11508,1,-0.00012345,-1.5658e-09,0,6.3122e-05,-2.9589e-05,-5.0212e+07,-517.57,0,2.5672e+07,-10.643,11507,12724,1,12724,1,0.0001581,2.1558e-10,0,0.0002039,2.317e-05,5.808e+07,69.306,0,7.9726e+07,78.929,12723,702.88,0,702.88,0,0.00015662,1.2493e-09,0,7.9277e-05,2.9351e-05,6.0204e+07,406.31,0,3.0041e+07,275.08,702.88,1
2344,1,12116,1,12116,1,1.6675e-05,-1.3026e-09,0,0.00013741,-3.0852e-06,3.7063e+06,-425.22,0,5.2814e+07,196.11,12115,13336,1,13336,1,0.0002816,7.1226e-09,0,0.0002816,4.6255e-05,1.025e+08,2284.3,0,1.025e+08,1659.2,13335,12118,1,12118,1,1.7498e-05,-1.2204e-09,0,0.00013937,-3.2273e-06,6.6256e+06,-390.35,0,5.1363e+07,97.502,12117,10867,1,10867,1,-0.0002466,-7.7807e-09,0,2.8138e-06,-5.2741e-05,-1.003e+08,-2495,0,1.186e+06,-603.05,10866,11508,1,11508,1,-0.00012468,-3.9839e-09,0,6.3755e-05,-2.9884e-05,-5.0713e+07,-1308.7,0,2.593e+07,-3.3328,11507,12724,1,12724,1,0.00015968,8.3145e-10,0,0.00020593,2.3402e-05,5.8659e+07,265.35,0,8.0521e+07,255.75,12723,702.88,0,702.88,0,0.00015818,3.3476e-09,0,8.007e-05,2.9644e-05,6.0806e+07,1090.7,0,3.0341e+07,345.6,702.88,1
2344,1.01,12116,1,12116,1,1.6844e-05,2.7996e-10,0,0.00013879,-3.1168e-06,3.7438e+06,91.821,0,5.3348e+07,69.055,12115,13336,1,13336,1,0.00028441,3.1479e-09,0,0.00028441,4.6717e-05,1.0352e+08,1009.7,0,1.0352e+08,1362.7,13335,12118,1,12118,1,1.7675e-05,1.5e-10,0,0.00014078,-3.2609e-06,6.6927e+06,48.098,0,5.1883e+07,26.892,12117,10867,1,10867,1,-0.00024906,-1.8749e-09,0,2.842e-06,-5.3268e-05,-1.013e+08,-596.26,0,1.1979e+06,-79.156,10866,11508,1,11508,1,-0.00012595,-3.4268e-10,0,6.4396e-05,-3.0187e-05,-5.1227e+07,-113.27,0,2.619e+07,0.34582,11507,12724,1,12724,1,0.0001613,8.2574e-10,0,0.00020802,2.3638e-05,5.9254e+07,268.83,0,8.1338e+07,73.868,12723,702.88,0,702.88,0,0.00015978,1.0029e-09,0,8.0878e-05,2.9943e-05,6.142e+07,327.04,0,3.0648e+07,141.67,702.88,1
2344,1.02,12116,1,12116,1,1.7009e-05,-1.0533e-09,0,0.00014016,-3.147e-06,3.7807e+06,-343.96,0,5.3872e+07,237.39,12115,13336,1,13336,1,0.00028723,4.5797e-09,0,0.00028723,4.7179e-05,1.0455e+08,1468.2,0,1.0455e+08,2127.6,13335,12118,1,12118,1,1.7849e-05,-8.9907e-10,0,0.00014216,-3.2921e-06,6.7585e+06,-298.79,0,5.2392e+07,155.16,12117,10867,1,10867,1,-0.00025153,-5.526e-09,0,2.8699e-06,-5.3795e-05,-1.0231e+08,-1772,0,1.2097e+06,-807.01,10866,11508,1,11508,1,-0.00012718,-2.7093e-09,0,6.503e-05,-3.0482e-05,-5.1729e+07,-885.85,0,2.6448e+07,46.275,11507,12724,1,12724,1,0.00016288,4.0517e-10,0,0.00021006,2.387e-05,5.9835e+07,130.99,0,8.2135e+07,352.31,12723,702.88,0,702.88,0,0.00016135,2.1363e-09,0,8.1673e-05,3.0238e-05,6.2024e+07,694.95,0,3.0949e+07,319.68,702.88,1
2344,1.03,12116,1,12116,1,1.7177e-05,-2.1218e-09,0,0.00014154,-3.1784e-06,3.8178e+06,-692.86,0,5.4403e+07,70.946,12115,13336,1,13336,1,0.00029007,3.6143e-09,0,0.00029007,4.7647e-05,1.0558e+08,1159.2,0,1.0558e+08,1468.2,13335,12118,1,12118,1,1.8024e-05,-1.8948e-09,0,0.00014356,-3.3252e-06,6.8248e+06,-627.24,0,5.2907e+07,11.577,12117,10867,1,10867,1,-0.00025402,-8.255e-09,0,2.8982e-06,-5.4328e-05,-1.0332e+08,-2647.1,0,1.2217e+06,-379.76,10866,11508,1,11508,1,-0.00012843,-4.4338e-09,0,6.5673e-05,-3.0783e-05,-5.2237e+07,-1443.3,0,2.671e+07,-74.782,11507,12724,1,12724,1,0.00016448,1.2747e-10,0,0.00021212,2.4105e-05,6.0423e+07,41.827,0,8.2942e+07,131.88,12723,702.88,0,702.88,0,0.00016294,2.7623e-09,0,8.2478e-05,3.0536e-05,6.2635e+07,899.55,0,3.1254e+07,266.72,702.88,1
2344,1.04,12116,1,12116,1,1.7343e-05,-1.0414e-09,0,0.00014291,-3.2092e-06,3.8549e+06,-340.28,0,5.493e+07,103.35,12115,13336,1,13336,1,0.00029286,2.6022e-09,0,0.00029286,4.8105e-05,1.066e+08,834.52,0,1.066e+08,1979.8,13335,12118,1,12118,1,1.8199e-05,-7.5723e-10,0,0.00014496,-3.3572e-06,6.8912e+06,-250.26,0,5.3421e+07,45.695,12117,10867,1,10867,1,-0.00025646,-4.6987e-09,0,2.9263e-06,-5.4851e-05,-1.0431e+08,-1505.8,0,1.2333e+06,-400.03,10866,11508,1,11508,1,-0.00012968,-2.1869e-09,0,6.6307e-05,-3.1082e-05,-5.2745e+07,-720.51,0,2.6967e+07,-11.717,11507,12724,1,12724,1,0.00016608,1.4821e-10,0,0.00021419,2.4339e-05,6.1011e+07,47.538,0,8.3749e+07,119.55,12723,702.88,0,702.88,0,0.00016452,1.6267e-09,0,8.3277e-05,3.0832e-05,6.3242e+07,529.38,0,3.1557e+07,231.69,702.88,1
2344,1.05,12116,1,12116,1,1.7512e-05,2.2838e-10,0,0.0001443,-3.2404e-06,3.8923e+06,74.353,0,5.5463e+07,62.924,12115,13336,1,13336,1,0.00029569,2.5369e-09,0,0.00029569,4.8569e-05,1.0763e+08,852.51,0,1.0763e+08,1322.1,13335,12118,1,12118,1,1.8376e-05,2.2575e-10,0,0.00014636,-3.3901e-06,6.9581e+06,73.424,0,5.394e+07,4.8869,12117,10867,1,10867,1,-0.00025893,-3.1957e-09,0,2.955e-06,-5.538e-05,-1.0532e+08,-1073.3,0,1.2455e+06,-161.81,10866,11508,1,11508,1,-0.00013094,6.9382e-11,0,6.6949e-05,-3.1384e-05,-5.3258e+07,22.785,0,2.7229e+07,-5.9443,11507,12724,1,12724,1,0.00016769,4.1531e-10,0,0.00021627,2.4576e-05,6.1603e+07,134.97,0,8.4563e+07,41.784,12723,702.88,0,702.88,0,0.00016611,3.6782e-10,0,8.4085e-05,3.1131e-05,6.3856e+07,122.11,0,3.1863e+07,170.74,702.88,1
2344,1.06,12116,1,12116,1,1.7676e-05,-1.7433e-09,0,0.00014566,-3.2707e-06,3.9289e+06,-569.78,0,5.5985e+07,156.45,12115,13336,1,13336,1,0.0002985,7.0532e-09,0,0.0002985,4.9032e-05,1.0865e+08,2261.9,0,1.0865e+08,1513.9,13335,12118,1,12118,1,1.8549e-05,-1.5081e-09,0,0.00014774,-3.4209e-06,7.0235e+06,-501.72,0,5.4446e+07,80.736,12117,10867,1,10867,1,-0.0002614,-7.9063e-09,0,2.9815e-06,-5.5908e-05,-1.0632e+08,-2535.4,0,1.2567e+06,-1159,10866,11508,1,11508,1,-0.00013217,-4.0968e-09,0,6.7582e-05,-3.1678e-05,-5.3757e+07,-1335.2,0,2.7486e+07,-39.9,11507,12724,1,12724,1,0.00016926,3.2521e-10,0,0.00021829,2.4806e-05,6.2181e+07,104.44,0,8.5355e+07,251.23,12723,702.88,0,702.88,0,0.00016768,2.9036e-09,0,8.4876e-05,3.1424e-05,6.4457e+07,942.94,0,3.2163e+07,338.14,702.88,1
2344,1.07,12116,1,12116,1,1.7845e-05,9.3229e-10,0,0.00014705,-3.3024e-06,3.9664e+06,304.61,0,5.652e+07,-11.044,12115,13336,1,13336,1,0.00030133,3.6214e-09,0,0.00030133,4.9496e-05,1.0968e+08,1161.5,0,1.0968e+08,549.59,13335,12118,1,12118,1,1.8726e-05,8.9985e-10,0,0.00014915,-3.4551e-06,7.0907e+06,292.3,0,5.4968e+07,-1.383,12117,10867,1,10867,1,-0.00026388,-1.2099e-09,0,3.011e-06,-5.6437e-05,-1.0733e+08,-388.22,0,1.2694e+06,-430.42,10866,11508,1,11508,1,-0.00013344,1.591e-10,0,6.8226e-05,-3.1982e-05,-5.4272e+07,50.65,0,2.7748e+07,-57.052,11507,12724,1,12724,1,0.00017089,1.6475e-09,0,0.00022039,2.5044e-05,6.2777e+07,541.68,0,8.6173e+07,27.312,12723,702.88,0,702.88,0,0.00016928,8.6473e-10,0,8.5688e-05,3.1724e-05,6.5073e+07,282.3,0,3.247e+07,85.536,702.88,1
2344,1.08,12116,1,12116,1,1.8012e-05,-6.1364e-10,0,0.00014842,-3.3331e-06,4.0033e+06,-200.52,0,5.7047e+07,-7.8557,12115,13336,1,13336,1,0.00030413,1.198e-10,0,0.00030413,4.9955e-05,1.107e+08,36.724,0,1.107e+08,53.753,13335,12118,1,12118,1,1.8901e-05,-5.6199e-10,0,0.00015054,-3.4873e-06,7.1567e+06,-183.6,0,5.548e+07,-1.9442,12117,10867,1,10867,1,-0.00026633,-2.6757e-09,0,3.0395e-06,-5.6961e-05,-1.0833e+08,-898.92,0,1.2813e+06,-765.08,10866,11508,1,11508,1,-0.00013468,-8.5715e-10,0,6.8861e-05,-3.228e-05,-5.4779e+07,-280.88,0,2.8006e+07,-12.111,11507,12724,1,12724,1,0.00017248,-3.472e-10,0,0.00022244,2.5277e-05,6.3362e+07,-113.6,0,8.6977e+07,7.8423,12723,702.88,0,702.88,0,0.00017086,3.7303e-10,0,8.6486e-05,3.202e-05,6.5679e+07,122.5,0,3.2773e+07,55.544,702.88,1
2344,1.09,12116,1,12116,1,1.8178e-05,-2.0911e-10,0,0.00014979,-3.3634e-06,4.0403e+06,-68.511,0,5.7573e+07,187.92,12115,13336,1,13336,1,0.00030695,3.5299e-09,0,0.00030695,5.0418e-05,1.1172e+08,1130.7,0,1.1172e+08,3355.7,13335,12118,1,12118,1,1.9075e-05,-3.7651e-10,0,0.00015193,-3.5187e-06,7.2228e+06,-123.18,0,5.5992e+07,83.457,12117,10867,1,10867,1,-0.00026879,-2.1987e-09,0,3.0675e-06,-5.7489e-05,-1.0933e+08,-705.08,0,1.2929e+06,-629.77,10866,11508,1,11508,1,-0.00013592,-1.0183e-09,0,6.9498e-05,-3.2577e-05,-5.5284e+07,-338.04,0,2.8265e+07,-2.4969,11507,12724,1,12724,1,0.00017407,3.208e-10,0,0.00022449,2.5511e-05,6.3947e+07,103.3,0,8.778e+07,238.91,12723,702.88,0,702.88,0,0.00017244,1.083e-09,0,8.7285e-05,3.2315e-05,6.6286e+07,353.11,0,3.3076e+07,340.2,702.88,1
2344,1.1,12116,1,12116,1,1.8345e-05,3.6854e-10,0,0.00015116,-3.3945e-06,4.0774e+06,120.39,0,5.8102e+07,119.11,12115,13336,1,13336,1,0.00030976,4.3269e-09,0,0.00030976,5.0881e-05,1.1275e+08,1388.3,0,1.1275e+08,2337.2,13335,12118,1,12118,1,1.925e-05,1.6535e-10,0,0.00015333,-3.5513e-06,7.2891e+06,53.207,0,5.6506e+07,24.306,12117,10867,1,10867,1,-0.00027126,-2.2802e-09,0,3.0955e-06,-5.802e-05,-1.1033e+08,-766.1,0,1.3045e+06,-1650.2,10866,11508,1,11508,1,-0.00013717,-4.618e-10,0,7.0136e-05,-3.2877e-05,-5.5792e+07,-151.5,0,2.8524e+07,-31.696,11507,12724,1,12724,1,0.00017567,1.1037e-09,0,0.00022656,2.5745e-05,6.4535e+07,364.96,0,8.8587e+07,114.16,12723,702.88,0,702.88,0,0.00017402,1.225e-09,0,8.8087e-05,3.2612e-05,6.6894e+07,398.05,0,3.3379e+07,356.56,702.88,1
2344,1.11,12116,1,12116,1,1.8511e-05,-1.433e-09,0,0.00015253,-3.4254e-06,4.1144e+06,-467.04,0,5.8629e+07,45.972,12115,13336,1,13336,1,0.00031259,3.1116e-09,0,0.00031259,5.1345e-05,1.1378e+08,1014,0,1.1378e+08,2166.6,13335,12118,1,12118,1,1.9425e-05,-1.4101e-09,0,0.00015472,-3.584e-06,7.3551e+06,-467,0,5.7018e+07,-1.0605,12117,10867,1,10867,1,-0.00027374,-5.7697e-09,0,3.1234e-06,-5.8546e-05,-1.1134e+08,-1850.3,0,1.3167e+06,-208.91,10866,11508,1,11508,1,-0.00013841,-3.2093e-09,0,7.0773e-05,-3.3174e-05,-5.6296e+07,-1041.2,0,2.8784e+07,-55.63,11507,12724,1,12724,1,0.00017726,1.4681e-10,0,0.0002286,2.5978e-05,6.5118e+07,46.362,0,8.9387e+07,45.667,12723,702.88,0,702.88,0,0.0001756,2.1208e-09,0,8.8885e-05,3.2908e-05,6.7501e+07,690.83,0,3.3682e+07,245.47,702.88,1
2344,1.12,12116,1,12116,1,1.8678e-05,-4.0356e-10,0,0.00015391,-3.4562e-06,4.1515e+06,-131.64,0,5.9158e+07,78.881,12115,13336,1,13336,1,0.00031539,1.2488e-09,0,0.00031539,5.1805e-05,1.148e+08,427.46,0,1.148e+08,2133,13335,12118,1,12118,1,1.96e-05,-3.8557e-10,0,0.00015611,-3.6162e-06,7.4216e+06,-125.58,0,5.7533e+07,13.912,12117,10867,1,10867,1,-0.00027619,-1.8499e-09,0,3.1519e-06,-5.9071e-05,-1.1234e+08,-595.22,0,1.3287e+06,-454.2,10866,11508,1,11508,1,-0.00013967,-9.5192e-10,0,7.141e-05,-3.3474e-05,-5.6806e+07,-309.75,0,2.9043e+07,-19.273,11507,12724,1,12724,1,0.00017887,8.4409e-11,0,0.00023067,2.6213e-05,6.5708e+07,26.278,0,9.0197e+07,43.933,12723,702.88,0,702.88,0,0.00017718,7.0297e-10,0,8.9687e-05,3.3205e-05,6.811e+07,229.2,0,3.3986e+07,272.51,702.88,1
2344,1.13,12116,1,12116,1,1.8842e-05,-1.5374e-09,0,0.00015526,-3.4868e-06,4.1881e+06,-501.86,0,5.9677e+07,20.442,12115,13336,1,13336,1,0.0003182,8.8548e-09,0,0.0003182,5.2266e-05,1.1582e+08,2839.6,0,1.1582e+08,476.36,13335,12118,1,12118,1,1.9772e-05,-1.3801e-09,0,0.00015748,-3.6478e-06,7.4867e+06,-448.15,0,5.8036e+07,1.7487,12117,10867,1,10867,1,-0.00027865,-1.0412e-08,0,3.1786e-06,-5.9596e-05,-1.1334e+08,-3339.1,0,1.34e+06,-615.82,10866,11508,1,11508,1,-0.00014088,-5.2563e-09,0,7.2039e-05,-3.3767e-05,-5.7301e+07,-1729.3,0,2.9298e+07,-100.09,11507,12724,1,12724,1,0.00018043,1.3729e-09,0,0.00023269,2.6442e-05,6.6281e+07,447.19,0,9.0983e+07,137.9,12723,702.88,0,702.88,0,0.00017874,4.5366e-09,0,9.0474e-05,3.3496e-05,6.8707e+07,1480.8,0,3.4284e+07,150.7,702.88,1
2344,1.14,12116,1,12116,1,1.9012e-05,-1.1078e-09,0,0.00015666,-3.5182e-06,4.2257e+06,-361.51,0,6.0216e+07,29.227,12115,13336,1,13336,1,0.00032105,1.8225e-09,0,0.00032105,5.2734e-05,1.1686e+08,584.52,0,1.1686e+08,1077.6,13335,12118,1,12118,1,1.995e-05,-8.3575e-10,0,0.0001589,-3.6809e-06,7.5542e+06,-272.14,0,5.8561e+07,13.768,12117,10867,1,10867,1,-0.00028114,-4.9894e-09,0,3.2081e-06,-6.013e-05,-1.1435e+08,-1600,0,1.3524e+06,-210.3,10866,11508,1,11508,1,-0.00014216,-2.3141e-09,0,7.2688e-05,-3.4073e-05,-5.7821e+07,-759.82,0,2.9563e+07,-33.693,11507,12724,1,12724,1,0.00018206,1.4203e-10,0,0.00023479,2.6681e-05,6.6881e+07,47.168,0,9.1807e+07,57.077,12723,702.88,0,702.88,0,0.00018035,1.6487e-09,0,9.1291e-05,3.3798e-05,6.9328e+07,536.56,0,3.4594e+07,123.94,702.88,1
2344,1.15,12116,1,12116,1,1.9177e-05,-4.9785e-10,0,0.00015802,-3.5487e-06,4.2624e+06,-162.1,0,6.0738e+07,27.917,12115,13336,1,13336,1,0.00032382,4.6184e-09,0,0.00032382,5.319e-05,1.1787e+08,1480.8,0,1.1787e+08,533.67,13335,12118,1,12118,1,2.0124e-05,-4.8839e-10,0,0.00016028,-3.7128e-06,7.6198e+06,-159.54,0,5.9069e+07,15.907,12117,10867,1,10867,1,-0.00028357,-4.0129e-09,0,3.2359e-06,-6.065e-05,-1.1534e+08,-1286.6,0,1.3641e+06,-253.07,10866,11508,1,11508,1,-0.00014339,-1.8831e-09,0,7.3317e-05,-3.4368e-05,-5.8322e+07,-627.94,0,2.9818e+07,-23.352,11507,12724,1,12724,1,0.00018364,5.7343e-10,0,0.00023683,2.6913e-05,6.7462e+07,188.36,0,9.2604e+07,74.874,12723,702.88,0,702.88,0,0.00018191,1.8989e-09,0,9.2082e-05,3.4091e-05,6.9929e+07,619.51,0,3.4893e+07,90.647,702.88,1
2344,1.16,12116,1,12116,1,1.9346e-05,-7.3255e-10,0,0.00015942,-3.5797e-06,4.2999e+06,-238.98,0,6.1274e+07,138.02,12115,13336,1,13336,1,0.00032668,2.4211e-09,0,0.00032668,5.3659e-05,1.1891e+08,776.37,0,1.1891e+08,2907.9,13335,12118,1,12118,1,2.0301e-05,-6.3574e-10,0,0.0001617,-3.7455e-06,7.6869e+06,-206.78,0,5.959e+07,39.495,12117,10867,1,10867,1,-0.00028607,-3.6939e-09,0,3.2644e-06,-6.1183e-05,-1.1636e+08,-1184.5,0,1.3761e+06,-137.5,10866,11508,1,11508,1,-0.00014466,-1.6964e-09,0,7.3965e-05,-3.4671e-05,-5.8837e+07,-560.76,0,3.0082e+07,-12.022,11507,12724,1,12724,1,0.00018526,1.4529e-10,0,0.00023892,2.715e-05,6.8057e+07,48.064,0,9.3421e+07,77.25,12723,702.88,0,702.88,0,0.00018352,1.2744e-09,0,9.2894e-05,3.4392e-05,7.0546e+07,414.97,0,3.5201e+07,383.43,702.88,1
2344,1.17,12116,1,12116,1,1.9512e-05,-8.0236e-10,0,0.00016078,-3.6107e-06,4.3368e+06,-261.64,0,6.1798e+07,-6.8531,12115,13336,1,13336,1,0.00032948,3.0389e-09,0,0.00032948,5.4119e-05,1.1993e+08,974.59,0,1.1993e+08,338.22,13335,12118,1,12118,1,2.0475e-05,-7.0171e-10,0,0.00016308,-3.7778e-06,7.7528e+06,-229.94,0,6.01e+07,-2.5786,12117,10867,1,10867,1,-0.00028853,-4.2316e-09,0,3.2924e-06,-6.1709e-05,-1.1735e+08,-1357,0,1.388e+06,-470.55,10866,11508,1,11508,1,-0.0001459,-2.1105e-09,0,7.4598e-05,-3.4968e-05,-5.934e+07,-692.5,0,3.0339e+07,-40.091,11507,12724,1,12724,1,0.00018685,2.9409e-10,0,0.00024097,2.7383e-05,6.8639e+07,96.975,0,9.4221e+07,30.089,12723,702.88,0,702.88,0,0.00018509,1.7215e-09,0,9.369e-05,3.4687e-05,7.115e+07,561.12,0,3.5503e+07,63.255,702.88,1
2344,1.18,12116,1,12116,1,1.9679e-05,-6.6785e-10,0,0.00016216,-3.6417e-06,4.3739e+06,-218.19,0,6.2327e+07,-16.816,12115,13336,1,13336,1,0.00033229,2.1064e-09,0,0.00033229,5.4581e-05,1.2095e+08,675.49,0,1.2095e+08,54.641,13335,12118,1,12118,1,2.065e-05,-5.5771e-10,0,0.00016448,-3.8102e-06,7.8192e+06,-178.24,0,6.0614e+07,-14.838,12117,10867,1,10867,1,-0.00029099,-3.299e-09,0,3.3204e-06,-6.2236e-05,-1.1836e+08,-1058,0,1.3998e+06,-251.98,10866,11508,1,11508,1,-0.00014715,-1.5935e-09,0,7.5235e-05,-3.5268e-05,-5.9848e+07,-517.69,0,3.0599e+07,-42.159,11507,12724,1,12724,1,0.00018845,1.4819e-10,0,0.00024303,2.7617e-05,6.9227e+07,46.39,0,9.5028e+07,12.298,12723,702.88,0,702.88,0,0.00018667,1.2238e-09,0,9.4491e-05,3.4983e-05,7.1758e+07,399.19,0,3.5806e+07,39.716,702.88,1
2344,1.19,12116,1,12116,1,1.9847e-05,-2.8007e-11,0,0.00016354,-3.6726e-06,4.4112e+06,-9.0484,0,6.2857e+07,10.072,12115,13336,1,13336,1,0.00033511,1.2481e-09,0,0.00033511,5.5044e-05,1.2197e+08,400.34,0,1.2197e+08,898.47,13335,12118,1,12118,1,2.0826e-05,-6.8024e-12,0,0.00016588,-3.8426e-06,7.8859e+06,-2.1565,0,6.1131e+07,2.8556,12117,10867,1,10867,1,-0.00029346,-1.2742e-09,0,3.3487e-06,-6.2763e-05,-1.1936e+08,-408.64,0,1.4116e+06,-375.6,10866,11508,1,11508,1,-0.0001484,-3.242e-10,0,7.5875e-05,-3.5568e-05,-6.0359e+07,-105.49,0,3.0859e+07,-10.15,11507,12724,1,12724,1,0.00019005,2.1836e-10,0,0.0002451,2.7852e-05,6.9817e+07,71.329,0,9.5838e+07,15.628,12723,702.88,0,702.88,0,0.00018826,5.054e-10,0,9.5296e-05,3.5281e-05,7.2369e+07,164.81,0,3.6111e+07,80.656,702.88,1
2344,1.2,12116,1,12116,1,2.0012e-05,-4.7311e-10,0,0.0001649,-3.7033e-06,4.4479e+06,-154.54,0,6.3381e+07,-21.227,12115,13336,1,13336,1,0.00033791,1.7352e-09,0,0.00033791,5.5504e-05,1.2299e+08,556.36,0,1.2299e+08,228.46,13335,12118,1,12118,1,2.1e-05,-2.2707e-10,0,0.00016726,-3.8747e-06,7.9515e+06,-73.809,0,6.164e+07,-15.006,12117,10867,1,10867,1,-0.00029591,-3.6786e-09,0,3.3766e-06,-6.3288e-05,-1.2036e+08,-1179.8,0,1.4235e+06,-299.19,10866,11508,1,11508,1,-0.00014964,-1.2986e-09,0,7.6508e-05,-3.5865e-05,-6.0861e+07,-425.3,0,3.1116e+07,-51.372,11507,12724,1,12724,1,0.00019164,3.9976e-10,0,0.00024714,2.8084e-05,7.0399e+07,127.72,0,9.6636e+07,12.761,12723,702.88,0,702.88,0,0.00018983,1.2043e-09,0,9.609e-05,3.5575e-05,7.2972e+07,393.14,0,3.6412e+07,50.677,702.88,1
2344,1.21,12116,1,12116,1,2.0178e-05,-1.3831e-09,0,0.00016627,-3.7338e-06,4.4849e+06,-451.44,0,6.3909e+07,82.038,12115,13336,1,13336,1,0.00034074,3.6137e-09,0,0.00034074,5.5969e-05,1.2402e+08,1158.9,0,1.2402e+08,1834.3,13335,12118,1,12118,1,2.1174e-05,-1.2761e-09,0,0.00016865,-3.9065e-06,8.0176e+06,-421.2,0,6.2152e+07,30.34,12117,10867,1,10867,1,-0.00029839,-5.8589e-09,0,3.4049e-06,-6.3818e-05,-1.2137e+08,-1875.3,0,1.4353e+06,-266.5,10866,11508,1,11508,1,-0.00015088,-3.0959e-09,0,7.7147e-05,-3.6162e-05,-6.1367e+07,-1019.5,0,3.1376e+07,-31.208,11507,12724,1,12724,1,0.00019323,1.941e-10,0,0.00024919,2.8318e-05,7.0983e+07,63.945,0,9.7438e+07,79.407,12723,702.88,0,702.88,0,0.00019141,2.162e-09,0,9.689e-05,3.5871e-05,7.358e+07,704.41,0,3.6715e+07,242.51,702.88,1
2344,1.22,12116,1,12116,1,2.0346e-05,-4.8282e-10,0,0.00016766,-3.7651e-06,4.5223e+06,-157.57,0,6.4441e+07,1.758,12115,13336,1,13336,1,0.00034356,2.6189e-09,0,0.00034356,5.6433e-05,1.2505e+08,839.92,0,1.2505e+08,639.97,13335,12118,1,12118,1,2.1351e-05,-5.2318e-10,0,0.00017006,-3.9393e-06,8.0844e+06,-169.4,0,6.267e+07,-0.95019,12117,10867,1,10867,1,-0.00030086,-2.9209e-09,0,3.4332e-06,-6.4347e-05,-1.2237e+08,-936.68,0,1.4473e+06,-550.08,10866,11508,1,11508,1,-0.00015214,-1.4742e-09,0,7.7788e-05,-3.6464e-05,-6.1879e+07,-486.74,0,3.1637e+07,-31.969,11507,12724,1,12724,1,0.00019484,2.6663e-10,0,0.00025127,2.8554e-05,7.1575e+07,85.706,0,9.8251e+07,29.513,12723,702.88,0,702.88,0,0.00019301,1.2536e-09,0,9.7697e-05,3.617e-05,7.4193e+07,409.18,0,3.7021e+07,75.733,702.88,1
2344,1.23,12116,1,12116,1,2.0512e-05,-4.9186e-10,0,0.00016902,-3.7953e-06,4.5591e+06,-160.16,0,6.4967e+07,213.01,12115,13336,1,13336,1,0.00034636,3.3802e-09,0,0.00034636,5.6892e-05,1.2607e+08,1084,0,1.2607e+08,2962.3,13335,12118,1,12118,1,2.1525e-05,-3.0887e-10,0,0.00017144,-3.9706e-06,8.1504e+06,-100.26,0,6.3182e+07,52.169,12117,10867,1,10867,1,-0.00030331,-4.7586e-09,0,3.4614e-06,-6.487e-05,-1.2337e+08,-1525.9,0,1.459e+06,-248.78,10866,11508,1,11508,1,-0.00015338,-1.5016e-09,0,7.8422e-05,-3.6761e-05,-6.2384e+07,-490.52,0,3.1894e+07,5.2052,11507,12724,1,12724,1,0.00019643,4.9658e-10,0,0.00025332,2.8787e-05,7.2159e+07,160.9,0,9.9053e+07,151.7,12723,702.88,0,702.88,0,0.00019458,1.5481e-09,0,9.8493e-05,3.6465e-05,7.4798e+07,502.83,0,3.7323e+07,451.6,702.88,1
2344,1.24,12116,1,12116,1,2.0682e-05,4.7048e-10,0,0.00017042,-3.827e-06,4.5968e+06,153.66,0,6.5504e+07,97.844,12115,13336,1,13336,1,0.00034922,2.5168e-09,0,0.00034922,5.7361e-05,1.2711e+08,844.94,0,1.2711e+08,2648.8,13335,12118,1,12118,1,2.1703e-05,4.4764e-10,0,0.00017286,-4.0041e-06,8.2178e+06,148.5,0,6.3704e+07,13.103,12117,10867,1,10867,1,-0.00030581,-1.8266e-09,0,3.4899e-06,-6.5406e-05,-1.2438e+08,-613.71,0,1.4711e+06,-222.39,10866,11508,1,11508,1,-0.00015465,1.8162e-10,0,7.907e-05,-3.7065e-05,-6.29e+07,57.396,0,3.2158e+07,1.4817,11507,12724,1,12724,1,0.00019805,7.4212e-10,0,0.00025542,2.9025e-05,7.2756e+07,243.17,0,9.9872e+07,40.611,12723,702.88,0,702.88,0,0.00019619,4.453e-10,0,9.9308e-05,3.6766e-05,7.5416e+07,145.99,0,3.7632e+07,318.63,702.88,1
2344,1.25,12116,1,12116,1,2.0847e-05,-4.7205e-10,0,0.00017178,-3.8576e-06,4.6335e+06,-154.44,0,6.6025e+07,49.617,12115,13336,1,13336,1,0.00035201,3.8711e-09,0,0.00035201,5.782e-05,1.2813e+08,1241.4,0,1.2813e+08,987.54,13335,12118,1,12118,1,2.1876e-05,-1.891e-10,0,0.00017424,-4.0359e-06,8.2832e+06,-60.29,0,6.4211e+07,21.202,12117,10867,1,10867,1,-0.00030826,-4.3731e-09,0,3.5173e-06,-6.5929e-05,-1.2538e+08,-1402.4,0,1.4826e+06,-126.44,10866,11508,1,11508,1,-0.00015588,-1.8321e-09,0,7.9699e-05,-3.736e-05,-6.3399e+07,-597.27,0,3.2414e+07,-14.258,11507,12724,1,12724,1,0.00019963,7.2286e-10,0,0.00025745,2.9256e-05,7.3335e+07,234.22,0,1.0067e+08,70.295,12723,702.88,0,702.88,0,0.00019775,1.8777e-09,0,0.0001001,3.7059e-05,7.6016e+07,613.74,0,3.7931e+07,134.91,702.88,1
2344,1.26,12116,1,12116,1,2.1013e-05,3.2102e-10,0,0.00017315,-3.8884e-06,4.6704e+06,104.71,0,6.6552e+07,19.308,12115,13336,1,13336,1,0.00035481,3.6139e-09,0,0.00035481,5.8279e-05,1.2914e+08,1159,0,1.2914e+08,827.72,13335,12118,1,12118,1,2.205e-05,2.2521e-10,0,0.00017563,-4.0684e-06,8.3493e+06,71.908,0,6.4723e+07,7.0042,12117,10867,1,10867,1,-0.00031071,-2.5903e-09,0,3.5455e-06,-6.6453e-05,-1.2638e+08,-851.57,0,1.4945e+06,-168.03,10866,11508,1,11508,1,-0.00015712,-4.3607e-10,0,8.0334e-05,-3.7659e-05,-6.3906e+07,-141.7,0,3.2672e+07,-16.984,11507,12724,1,12724,1,0.00020122,1.1002e-09,0,0.0002595,2.9489e-05,7.392e+07,358.5,0,1.0147e+08,27.305,12723,702.88,0,702.88,0,0.00019933,1.2816e-09,0,0.0001009,3.7355e-05,7.6622e+07,418.7,0,3.8234e+07,97.773,702.88,1
2344,1.27,12116,1,12116,1,2.1179e-05,-9.2972e-10,0,0.00017452,-3.9193e-06,4.7073e+06,-303.9,0,6.7078e+07,4.7225,12115,13336,1,13336,1,0.00035763,2.4905e-09,0,0.00035763,5.8743e-05,1.3017e+08,841.48,0,1.3017e+08,424.68,13335,12118,1,12118,1,2.2225e-05,-3.7206e-10,0,0.00017701,-4.1005e-06,8.4153e+06,-122.87,0,6.5235e+07,4.2534,12117,10867,1,10867,1,-0.00031318,-5.372e-09,0,3.5736e-06,-6.6982e-05,-1.2738e+08,-1722.8,0,1.5064e+06,-572.91,10866,11508,1,11508,1,-0.00015836,-2.1553e-09,0,8.0971e-05,-3.7956e-05,-6.4411e+07,-687.39,0,3.2931e+07,-26.284,11507,12724,1,12724,1,0.00020281,3.4329e-10,0,0.00026156,2.9722e-05,7.4504e+07,110.5,0,1.0227e+08,34.745,12723,702.88,0,702.88,0,0.0002009,1.9052e-09,0,0.0001017,3.7651e-05,7.7229e+07,623.3,0,3.8536e+07,58.294,702.88,1
2344,1.28,12116,1,12116,1,2.1347e-05,1.6539e-09,0,0.0001759,-3.9503e-06,4.7445e+06,540.37,0,6.7608e+07,-3.483,12115,13336,1,13336,1,0.00036046,5.1849e-09,0,0.00036046,5.9207e-05,1.312e+08,1649.3,0,1.312e+08,129.01,13335,12118,1,12118,1,2.24e-05,1.4486e-09,0,0.00017841,-4.1329e-06,8.4818e+06,473.95,0,6.575e+07,4.3323,12117,10867,1,10867,1,-0.00031565,-9.8478e-10,0,3.6017e-06,-6.7511e-05,-1.2839e+08,-337.11,0,1.5184e+06,-903.98,10866,11508,1,11508,1,-0.00015961,3.3938e-10,0,8.1611e-05,-3.8256e-05,-6.4919e+07,111.92,0,3.3192e+07,-19.252,11507,12724,1,12724,1,0.00020441,2.87e-09,0,0.00026362,2.9957e-05,7.5093e+07,931.38,0,1.0308e+08,34.786,12723,702.88,0,702.88,0,0.00020249,1.4779e-09,0,0.0001025,3.7948e-05,7.7839e+07,482.47,0,3.8841e+07,88.198,702.88,1
2344,1.29,12116,1,12116,1,2.1513e-05,-7.5585e-10,0,0.00017727,-3.981e-06,4.7815e+06,-246.97,0,6.8135e+07,16.261,12115,13336,1,13336,1,0.00036327,3.7226e-09,0,0.00036327,5.9669e-05,1.3222e+08,1193.8,0,1.3222e+08,1528.7,13335,12118,1,12118,1,2.2575e-05,-1.6354e-10,0,0.0001798,-4.1652e-06,8.5479e+06,-54.18,0,6.6263e+07,8.7489,12117,10867,1,10867,1,-0.00031811,-6.0263e-09,0,3.63e-06,-6.8037e-05,-1.2939e+08,-1932.5,0,1.5301e+06,-402.41,10866,11508,1,11508,1,-0.00016086,-1.9095e-09,0,8.2247e-05,-3.8555e-05,-6.5426e+07,-630.82,0,3.345e+07,-45.957,11507,12724,1,12724,1,0.00020601,4.9165e-10,0,0.00026568,3.0191e-05,7.5679e+07,158.6,0,1.0388e+08,49.344,12723,702.88,0,702.88,0,0.00020407,2.0534e-09,0,0.0001033,3.8244e-05,7.8446e+07,670.87,0,3.9143e+07,157.94,702.88,1
2344,1.3,12116,1,12116,1,2.168e-05,1.2844e-09,0,0.00017864,-4.0119e-06,4.8186e+06,419.37,0,6.8664e+07,15.007,12115,13336,1,13336,1,0.00036609,6.5276e-09,0,0.00036609,6.0132e-05,1.3325e+08,2076.1,0,1.3325e+08,273.33,13335,12118,1,12118,1,2.275e-05,7.9322e-10,0,0.0001812,-4.1974e-06,8.6142e+06,262.73,0,6.6776e+07,18.018,12117,10867,1,10867,1,-0.00032059,-2.9988e-09,0,3.6578e-06,-6.8566e-05,-1.3039e+08,-984.61,0,1.542e+06,-427.28,10866,11508,1,11508,1,-0.0001621,-3.3783e-10,0,8.2885e-05,-3.8853e-05,-6.5932e+07,-109.8,0,3.371e+07,-29.641,11507,12724,1,12724,1,0.0002076,3.0052e-09,0,0.00026773,3.0424e-05,7.6264e+07,982.01,0,1.0469e+08,71.135,12723,702.88,0,702.88,0,0.00020565,2.1216e-09,0,0.0001041,3.854e-05,7.9054e+07,691.81,0,3.9447e+07,73.491,702.88,1
2344,1.31,12116,1,12116,1,2.1848e-05,4.4805e-10,0,0.00018003,-4.043e-06,4.856e+06,146.5,0,6.9196e+07,30.26,12115,13336,1,13336,1,0.0003689,4.1134e-09,0,0.0003689,6.0594e-05,1.3427e+08,1382.6,0,1.3427e+08,810.99,13335,12118,1,12118,1,2.2927e-05,3.598e-10,0,0.00018261,-4.2299e-06,8.6812e+06,116.92,0,6.7295e+07,12.011,12117,10867,1,10867,1,-0.00032305,-2.6711e-09,0,3.6861e-06,-6.9093e-05,-1.314e+08,-897.5,0,1.5538e+06,-308.64,10866,11508,1,11508,1,-0.00016336,1.4826e-11,0,8.3526e-05,-3.9155e-05,-6.6445e+07,4.8532,0,3.397e+07,-6.8416,11507,12724,1,12724,1,0.00020922,7.7069e-10,0,0.00026982,3.0661e-05,7.6858e+07,252.47,0,1.055e+08,43.97,12723,702.88,0,702.88,0,0.00020725,6.5989e-10,0,0.00010491,3.8839e-05,7.9667e+07,217.29,0,3.9753e+07,92.789,702.88,1
2344,1.32,12116,1,12116,1,2.2015e-05,8.4349e-10,0,0.0001814,-4.0739e-06,4.893e+06,275.35,0,6.9723e+07,-5.1129,12115,13336,1,13336,1,0.00037173,4.598e-09,0,0.00037173,6.1058e-05,1.353e+08,1474.6,0,1.353e+08,100.88,13335,12118,1,12118,1,2.3101e-05,5.0486e-10,0,0.000184,-4.2623e-06,8.7473e+06,164.28,0,6.7807e+07,-3.4936,12117,10867,1,10867,1,-0.00032552,-1.8592e-09,0,3.7139e-06,-6.9622e-05,-1.324e+08,-610.66,0,1.5657e+06,-587.12,10866,11508,1,11508,1,-0.00016461,-2.8169e-10,0,8.4163e-05,-3.9453e-05,-6.6951e+07,-90.39,0,3.423e+07,-33.219,11507,12724,1,12724,1,0.00021081,2.0619e-09,0,0.00027187,3.0894e-05,7.7443e+07,679.66,0,1.063e+08,32.877,12723,702.88,0,702.88,0,0.00020883,1.516e-09,0,0.0001057,3.9135e-05,8.0274e+07,494.63,0,4.0056e+07,59.21,702.88,1
2344,1.33,12116,1,12116,1,2.2181e-05,9.3981e-11,0,0.00018277,-4.1047e-06,4.93e+06,30.274,0,7.0251e+07,16.565,12115,13336,1,13336,1,0.00037453,3.6844e-09,0,0.00037453,6.152e-05,1.3632e+08,1181.6,0,1.3632e+08,384.8,13335,12118,1,12118,1,2.3276e-05,6.2625e-11,0,0.00018539,-4.2945e-06,8.8136e+06,20.138,0,6.8321e+07,8.2849,12117,10867,1,10867,1,-0.00032798,-2.912e-09,0,3.7421e-06,-7.0148e-05,-1.334e+08,-933.87,0,1.5775e+06,-144.93,10866,11508,1,11508,1,-0.00016586,-1.0105e-09,0,8.4801e-05,-3.9752e-05,-6.7458e+07,-328.83,0,3.4489e+07,-17.342,11507,12724,1,12724,1,0.00021241,1.1692e-09,0,0.00027393,3.1128e-05,7.803e+07,389.06,0,1.0711e+08,44.42,12723,702.88,0,702.88,0,0.00021041,1.5305e-09,0,0.00010651,3.9431e-05,8.0882e+07,499.68,0,4.0359e+07,57.893,702.88,1
2344,1.34,12116,1,12116,1,2.2347e-05,1.1787e-09,0,0.00018414,-4.1353e-06,4.9668e+06,384.81,0,7.0775e+07,0.85894,12115,13336,1,13336,1,0.00037734,7.23e-09,0,0.00037734,6.1981e-05,1.3735e+08,2299.5,0,1.3735e+08,157.42,13335,12118,1,12118,1,2.345e-05,7.3281e-10,0,0.00018677,-4.3266e-06,8.8792e+06,234.3,0,6.883e+07,5.3247,12117,10867,1,10867,1,-0.00033044,-4.0863e-09,0,3.77e-06,-7.0674e-05,-1.344e+08,-1322,0,1.5894e+06,-750.97,10866,11508,1,11508,1,-0.00016709,-4.9549e-10,0,8.5433e-05,-4.0048e-05,-6.796e+07,-158.71,0,3.4746e+07,-46.514,11507,12724,1,12724,1,0.00021399,3.0646e-09,0,0.00027597,3.136e-05,7.8611e+07,1003.2,0,1.0791e+08,60.072,12723,702.88,0,702.88,0,0.00021198,2.4523e-09,0,0.0001073,3.9726e-05,8.1485e+07,800.35,0,4.066e+07,83.712,702.88,1
2344,1.35,12116,1,12116,1,2.2515e-05,3.302e-10,0,0.00018552,-4.1664e-06,5.0041e+06,107.75,0,7.1308e+07,9.0306,12115,13336,1,13336,1,0.00038016,2.3066e-09,0,0.00038016,6.2444e-05,1.3837e+08,767.42,0,1.3837e+08,457.6,13335,12118,1,12118,1,2.3627e-05,2.0906e-10,0,0.00018818,-4.3592e-06,8.9462e+06,67.683,0,6.9349e+07,6.4966,12117,10867,1,10867,1,-0.00033291,-9.381e-10,0,3.7987e-06,-7.1202e-05,-1.3541e+08,-320.31,0,1.6013e+06,-218.79,10866,11508,1,11508,1,-0.00016835,-5.4262e-11,0,8.6075e-05,-4.035e-05,-6.8473e+07,-17.211,0,3.5007e+07,-6.018,11507,12724,1,12724,1,0.0002156,5.8363e-10,0,0.00027805,3.1597e-05,7.9204e+07,189.14,0,1.0872e+08,19.948,12723,702.88,0,702.88,0,0.00021357,6.5474e-10,0,0.00010811,4.0025e-05,8.2098e+07,214.2,0,4.0966e+07,41.291,702.88,1
2344,1.36,12116,1,12116,1,2.2682e-05,-2.7523e-10,0,0.0001869,-4.1973e-06,5.0413e+06,-90.145,0,7.1836e+07,17.964,12115,13336,1,13336,1,0.00038299,2.216e-09,0,0.00038299,6.2908e-05,1.394e+08,710.7,0,1.394e+08,921.56,13335,12118,1,12118,1,2.3802e-05,-2.0097e-11,0,0.00018957,-4.3915e-06,9.0125e+06,-6.6476,0,6.9862e+07,5.5796,12117,10867,1,10867,1,-0.00033538,-3.0664e-09,0,3.8264e-06,-7.173e-05,-1.3641e+08,-983.4,0,1.6129e+06,-353.6,10866,11508,1,11508,1,-0.0001696,-1.211e-09,0,8.6713e-05,-4.0649e-05,-6.898e+07,-390.83,0,3.5267e+07,-22.822,11507,12724,1,12724,1,0.0002172,6.6303e-10,0,0.00028011,3.1831e-05,7.979e+07,220.73,0,1.0953e+08,42.92,12723,702.88,0,702.88,0,0.00021515,1.2871e-09,0,0.00010891,4.0321e-05,8.2707e+07,420.76,0,4.127e+07,106.94,702.88,1
2344,1.37,12116,1,12116,1,2.2848e-05,-6.7053e-10,0,0.00018827,-4.2281e-06,5.0782e+06,-219.37,0,7.2363e+07,15.552,12115,13336,1,13336,1,0.0003858,2.7658e-09,0,0.0003858,6.337e-05,1.4043e+08,889.79,0,1.4043e+08,689.85,13335,12118,1,12118,1,2.3976e-05,-5.1252e-10,0,0.00019096,-4.4237e-06,9.0786e+06,-167.92,0,7.0375e+07,6.0365,12117,10867,1,10867,1,-0.00033785,-3.7467e-09,0,3.8548e-06,-7.2258e-05,-1.3742e+08,-1201.5,0,1.6249e+06,-232.35,10866,11508,1,11508,1,-0.00017084,-1.8202e-09,0,8.735e-05,-4.0947e-05,-6.9486e+07,-598.85,0,3.5526e+07,-23.351,11507,12724,1,12724,1,0.00021879,2.4676e-10,0,0.00028216,3.2064e-05,8.0375e+07,81.369,0,1.1033e+08,41.632,12723,702.88,0,702.88,0,0.00021673,1.5115e-09,0,0.00010971,4.0617e-05,8.3314e+07,494.17,0,4.1572e+07,68.883,702.88,1
2344,1.38,12116,1,12116,1,2.3015e-05,1.4604e-09,0,0.00018964,-4.259e-06,5.1153e+06,476.98,0,7.2892e+07,17.803,12115,13336,1,13336,1,0.00038863,4.8081e-09,0,0.00038863,6.3835e-05,1.4145e+08,1529.2,0,1.4145e+08,418.59,13335,12118,1,12118,1,2.4151e-05,1.2738e-09,0,0.00019236,-4.456e-06,9.1448e+06,420.48,0,7.0888e+07,15.268,12117,10867,1,10867,1,-0.00034032,-1.4002e-09,0,3.8827e-06,-7.2787e-05,-1.3842e+08,-463.81,0,1.6368e+06,-254.42,10866,11508,1,11508,1,-0.00017209,7.2357e-11,0,8.799e-05,-4.1246e-05,-6.9993e+07,22.862,0,3.5786e+07,-18.179,11507,12724,1,12724,1,0.00022039,2.7809e-09,0,0.00028422,3.2298e-05,8.0961e+07,913.46,0,1.1113e+08,56.571,12723,702.88,0,702.88,0,0.00021832,1.5426e-09,0,0.00011051,4.0914e-05,8.3922e+07,502.56,0,4.1876e+07,55.456,702.88,1
2344,1.39,12116,1,12116,1,2.3182e-05,-8.1465e-10,0,0.00019101,-4.2899e-06,5.1524e+06,-266.36,0,7.3419e+07,-9.8671,12115,13336,1,13336,1,0.00039144,3.5146e-09,0,0.00039144,6.4296e-05,1.4248e+08,1161.6,0,1.4248e+08,363.64,13335,12118,1,12118,1,2.4326e-05,-4.6295e-10,0,0.00019375,-4.4883e-06,9.2111e+06,-149.5,0,7.1401e+07,-12.822,12117,10867,1,10867,1,-0.00034278,-5.8596e-09,0,3.9104e-06,-7.3314e-05,-1.3942e+08,-1879.1,0,1.6484e+06,-202.61,10866,11508,1,11508,1,-0.00017333,-2.4478e-09,0,8.8625e-05,-4.1544e-05,-7.0499e+07,-799.81,0,3.6044e+07,-52.967,11507,12724,1,12724,1,0.00022198,6.6383e-10,0,0.00028628,3.2532e-05,8.1547e+07,215.71,0,1.1194e+08,42.657,12723,702.88,0,702.88,0,0.0002199,2.184e-09,0,0.00011131,4.1209e-05,8.4529e+07,714.32,0,4.2179e+07,71.67,702.88,1
2344,1.4,12116,1,12116,1,2.3349e-05,3.0751e-10,0,0.00019239,-4.3208e-06,5.1894e+06,100.35,0,7.3948e+07,-13.345,12115,13336,1,13336,1,0.00039424,4.1053e-09,0,0.00039424,6.4757e-05,1.435e+08,1314,0,1.435e+08,91.458,13335,12118,1,12118,1,2.4502e-05,1.8565e-10,0,0.00019515,-4.5207e-06,9.2775e+06,60.627,0,7.1916e+07,-9.9299,12117,10867,1,10867,1,-0.00034524,-2.7252e-09,0,3.939e-06,-7.3839e-05,-1.4042e+08,-878.42,0,1.6606e+06,-609.24,10866,11508,1,11508,1,-0.00017458,-9.5527e-10,0,8.9263e-05,-4.1844e-05,-7.1008e+07,-314.4,0,3.6304e+07,-41.92,11507,12724,1,12724,1,0.00022359,1.5303e-09,0,0.00028834,3.2766e-05,8.2136e+07,494.25,0,1.1275e+08,25.842,12723,702.88,0,702.88,0,0.00022148,1.6761e-09,0,0.00011211,4.1506e-05,8.5138e+07,548.19,0,4.2483e+07,67.926,702.88,1
2344,1.41,12116,1,12116,1,2.3516e-05,1.3955e-10,0,0.00019377,-4.3518e-06,5.2266e+06,45.31,0,7.4477e+07,-10.196,12115,13336,1,13336,1,0.00039707,3.5931e-09,0,0.00039707,6.5221e-05,1.4453e+08,1152.2,0,1.4453e+08,104.67,13335,12118,1,12118,1,2.4677e-05,1.6306e-10,0,0.00019654,-4.5531e-06,9.3439e+06,52.458,0,7.2431e+07,-8.3738,12117,10867,1,10867,1,-0.00034771,-3.2863e-09,0,3.967e-06,-7.4368e-05,-1.4143e+08,-1053.9,0,1.6724e+06,-615.85,10866,11508,1,11508,1,-0.00017583,-1.0951e-09,0,8.9902e-05,-4.2144e-05,-7.1516e+07,-354.52,0,3.6564e+07,-42.872,11507,12724,1,12724,1,0.00022519,1.5059e-09,0,0.00029041,3.3001e-05,8.2724e+07,481.94,0,1.1355e+08,32.447,12723,702.88,0,702.88,0,0.00022307,1.7078e-09,0,0.00011291,4.1804e-05,8.5748e+07,558.25,0,4.2787e+07,68.685,702.88,1
2344,1.42,12116,1,12116,1,2.3682e-05,-2.5526e-10,0,0.00019514,-4.3825e-06,5.2635e+06,-83.617,0,7.5004e+07,0.50616,12115,13336,1,13336,1,0.00039987,2.0449e-09,0,0.00039987,6.5681e-05,1.4555e+08,655.61,0,1.4555e+08,169.92,13335,12118,1,12118,1,2.4851e-05,-1.1838e-12,0,0.00019793,-4.5852e-06,9.41e+06,-0.38389,0,7.2942e+07,2.4433,12117,10867,1,10867,1,-0.00035017,-3.4214e-09,0,3.9952e-06,-7.4893e-05,-1.4243e+08,-1113.1,0,1.6842e+06,-523.57,10866,11508,1,11508,1,-0.00017708,-1.0366e-09,0,9.0537e-05,-4.2442e-05,-7.2022e+07,-331.69,0,3.6822e+07,-22.193,11507,12724,1,12724,1,0.00022678,5.7727e-10,0,0.00029246,3.3234e-05,8.3309e+07,188.12,0,1.1436e+08,30.809,12723,702.88,0,702.88,0,0.00022464,1.2416e-09,0,0.00011371,4.2099e-05,8.6353e+07,406.31,0,4.3089e+07,42.203,702.88,1
2344,1.43,12116,1,12116,1,2.385e-05,3.7411e-10,0,0.00019652,-4.4134e-06,5.3007e+06,122.16,0,7.5533e+07,4.9024,12115,13336,1,13336,1,0.0004027,2.0428e-09,0,0.0004027,6.6145e-05,1.4658e+08,655.1,0,1.4658e+08,288.96,13335,12118,1,12118,1,2.5027e-05,3.412e-10,0,0.00019933,-4.6176e-06,9.4765e+06,111.52,0,7.3457e+07,7.3375,12117,10867,1,10867,1,-0.00035264,-1.9576e-09,0,4.0232e-06,-7.5422e-05,-1.4343e+08,-669.78,0,1.6961e+06,-382.32,10866,11508,1,11508,1,-0.00017833,-1.9709e-10,0,9.1176e-05,-4.2741e-05,-7.253e+07,-63.5,0,3.7082e+07,-17.09,11507,12724,1,12724,1,0.00022838,1.104e-09,0,0.00029453,3.3469e-05,8.3897e+07,361.57,0,1.1516e+08,33.083,12723,702.88,0,702.88,0,0.00022623,8.87e-10,0,0.00011451,4.2396e-05,8.6963e+07,289.72,0,4.3394e+07,50.711,702.88,1
2344,1.44,12116,1,12116,1,2.4017e-05,6.2088e-10,0,0.00019789,-4.4443e-06,5.3378e+06,202.99,0,7.6062e+07,3.3838,12115,13336,1,13336,1,0.00040551,1.9276e-09,0,0.00040551,6.6608e-05,1.476e+08,618.2,0,1.476e+08,148.77,13335,12118,1,12118,1,2.5202e-05,6.1269e-10,0,0.00020073,-4.6499e-06,9.5428e+06,200.78,0,7.3972e+07,5.9378,12117,10867,1,10867,1,-0.00035511,-1.115e-09,0,4.0514e-06,-7.595e-05,-1.4444e+08,-357.58,0,1.7079e+06,-445.8,10866,11508,1,11508,1,-0.00017957,4.5225e-11,0,9.1815e-05,-4.304e-05,-7.3038e+07,14.838,0,3.7341e+07,-9.1386,11507,12724,1,12724,1,0.00022998,1.2242e-09,0,0.00029659,3.3703e-05,8.4484e+07,400.99,0,1.1597e+08,23.027,12723,702.88,0,702.88,0,0.00022781,6.8283e-10,0,0.00011532,4.2693e-05,8.7572e+07,223.24,0,4.3697e+07,38.488,702.88,1
2344,1.45,12116,1,12116,1,2.4184e-05,1.1962e-10,0,0.00019927,-4.4752e-06,5.3749e+06,39.005,0,7.6591e+07,12.668,12115,13336,1,13336,1,0.00040833,1.8522e-09,0,0.00040833,6.7071e-05,1.4863e+08,594.04,0,1.4863e+08,577.52,13335,12118,1,12118,1,2.5378e-05,1.6307e-10,0,0.00020212,-4.6822e-06,9.6092e+06,51.804,0,7.4486e+07,6.3947,12117,10867,1,10867,1,-0.00035758,-1.6409e-09,0,4.0797e-06,-7.6477e-05,-1.4544e+08,-531.48,0,1.7198e+06,-184.63,10866,11508,1,11508,1,-0.00018082,-5.0466e-10,0,9.2453e-05,-4.334e-05,-7.3546e+07,-166,0,3.7601e+07,-7.25,11507,12724,1,12724,1,0.00023158,7.7312e-10,0,0.00029865,3.3938e-05,8.5072e+07,252.37,0,1.1678e+08,27.795,12723,702.88,0,702.88,0,0.0002294,8.6854e-10,0,0.00011612,4.299e-05,8.8181e+07,284.38,0,4.4001e+07,52.244,702.88,1
2344,1.46,12116,1,12116,1,2.4349e-05,-4.3224e-10,0,0.00020063,-4.5059e-06,5.4117e+06,-141.57,0,7.7113e+07,-13.671,12115,13336,1,13336,1,0.00041113,5.9602e-09,0,0.00041113,6.753e-05,1.4964e+08,1911.3,0,1.4964e+08,137.72,13335,12118,1,12118,1,2.5551e-05,-1.5926e-10,0,0.0002035,-4.7143e-06,9.6748e+06,-51.169,0,7.4993e+07,-14.661,12117,10867,1,10867,1,-0.00036003,-5.3831e-09,0,4.1067e-06,-7.7002e-05,-1.4644e+08,-1726.3,0,1.7313e+06,-399.65,10866,11508,1,11508,1,-0.00018205,-2.3116e-09,0,9.3082e-05,-4.3635e-05,-7.4046e+07,-747.5,0,3.7857e+07,-56.361,11507,12724,1,12724,1,0.00023315,1.0004e-09,0,0.00030068,3.4168e-05,8.5651e+07,322.24,0,1.1757e+08,37.525,12723,702.88,0,702.88,0,0.00023096,2.6327e-09,0,0.00011691,4.3283e-05,8.8782e+07,861.01,0,4.4301e+07,69.348,702.88,1
2344,1.47,12116,1,12116,1,2.4516e-05,-3.2831e-10,0,0.00020201,-4.5368e-06,5.4488e+06,-107.33,0,7.7643e+07,12.298,12115,13336,1,13336,1,0.00041395,3.5941e-09,0,0.00041395,6.7993e-05,1.5067e+08,1152.6,0,1.5067e+08,1006.8,13335,12118,1,12118,1,2.5727e-05,-1.0544e-10,0,0.0002049,-4.7465e-06,9.7413e+06,-33.909,0,7.5509e+07,2.0941,12117,10867,1,10867,1,-0.00036249,-3.7101e-09,0,4.1352e-06,-7.753e-05,-1.4744e+08,-1189.9,0,1.7432e+06,-337.53,10866,11508,1,11508,1,-0.00018331,-1.4461e-09,0,9.3722e-05,-4.3935e-05,-7.4556e+07,-463.94,0,3.8117e+07,-24.544,11507,12724,1,12724,1,0.00023476,5.8531e-10,0,0.00030275,3.4404e-05,8.6241e+07,190.87,0,1.1838e+08,37.097,12723,702.88,0,702.88,0,0.00023255,1.6353e-09,0,0.00011771,4.3581e-05,8.9392e+07,534.63,0,4.4606e+07,90.927,702.88,1
2344,1.48,12116,1,12116,1,2.4683e-05,2.2096e-09,0,0.00020338,-4.5676e-06,5.4858e+06,721.38,0,7.8171e+07,31.78,12115,13336,1,13336,1,0.00041679,6.9676e-09,0,0.00041679,6.846e-05,1.5171e+08,2234.6,0,1.5171e+08,369.55,13335,12118,1,12118,1,2.5901e-05,2.225e-09,0,0.00020629,-4.7787e-06,9.8074e+06,718.67,0,7.6022e+07,29.317,12117,10867,1,10867,1,-0.00036498,-2.7138e-09,0,4.1633e-06,-7.8062e-05,-1.4845e+08,-893.87,0,1.755e+06,-438.91,10866,11508,1,11508,1,-0.00018455,2.3818e-10,0,9.4364e-05,-4.4233e-05,-7.5061e+07,78.899,0,3.8378e+07,-26.675,11507,12724,1,12724,1,0.00023635,3.9874e-09,0,0.0003048,3.4637e-05,8.6824e+07,1313.5,0,1.1918e+08,89.484,12723,702.88,0,702.88,0,0.00023413,2.2399e-09,0,0.00011851,4.3877e-05,9.0001e+07,728.6,0,4.4909e+07,83.456,702.88,1
2344,1.49,12116,1,12116,1,2.4849e-05,-8.7077e-10,0,0.00020474,-4.5983e-06,5.5226e+06,-284.81,0,7.8695e+07,0.73344,12115,13336,1,13336,1,0.00041958,7.3275e-09,0,0.00041958,6.8918e-05,1.5272e+08,2349.9,0,1.5272e+08,527.15,13335,12118,1,12118,1,2.6075e-05,-5.0442e-10,0,0.00020767,-4.811e-06,9.8732e+06,-165.15,0,7.6532e+07,-11.551,12117,10867,1,10867,1,-0.00036742,-7.7201e-09,0,4.1912e-06,-7.8584e-05,-1.4944e+08,-2475.7,0,1.7667e+06,-362.02,10866,11508,1,11508,1,-0.00018579,-3.5196e-09,0,9.4993e-05,-4.453e-05,-7.5565e+07,-1150.5,0,3.8634e+07,-58.787,11507,12724,1,12724,1,0.00023794,1.1663e-09,0,0.00030685,3.487e-05,8.7408e+07,375.35,0,1.1998e+08,69.435,12723,702.88,0,702.88,0,0.0002357,3.6523e-09,0,0.00011931,4.4171e-05,9.0604e+07,1194.5,0,4.521e+07,93.673,702.88,1
2344,1.5,12116,1,12116,1,2.5018e-05,1.3791e-10,0,0.00020613,-4.6296e-06,5.5602e+06,44.959,0,7.923e+07,1.6833,12115,13336,1,13336,1,0.0004224,2.5561e-09,0,0.0004224,6.9382e-05,1.5375e+08,823.11,0,1.5375e+08,267.45,13335,12118,1,12118,1,2.6253e-05,1.2011e-10,0,0.00020909,-4.8437e-06,9.9405e+06,38.399,0,7.7053e+07,-0.61908,12117,10867,1,10867,1,-0.0003699,-1.7411e-09,0,4.2197e-06,-7.9113e-05,-1.5045e+08,-573.48,0,1.7789e+06,-181.3,10866,11508,1,11508,1,-0.00018705,-5.4478e-10,0,9.5638e-05,-4.4834e-05,-7.608e+07,-178.87,0,3.8897e+07,-19.451,11507,12724,1,12724,1,0.00023956,7.0871e-10,0,0.00030894,3.5107e-05,8.8004e+07,231.89,0,1.208e+08,26.265,12723,702.88,0,702.88,0,0.0002373,9.9564e-10,0,0.00012012,4.4472e-05,9.122e+07,325.85,0,4.5518e+07,41.243,702.88,1
2344,1.51,12116,1,12116,1,2.5184e-05,1.3107e-09,0,0.00020751,-4.6603e-06,5.5971e+06,427.86,0,7.9757e+07,29.275,12115,13336,1,13336,1,0.00042523,4.8387e-09,0,0.00042523,6.9847e-05,1.5478e+08,1538.9,0,1.5478e+08,726.32,13335,12118,1,12118,1,2.6427e-05,1.237e-09,0,0.00021048,-4.8758e-06,1.0006e+07,407.82,0,7.7565e+07,24.187,12117,10867,1,10867,1,-0.00037237,-2.8951e-09,0,4.2476e-06,-7.9643e-05,-1.5146e+08,-951.16,0,1.7905e+06,-161.29,10866,11508,1,11508,1,-0.0001883,-9.7051e-11,0,9.6276e-05,-4.5131e-05,-7.6585e+07,-29.761,0,3.9156e+07,-16.993,11507,12724,1,12724,1,0.00024115,2.7313e-09,0,0.00031099,3.534e-05,8.8587e+07,901.91,0,1.216e+08,71.546,12723,702.88,0,702.88,0,0.00023888,1.7125e-09,0,0.00012092,4.4767e-05,9.1826e+07,557.66,0,4.582e+07,80.252,702.88,1
2344,1.52,12116,1,12116,1,2.5352e-05,1.0398e-09,0,0.00020889,-4.6914e-06,5.6344e+06,339.76,0,8.0289e+07,21.857,12115,13336,1,13336,1,0.00042805,2.8112e-09,0,0.00042805,7.031e-05,1.558e+08,944.82,0,1.558e+08,795.28,13335,12118,1,12118,1,2.6603e-05,1.0561e-09,0,0.00021188,-4.9083e-06,1.0073e+07,343.21,0,7.8082e+07,14.975,12117,10867,1,10867,1,-0.00037484,-1.5036e-09,0,4.276e-06,-8.0171e-05,-1.5246e+08,-505.32,0,1.8025e+06,-101.83,10866,11508,1,11508,1,-0.00018955,4.3992e-10,0,9.6917e-05,-4.5432e-05,-7.7096e+07,142.37,0,3.9417e+07,-2.2491,11507,12724,1,12724,1,0.00024276,1.6326e-09,0,0.00031307,3.5576e-05,8.9179e+07,537.6,0,1.2241e+08,34.597,12723,702.88,0,702.88,0,0.00024047,7.1816e-10,0,0.00012172,4.5066e-05,9.2439e+07,234.63,0,4.6126e+07,58.515,702.88,1
2344,1.53,12116,1,12116,1,2.5518e-05,-8.881e-10,0,0.00021026,-4.7222e-06,5.6714e+06,-290.5,0,8.0816e+07,16.272,12115,13336,1,13336,1,0.00043087,1.4619e-09,0,0.00043087,7.0772e-05,1.5683e+08,468.74,0,1.5683e+08,851.15,13335,12118,1,12118,1,2.6778e-05,-7.958e-10,0,0.00021327,-4.9407e-06,1.0139e+07,-258.98,0,7.8595e+07,5.5115,12117,10867,1,10867,1,-0.00037731,-3.1852e-09,0,4.3042e-06,-8.0698e-05,-1.5347e+08,-1021.5,0,1.8143e+06,-191.45,10866,11508,1,11508,1,-0.0001908,-1.7089e-09,0,9.7553e-05,-4.5731e-05,-7.7602e+07,-555.28,0,3.9675e+07,-16.693,11507,12724,1,12724,1,0.00024435,1.6845e-11,0,0.00031512,3.5809e-05,8.9764e+07,5.1679,0,1.2322e+08,24.431,12723,702.88,0,702.88,0,0.00024205,1.0182e-09,0,0.00012252,4.5362e-05,9.3046e+07,332.9,0,4.6429e+07,73.42,702.88,1
2344,1.54,12116,1,12116,1,2.5686e-05,-1.6368e-09,0,0.00021164,-4.7533e-06,5.7087e+06,-534.99,0,8.1346e+07,-19,12115,13336,1,13336,1,0.0004337,5.8977e-10,0,0.0004337,7.1237e-05,1.5786e+08,180.79,0,1.5786e+08,119.9,13335,12118,1,12118,1,2.6954e-05,-1.5761e-09,0,0.00021467,-4.9732e-06,1.0206e+07,-512.92,0,7.911e+07,-13.504,12117,10867,1,10867,1,-0.00037979,-4.534e-09,0,4.3321e-06,-8.1229e-05,-1.5447e+08,-1454,0,1.8263e+06,-258.46,10866,11508,1,11508,1,-0.00019205,-2.6649e-09,0,9.8193e-05,-4.603e-05,-7.811e+07,-875.65,0,3.9936e+07,-43.511,11507,12724,1,12724,1,0.00024595,-5.1725e-10,0,0.00031719,3.6044e-05,9.0352e+07,-169.54,0,1.2403e+08,13.729,12723,702.88,0,702.88,0,0.00024364,1.2674e-09,0,0.00012333,4.5659e-05,9.3655e+07,414.28,0,4.6733e+07,44.642,702.88,1
2344,1.55,12116,1,12116,1,2.5852e-05,-6.041e-10,0,0.000213,-4.7839e-06,5.7455e+06,-197.6,0,8.187e+07,-9.4136,12115,13336,1,13336,1,0.00043649,4.0878e-09,0,0.00043649,7.1696e-05,1.5888e+08,1310.9,0,1.5888e+08,585.08,13335,12118,1,12118,1,2.7128e-05,-1.5861e-10,0,0.00021605,-5.0053e-06,1.0272e+07,-49.652,0,7.962e+07,-14.135,12117,10867,1,10867,1,-0.00038224,-5.3892e-09,0,4.3599e-06,-8.1752e-05,-1.5547e+08,-1728.3,0,1.8379e+06,-343.3,10866,11508,1,11508,1,-0.00019328,-2.262e-09,0,9.8825e-05,-4.6327e-05,-7.8614e+07,-726.52,0,4.0193e+07,-48.668,11507,12724,1,12724,1,0.00024754,8.9605e-10,0,0.00031923,3.6277e-05,9.0935e+07,283.21,0,1.2483e+08,40.386,12723,702.88,0,702.88,0,0.00024521,2.297e-09,0,0.00012412,4.5953e-05,9.4259e+07,750.95,0,4.7034e+07,75.062,702.88,1
2344,1.56,12116,1,12116,1,2.6019e-05,2.4682e-10,0,0.00021438,-4.8148e-06,5.7825e+06,80.539,0,8.2399e+07,-0.058038,12115,13336,1,13336,1,0.0004393,2.3453e-09,0,0.0004393,7.2157e-05,1.599e+08,752.68,0,1.599e+08,99.189,13335,12118,1,12118,1,2.7303e-05,2.3461e-10,0,0.00021745,-5.0375e-06,1.0338e+07,76.199,0,8.0135e+07,2.3529,12117,10867,1,10867,1,-0.00038469,-2.3066e-09,0,4.3883e-06,-8.2278e-05,-1.5647e+08,-762.61,0,1.85e+06,-226.21,10866,11508,1,11508,1,-0.00019454,-3.8244e-10,0,9.9464e-05,-4.6627e-05,-7.9124e+07,-127.46,0,4.0452e+07,-19.072,11507,12724,1,12724,1,0.00024914,1.0191e-09,0,0.0003213,3.6511e-05,9.1524e+07,333.72,0,1.2563e+08,22.727,12723,702.88,0,702.88,0,0.00024679,1.0422e-09,0,0.00012492,4.625e-05,9.4868e+07,341.2,0,4.7338e+07,32.553,702.88,1
2344,1.57,12116,1,12116,1,2.6185e-05,1.1866e-09,0,0.00021575,-4.8456e-06,5.8195e+06,387.41,0,8.2926e+07,-2.1241,12115,13336,1,13336,1,0.00044213,4.8553e-09,0,0.00044213,7.2621e-05,1.6093e+08,1549,0,1.6093e+08,144.67,13335,12118,1,12118,1,2.7477e-05,9.356e-10,0,0.00021884,-5.0697e-06,1.0404e+07,302.96,0,8.0646e+07,1.2851,12117,10867,1,10867,1,-0.00038717,-2.7246e-09,0,4.4161e-06,-8.2807e-05,-1.5748e+08,-904.04,0,1.8617e+06,-591.56,10866,11508,1,11508,1,-0.00019578,-2.5321e-10,0,0.0001001,-4.6924e-05,-7.9628e+07,-83.549,0,4.0712e+07,-39.663,11507,12724,1,12724,1,0.00025073,2.7261e-09,0,0.00032335,3.6744e-05,9.2108e+07,892.25,0,1.2644e+08,55.903,12723,702.88,0,702.88,0,0.00024837,1.7907e-09,0,0.00012572,4.6546e-05,9.5475e+07,583.81,0,4.7641e+07,81.149,702.88,1
2344,1.58,12116,1,12116,1,2.6353e-05,-6.1682e-10,0,0.00021713,-4.8767e-06,5.8568e+06,-201.68,0,8.3457e+07,-12.871,12115,13336,1,13336,1,0.00044495,1.5177e-09,0,0.00044495,7.3085e-05,1.6195e+08,519.48,0,1.6195e+08,62.713,13335,12118,1,12118,1,2.7654e-05,-3.3063e-10,0,0.00022024,-5.1023e-06,1.0471e+07,-107.4,0,8.1163e+07,-9.919,12117,10867,1,10867,1,-0.00038964,-3.3665e-09,0,4.4445e-06,-8.3336e-05,-1.5848e+08,-1079.6,0,1.8736e+06,-215.8,10866,11508,1,11508,1,-0.00019703,-1.4773e-09,0,0.00010074,-4.7226e-05,-8.0139e+07,-482.04,0,4.0972e+07,-32.476,11507,12724,1,12724,1,0.00025234,2.0239e-10,0,0.00032543,3.698e-05,9.2699e+07,66.129,0,1.2725e+08,15.752,12723,702.88,0,702.88,0,0.00024996,1.1801e-09,0,0.00012653,4.6844e-05,9.6086e+07,386.18,0,4.7946e+07,39.299,702.88,1
2344,1.59,12116,1,12116,1,2.6519e-05,-8.614e-10,0,0.0002185,-4.9075e-06,5.8938e+06,-281.6,0,8.3984e+07,-7.3118,12115,13336,1,13336,1,0.00044776,1.9313e-09,0,0.00044776,7.3547e-05,1.6298e+08,651.35,0,1.6298e+08,318.75,13335,12118,1,12118,1,2.7828e-05,-7.4664e-10,0,0.00022163,-5.1345e-06,1.0537e+07,-239.01,0,8.1676e+07,-8.4186,12117,10867,1,10867,1,-0.0003921,-3.4651e-09,0,4.4724e-06,-8.3862e-05,-1.5948e+08,-1111.2,0,1.8854e+06,-212.21,10866,11508,1,11508,1,-0.00019828,-1.7923e-09,0,0.00010138,-4.7524e-05,-8.0645e+07,-590.27,0,4.1231e+07,-26.114,11507,12724,1,12724,1,0.00025393,8.2485e-11,0,0.00032748,3.7213e-05,9.3284e+07,27.155,0,1.2805e+08,14.261,12723,702.88,0,702.88,0,0.00025154,1.2784e-09,0,0.00012733,4.714e-05,9.6693e+07,418.37,0,4.8249e+07,35.708,702.88,1
2344,1.6,12116,1,12116,1,2.6685e-05,1.8946e-09,0,0.00021987,-4.9381e-06,5.9307e+06,618.88,0,8.451e+07,22.788,12115,13336,1,13336,1,0.00045058,5.363e-09,0,0.00045058,7.4009e-05,1.64e+08,1706.9,0,1.64e+08,583.2,13335,12118,1,12118,1,2.8002e-05,1.8178e-09,0,0.00022302,-5.1665e-06,1.0603e+07,594.31,0,8.2187e+07,19.416,12117,10867,1,10867,1,-0.00039457,-1.2741e-09,0,4.5003e-06,-8.4389e-05,-1.6048e+08,-435.7,0,1.897e+06,-135.19,10866,11508,1,11508,1,-0.00019952,4.5543e-10,0,0.00010201,-4.7821e-05,-8.1149e+07,144.2,0,4.1489e+07,-10.396,11507,12724,1,12724,1,0.00025552,3.2592e-09,0,0.00032953,3.7446e-05,9.3867e+07,1076.6,0,1.2885e+08,52.578,12723,702.88,0,702.88,0,0.00025312,1.622e-09,0,0.00012812,4.7435e-05,9.7299e+07,528.79,0,4.8551e+07,63.565,702.88,1
2344,1.61,12116,1,12116,1,2.6852e-05,-1.2946e-09,0,0.00022124,-4.969e-06,5.9676e+06,-423.15,0,8.5037e+07,-2.3424,12115,13336,1,13336,1,0.00045338,4.4259e-09,0,0.00045338,7.447e-05,1.6502e+08,1438.9,0,1.6502e+08,193.79,13335,12118,1,12118,1,2.8177e-05,-9.8811e-10,0,0.00022441,-5.1989e-06,1.0669e+07,-321.72,0,8.2698e+07,-9.9153,12117,10867,1,10867,1,-0.00039703,-6.1477e-09,0,4.5283e-06,-8.4915e-05,-1.6149e+08,-1971.5,0,1.9089e+06,-161.33,10866,11508,1,11508,1,-0.00020076,-2.9986e-09,0,0.00010265,-4.8119e-05,-8.1655e+07,-980.02,0,4.1747e+07,-41.265,11507,12724,1,12724,1,0.00025711,2.8569e-10,0,0.00033158,3.768e-05,9.4452e+07,91.806,0,1.2965e+08,35.826,12723,702.88,0,702.88,0,0.00025469,2.3902e-09,0,0.00012892,4.7731e-05,9.7905e+07,782.29,0,4.8853e+07,59.625,702.88,1
2344,1.62,12116,1,12116,1,2.702e-05,-7.9485e-10,0,0.00022262,-5e-06,6.0049e+06,-260.05,0,8.5568e+07,16.972,12115,13336,1,13336,1,0.0004562,2.5828e-09,0,0.0004562,7.4934e-05,1.6605e+08,828.31,0,1.6605e+08,675.04,13335,12118,1,12118,1,2.8353e-05,-5.6043e-10,0,0.00022581,-5.2313e-06,1.0736e+07,-181.92,0,8.3215e+07,13.927,12117,10867,1,10867,1,-0.0003995,-4.1809e-09,0,4.5565e-06,-8.5444e-05,-1.6249e+08,-1340.7,0,1.9208e+06,-76.063,10866,11508,1,11508,1,-0.00020202,-2.0142e-09,0,0.00010329,-4.842e-05,-8.2165e+07,-656.84,0,4.2008e+07,-14.79,11507,12724,1,12724,1,0.00025872,3.0891e-10,0,0.00033365,3.7915e-05,9.5043e+07,101.69,0,1.3046e+08,37.231,12723,702.88,0,702.88,0,0.00025628,1.6558e-09,0,0.00012973,4.8029e-05,9.8516e+07,541.54,0,4.9159e+07,59.726,702.88,1
2344,1.63,12116,1,12116,1,2.7187e-05,9.7288e-10,0,0.000224,-5.0309e-06,6.042e+06,317.97,0,8.6096e+07,4.922,12115,13336,1,13336,1,0.00045902,4.4164e-09,0,0.00045902,7.5397e-05,1.6708e+08,1416.3,0,1.6708e+08,101.19,13335,12118,1,12118,1,2.8528e-05,6.7355e-10,0,0.00022721,-5.2637e-06,1.0802e+07,219.55,0,8.3729e+07,8.8566,12117,10867,1,10867,1,-0.00040196,-2.0899e-09,0,4.5844e-06,-8.5972e-05,-1.6349e+08,-694.12,0,1.9326e+06,-280.8,10866,11508,1,11508,1,-0.00020326,-1.9522e-10,0,0.00010393,-4.8718e-05,-8.2672e+07,-64.571,0,4.2267e+07,-22.545,11507,12724,1,12724,1,0.00026032,2.1798e-09,0,0.00033571,3.8149e-05,9.563e+07,706.99,0,1.3127e+08,42.082,12723,702.88,0,702.88,0,0.00025787,1.4769e-09,0,0.00013053,4.8325e-05,9.9124e+07,482.41,0,4.9462e+07,50.28,702.88,1
2344,1.64,12116,1,12116,1,2.7355e-05,2.2804e-10,0,0.00022538,-5.062e-06,6.0793e+06,74.618,0,8.6629e+07,20.447,12115,13336,1,13336,1,0.00046185,2.6281e-09,0,0.00046185,7.586e-05,1.681e+08,883.61,0,1.681e+08,1295,13335,12118,1,12118,1,2.8705e-05,2.1237e-10,0,0.00022862,-5.2962e-06,1.0869e+07,69.921,0,8.4248e+07,9.6511,12117,10867,1,10867,1,-0.00040444,-2.9191e-09,0,4.6127e-06,-8.6501e-05,-1.645e+08,-981.17,0,1.9443e+06,-129.18,10866,11508,1,11508,1,-0.00020452,2.8567e-11,0,0.00010457,-4.902e-05,-8.3185e+07,8.9813,0,4.2529e+07,-3.0222,11507,12724,1,12724,1,0.00026193,3.7436e-10,0,0.00033779,3.8385e-05,9.6222e+07,122.39,0,1.3208e+08,21.495,12723,702.88,0,702.88,0,0.00025946,3.5036e-10,0,0.00013134,4.8624e-05,9.9738e+07,116.07,0,4.9768e+07,91.772,702.88,1
2344,1.65,12116,1,12116,1,2.7522e-05,3.948e-10,0,0.00022676,-5.0929e-06,6.1164e+06,129,0,8.7156e+07,-0.29952,12115,13336,1,13336,1,0.00046466,2.2256e-09,0,0.00046466,7.6322e-05,1.6913e+08,713.74,0,1.6913e+08,206.77,13335,12118,1,12118,1,2.888e-05,2.2937e-10,0,0.00023001,-5.3285e-06,1.0935e+07,74.64,0,8.476e+07,-0.57604,12117,10867,1,10867,1,-0.0004069,-5.9829e-10,0,4.6404e-06,-8.7027e-05,-1.655e+08,-191.88,0,1.9563e+06,-156.55,10866,11508,1,11508,1,-0.00020577,-9.718e-11,0,0.0001052,-4.9319e-05,-8.3691e+07,-30.285,0,4.2787e+07,-15.288,11507,12724,1,12724,1,0.00026353,8.0966e-10,0,0.00033985,3.8619e-05,9.6808e+07,267.21,0,1.3289e+08,16.593,12723,702.88,0,702.88,0,0.00026104,6.5363e-10,0,0.00013214,4.892e-05,1.0034e+08,214.23,0,5.0071e+07,31.384,702.88,1
2344,1.66,12116,1,12116,1,2.7688e-05,7.5532e-10,0,0.00022812,-5.1237e-06,6.1532e+06,246.73,0,8.7681e+07,-2.1667,12115,13336,1,13336,1,0.00046747,3.9013e-09,0,0.00046747,7.6784e-05,1.7015e+08,1251.2,0,1.7015e+08,147.36,13335,12118,1,12118,1,2.9054e-05,4.0731e-10,0,0.00023139,-5.3607e-06,1.1001e+07,133.09,0,8.5271e+07,0.24537,12117,10867,1,10867,1,-0.00040936,-1.0335e-09,0,4.6684e-06,-8.7554e-05,-1.665e+08,-353.77,0,1.9681e+06,-194.13,10866,11508,1,11508,1,-0.00020701,-1.8514e-10,0,0.00010584,-4.9616e-05,-8.4195e+07,-58.621,0,4.3045e+07,-21.748,11507,12724,1,12724,1,0.00026511,1.6226e-09,0,0.0003419,3.8852e-05,9.7392e+07,535.45,0,1.3369e+08,26.373,12723,702.88,0,702.88,0,0.00026262,1.2158e-09,0,0.00013293,4.9215e-05,1.0095e+08,398.02,0,5.0373e+07,39.335,702.88,1
2344,1.67,12116,1,12116,1,2.7855e-05,1.3841e-09,0,0.0002295,-5.1545e-06,6.1903e+06,452.61,0,8.8209e+07,11.601,12115,13336,1,13336,1,0.0004703,5.0387e-09,0,0.0004703,7.7248e-05,1.7118e+08,1613.9,0,1.7118e+08,175.45,13335,12118,1,12118,1,2.9229e-05,1.1086e-09,0,0.00023278,-5.393e-06,1.1068e+07,358.87,0,8.5784e+07,12.772,12117,10867,1,10867,1,-0.00041183,-2.2307e-09,0,4.6961e-06,-8.8083e-05,-1.6751e+08,-736.89,0,1.9798e+06,-234.51,10866,11508,1,11508,1,-0.00020825,-8.643e-11,0,0.00010648,-4.9914e-05,-8.4701e+07,-28.602,0,4.3305e+07,-27.998,11507,12724,1,12724,1,0.00026671,2.9888e-09,0,0.00034395,3.9085e-05,9.7977e+07,978.4,0,1.3449e+08,55.417,12723,702.88,0,702.88,0,0.0002642,1.8657e-09,0,0.00013373,4.9512e-05,1.0156e+08,610.03,0,5.0676e+07,62.074,702.88,1
2344,1.68,12116,1,12116,1,2.8022e-05,7.4456e-10,0,0.00023087,-5.1855e-06,6.2274e+06,243.52,0,8.8737e+07,-3.8804,12115,13336,1,13336,1,0.0004731,4.2238e-09,0,0.0004731,7.7708e-05,1.722e+08,1354.4,0,1.722e+08,158.03,13335,12118,1,12118,1,2.9405e-05,4.1176e-10,0,0.00023418,-5.4254e-06,1.1134e+07,136.92,0,8.6298e+07,-2.6769,12117,10867,1,10867,1,-0.00041429,-2.034e-09,0,4.7237e-06,-8.8608e-05,-1.6851e+08,-668.81,0,1.9914e+06,-246.87,10866,11508,1,11508,1,-0.0002095,-3.7772e-10,0,0.00010711,-5.0214e-05,-8.5208e+07,-121.76,0,4.3563e+07,-33.725,11507,12724,1,12724,1,0.00026831,1.9702e-09,0,0.00034601,3.9319e-05,9.8564e+07,636.94,0,1.353e+08,38.006,12723,702.88,0,702.88,0,0.00026578,1.5291e-09,0,0.00013453,4.9808e-05,1.0216e+08,500.3,0,5.0979e+07,51.101,702.88,1
2344,1.69,12116,1,12116,1,2.8189e-05,2.9103e-09,0,0.00023224,-5.2163e-06,6.2644e+06,951.26,0,8.9265e+07,24.551,12115,13336,1,13336,1,0.00047595,8.4048e-09,0,0.00047595,7.8176e-05,1.7323e+08,2678.6,0,1.7323e+08,281.03,13335,12118,1,12118,1,2.958e-05,2.8413e-09,0,0.00023557,-5.4576e-06,1.12e+07,926.48,0,8.6811e+07,26.269,12117,10867,1,10867,1,-0.00041678,-2.0022e-09,0,4.7516e-06,-8.9141e-05,-1.6952e+08,-685.6,0,2.0031e+06,-364.82,10866,11508,1,11508,1,-0.00021074,5.7116e-10,0,0.00010775,-5.0511e-05,-8.5713e+07,188.07,0,4.3824e+07,-26.963,11507,12724,1,12724,1,0.00026989,5.0497e-09,0,0.00034806,3.9552e-05,9.9147e+07,1662.9,0,1.361e+08,85.735,12723,702.88,0,702.88,0,0.00026736,2.6337e-09,0,0.00013533,5.0104e-05,1.0277e+08,861.05,0,5.1282e+07,93.261,702.88,1
2344,1.7,12116,1,12116,1,2.8356e-05,2.2283e-09,0,0.00023362,-5.2473e-06,6.3015e+06,728.53,0,8.9794e+07,17.109,12115,13336,1,13336,1,0.00047875,6.1705e-09,0,0.00047875,7.8637e-05,1.7425e+08,1968.2,0,1.7425e+08,198.67,13335,12118,1,12118,1,2.9755e-05,2.0983e-09,0,0.00023697,-5.49e-06,1.1267e+07,681.41,0,8.7325e+07,13.724,12117,10867,1,10867,1,-0.00041924,-1.1286e-09,0,4.7798e-06,-8.9667e-05,-1.7052e+08,-386.35,0,2.015e+06,-251.71,10866,11508,1,11508,1,-0.00021199,3.5793e-10,0,0.00010839,-5.0811e-05,-8.6222e+07,118.12,0,4.4083e+07,-22.441,11507,12724,1,12724,1,0.0002715,3.9469e-09,0,0.00035013,3.9787e-05,9.9736e+07,1283,0,1.369e+08,55.296,12723,702.88,0,702.88,0,0.00026894,1.9709e-09,0,0.00013614,5.0401e-05,1.0338e+08,644.38,0,5.1586e+07,64.146,702.88,1
2344,1.71,12116,1,12116,1,2.8522e-05,2.1439e-09,0,0.00023499,-5.278e-06,6.3383e+06,701.06,0,9.0319e+07,31.083,12115,13336,1,13336,1,0.00048156,7.2534e-09,0,0.00048156,7.9098e-05,1.7527e+08,2314.6,0,1.7527e+08,451.54,13335,12118,1,12118,1,2.9929e-05,2.0073e-09,0,0.00023835,-5.522e-06,1.1333e+07,650.76,0,8.7836e+07,27.253,12117,10867,1,10867,1,-0.0004217,-3.4587e-09,0,4.8075e-06,-9.0192e-05,-1.7152e+08,-1133.4,0,2.0268e+06,-255.94,10866,11508,1,11508,1,-0.00021323,-5.1869e-11,0,0.00010903,-5.1108e-05,-8.6726e+07,-16.187,0,4.4341e+07,-30.767,11507,12724,1,12724,1,0.00027309,4.3855e-09,0,0.00035218,4.002e-05,1.0032e+08,1444.3,0,1.3771e+08,86.598,12723,702.88,0,702.88,0,0.00027052,2.6392e-09,0,0.00013693,5.0696e-05,1.0399e+08,862.93,0,5.1888e+07,88.974,702.88,1
2344,1.72,12116,1,12116,1,2.869e-05,8.9004e-10,0,0.00023637,-5.3092e-06,6.3757e+06,291.02,0,9.0851e+07,5.7802,12115,13336,1,13336,1,0.00048437,4.1184e-09,0,0.00048437,7.956e-05,1.7629e+08,1319.7,0,1.7629e+08,244.89,13335,12118,1,12118,1,3.0106e-05,5.276e-10,0,0.00023976,-5.5548e-06,1.14e+07,171.74,0,8.8354e+07,4.3329,12117,10867,1,10867,1,-0.00042416,-9.8893e-10,0,4.8354e-06,-9.072e-05,-1.7252e+08,-317.75,0,2.0385e+06,-238.18,10866,11508,1,11508,1,-0.00021449,-1.719e-10,0,0.00010966,-5.141e-05,-8.7239e+07,-54.529,0,4.4601e+07,-20.033,11507,12724,1,12724,1,0.0002747,1.9215e-09,0,0.00035426,4.0256e-05,1.0091e+08,623.41,0,1.3852e+08,40.664,12723,702.88,0,702.88,0,0.00027211,1.324e-09,0,0.00013774,5.0995e-05,1.046e+08,433.36,0,5.2193e+07,48.143,702.88,1
2344,1.73,12116,1,12116,1,2.8858e-05,1.9259e-09,0,0.00023775,-5.3399e-06,6.4128e+06,629.45,0,9.138e+07,94.486,12115,13336,1,13336,1,0.00048721,5.2069e-09,0,0.00048721,8.0025e-05,1.7732e+08,1669.9,0,1.7732e+08,2057.2,13335,12118,1,12118,1,3.0282e-05,1.9277e-09,0,0.00024116,-5.5867e-06,1.1466e+07,626,0,8.8868e+07,42.961,12117,10867,1,10867,1,-0.00042664,-1.7286e-09,0,4.8636e-06,-9.125e-05,-1.7353e+08,-569.54,0,2.05e+06,-136.73,10866,11508,1,11508,1,-0.00021573,4.7279e-10,0,0.0001103,-5.1709e-05,-8.7745e+07,159.04,0,4.4861e+07,1.724,11507,12724,1,12724,1,0.0002763,3.2659e-09,0,0.00035631,4.049e-05,1.015e+08,1066.7,0,1.3932e+08,109.17,12723,702.88,0,702.88,0,0.0002737,1.592e-09,0,0.00013854,5.1292e-05,1.0521e+08,519.48,0,5.2497e+07,216.31,702.88,1
2344,1.74,12116,1,12116,1,2.9024e-05,1.3623e-09,0,0.00023911,-5.3708e-06,6.4496e+06,445.55,0,9.1904e+07,42.186,12115,13336,1,13336,1,0.00049,5.6759e-09,0,0.00049,8.0484e-05,1.7834e+08,1813.6,0,1.7834e+08,976.57,13335,12118,1,12118,1,3.0456e-05,1.1458e-09,0,0.00024254,-5.6191e-06,1.1532e+07,378.03,0,8.9378e+07,30.139,12117,10867,1,10867,1,-0.00042909,-4.1148e-09,0,4.8909e-06,-9.1774e-05,-1.7453e+08,-1333.4,0,2.0618e+06,-180.35,10866,11508,1,11508,1,-0.00021697,-3.3884e-10,0,0.00011094,-5.2006e-05,-8.8249e+07,-109.9,0,4.5118e+07,-21.895,11507,12724,1,12724,1,0.00027788,3.3802e-09,0,0.00035836,4.0722e-05,1.0208e+08,1103.9,0,1.4012e+08,86.097,12723,702.88,0,702.88,0,0.00027526,2.3405e-09,0,0.00013934,5.1586e-05,1.0581e+08,765.19,0,5.2798e+07,123.15,702.88,1
2344,1.75,12116,1,12116,1,2.9193e-05,-7.5831e-10,0,0.0002405,-5.4022e-06,6.4871e+06,-247.83,0,9.2438e+07,-11.777,12115,13336,1,13336,1,0.00049283,1.1054e-09,0,0.00049283,8.0949e-05,1.7937e+08,378.4,0,1.7937e+08,246.93,13335,12118,1,12118,1,3.0633e-05,-7.5785e-10,0,0.00024395,-5.6521e-06,1.1599e+07,-247.39,0,8.9898e+07,-4.4159,12117,10867,1,10867,1,-0.00043157,-2.3237e-09,0,4.9193e-06,-9.2304e-05,-1.7553e+08,-745.19,0,2.0739e+06,-317.49,10866,11508,1,11508,1,-0.00021823,-1.4385e-09,0,0.00011158,-5.2309e-05,-8.8762e+07,-469.06,0,4.538e+07,-25.248,11507,12724,1,12724,1,0.0002795,-9.944e-11,0,0.00036044,4.0959e-05,1.0268e+08,-32.051,0,1.4094e+08,13.458,12723,702.88,0,702.88,0,0.00027686,7.7166e-10,0,0.00014015,5.1886e-05,1.0643e+08,252.47,0,5.3105e+07,49.583,702.88,1
2344,1.76,12116,1,12116,1,2.9358e-05,2.195e-09,0,0.00024186,-5.4326e-06,6.5238e+06,717.75,0,9.2961e+07,34.928,12115,13336,1,13336,1,0.00049565,7.4004e-09,0,0.00049565,8.1411e-05,1.8039e+08,2362.6,0,1.8039e+08,653.65,13335,12118,1,12118,1,3.0806e-05,2.0204e-09,0,0.00024533,-5.6839e-06,1.1665e+07,651.56,0,9.0405e+07,29.938,12117,10867,1,10867,1,-0.00043403,-3.3139e-09,0,4.9466e-06,-9.2831e-05,-1.7654e+08,-1077.5,0,2.0854e+06,-448.91,10866,11508,1,11508,1,-0.00021946,-1.8714e-11,0,0.00011221,-5.2603e-05,-8.9262e+07,-6.3369,0,4.5638e+07,-25.712,11507,12724,1,12724,1,0.00028108,4.3872e-09,0,0.00036247,4.119e-05,1.0326e+08,1439.2,0,1.4173e+08,97.535,12723,702.88,0,702.88,0,0.00027843,2.5671e-09,0,0.00014094,5.2179e-05,1.0703e+08,838.77,0,5.3405e+07,98.971,702.88,1
2344,1.77,12116,1,12116,1,2.9527e-05,8.7141e-10,0,0.00024325,-5.464e-06,6.5612e+06,284.88,0,9.3494e+07,3.6614,12115,13336,1,13336,1,0.00049847,2.7089e-09,0,0.00049847,8.1875e-05,1.8142e+08,878.38,0,1.8142e+08,423.24,13335,12118,1,12118,1,3.0984e-05,8.5982e-10,0,0.00024674,-5.7167e-06,1.1732e+07,280.12,0,9.0925e+07,8.7215,12117,10867,1,10867,1,-0.0004365,-1.4894e-09,0,4.9749e-06,-9.336e-05,-1.7754e+08,-509.94,0,2.0974e+06,-547.25,10866,11508,1,11508,1,-0.00022073,1.61e-11,0,0.00011285,-5.2906e-05,-8.9776e+07,5.538,0,4.5899e+07,-13.378,11507,12724,1,12724,1,0.00028269,1.6624e-09,0,0.00036456,4.1427e-05,1.0385e+08,544.1,0,1.4255e+08,32.729,12723,702.88,0,702.88,0,0.00028003,9.6998e-10,0,0.00014175,5.2479e-05,1.0764e+08,317.24,0,5.3712e+07,63.343,702.88,1
2344,1.78,12116,1,12116,1,2.9693e-05,2.0599e-09,0,0.00024462,-5.4948e-06,6.5981e+06,673.36,0,9.402e+07,7.3472,12115,13336,1,13336,1,0.00050129,4.927e-09,0,0.00050129,8.2338e-05,1.8244e+08,1570.7,0,1.8244e+08,131.14,13335,12118,1,12118,1,3.1158e-05,2.1241e-09,0,0.00024813,-5.749e-06,1.1798e+07,685.58,0,9.1437e+07,10.875,12117,10867,1,10867,1,-0.00043897,-8.9637e-10,0,5.0025e-06,-9.3888e-05,-1.7854e+08,-306.95,0,2.109e+06,-468.13,10866,11508,1,11508,1,-0.00022197,6.4458e-10,0,0.00011349,-5.3203e-05,-9.0281e+07,206.05,0,4.6157e+07,-10.063,11507,12724,1,12724,1,0.00028428,3.4001e-09,0,0.00036661,4.166e-05,1.0443e+08,1113.7,0,1.4335e+08,40.502,12723,702.88,0,702.88,0,0.00028161,1.5501e-09,0,0.00014255,5.2774e-05,1.0825e+08,507.22,0,5.4014e+07,58.193,702.88,1
2344,1.79,12116,1,12116,1,2.9861e-05,-8.4334e-12,0,0.000246,-5.5259e-06,6.6354e+06,-2.8156,0,9.4551e+07,-18.269,12115,13336,1,13336,1,0.00050409,1.3075e-09,0,0.00050409,8.2798e-05,1.8346e+08,447.57,0,1.8346e+08,52.664,13335,12118,1,12118,1,3.1335e-05,-8.3826e-11,0,0.00024953,-5.7816e-06,1.1865e+07,-27.047,0,9.1953e+07,-9.4125,12117,10867,1,10867,1,-0.00044142,-4.5217e-10,0,5.0303e-06,-9.4413e-05,-1.7954e+08,-144.57,0,2.1207e+06,-230.28,10866,11508,1,11508,1,-0.00022322,-2.3079e-10,0,0.00011413,-5.3505e-05,-9.0792e+07,-75.787,0,4.6416e+07,-26.3,11507,12724,1,12724,1,0.00028589,1.1036e-10,0,0.00036869,4.1896e-05,1.0503e+08,34.264,0,1.4416e+08,0.52923,12723,702.88,0,702.88,0,0.00028319,3.2502e-10,0,0.00014335,5.3072e-05,1.0886e+08,106.94,0,5.4319e+07,35.273,702.88,1
2344,1.8,12116,1,12116,1,3.0029e-05,-7.0358e-10,0,0.00024738,-5.5569e-06,6.6725e+06,-230.02,0,9.508e+07,-11.24,12115,13336,1,13336,1,0.00050692,2.3864e-10,0,0.00050692,8.3262e-05,1.8449e+08,79.56,0,1.8449e+08,246.56,13335,12118,1,12118,1,3.1511e-05,-7.3178e-10,0,0.00025093,-5.814e-06,1.1931e+07,-238.69,0,9.2468e+07,-4.3551,12117,10867,1,10867,1,-0.0004439,-1.7687e-09,0,5.0585e-06,-9.4942e-05,-1.8055e+08,-594.19,0,2.1326e+06,-253.17,10866,11508,1,11508,1,-0.00022447,-1.0568e-09,0,0.00011477,-5.3804e-05,-9.13e+07,-342.32,0,4.6677e+07,-19.547,11507,12724,1,12724,1,0.00028749,-3.5009e-10,0,0.00037075,4.213e-05,1.0561e+08,-113.57,0,1.4497e+08,4.566,12723,702.88,0,702.88,0,0.00028478,4.6029e-10,0,0.00014415,5.3369e-05,1.0947e+08,150.5,0,5.4623e+07,32.195,702.88,1
2344,1.81,12116,1,12116,1,3.0194e-05,1.8424e-09,0,0.00024874,-5.5875e-06,6.7093e+06,602.29,0,9.5604e+07,9.4467,12115,13336,1,13336,1,0.00050974,5.4806e-09,0,0.00050974,8.3725e-05,1.8552e+08,1756.6,0,1.8552e+08,167.02,13335,12118,1,12118,1,3.1684e-05,1.6482e-09,0,0.00025231,-5.8459e-06,1.1997e+07,532.69,0,9.2977e+07,14.741,12117,10867,1,10867,1,-0.00044636,-1.3556e-09,0,5.0859e-06,-9.547e-05,-1.8155e+08,-464.15,0,2.1442e+06,-209.23,10866,11508,1,11508,1,-0.00022571,2.116e-10,0,0.0001154,-5.41e-05,-9.1801e+07,67.959,0,4.6934e+07,-20.454,11507,12724,1,12724,1,0.00028907,3.347e-09,0,0.00037279,4.2362e-05,1.0619e+08,1089.2,0,1.4576e+08,51.367,12723,702.88,0,702.88,0,0.00028635,1.7878e-09,0,0.00014495,5.3663e-05,1.1007e+08,584.98,0,5.4923e+07,62.193,702.88,1
2344,1.82,12116,1,12116,1,3.0362e-05,7.9034e-11,0,0.00025012,-5.6185e-06,6.7463e+06,26.06,0,9.6133e+07,-3.3325,12115,13336,1,13336,1,0.00051254,3.6065e-09,0,0.00051254,8.4185e-05,1.8653e+08,1156.5,0,1.8653e+08,129.67,13335,12118,1,12118,1,3.186e-05,6.3448e-11,0,0.00025371,-5.8784e-06,1.2064e+07,20.325,0,9.3492e+07,-1.3526,12117,10867,1,10867,1,-0.00044882,-2.6828e-09,0,5.1135e-06,-9.5994e-05,-1.8255e+08,-860.41,0,2.1559e+06,-266.51,10866,11508,1,11508,1,-0.00022696,-1.0797e-09,0,0.00011604,-5.4401e-05,-9.2311e+07,-351.62,0,4.7193e+07,-35.214,11507,12724,1,12724,1,0.00029068,1.1094e-09,0,0.00037485,4.2597e-05,1.0678e+08,361.63,0,1.4657e+08,35.379,12723,702.88,0,702.88,0,0.00028793,1.5284e-09,0,0.00014575,5.396e-05,1.1068e+08,499.34,0,5.5227e+07,61.769,702.88,1
2344,1.83,12116,1,12116,1,3.0529e-05,-1.1382e-09,0,0.00025149,-5.6496e-06,6.7833e+06,-371.53,0,9.6658e+07,-27.963,12115,13336,1,13336,1,0.00051536,2.35e-09,0,0.00051536,8.4648e-05,1.8755e+08,794.44,0,1.8755e+08,72.817,13335,12118,1,12118,1,3.2036e-05,-9.2541e-10,0,0.00025509,-5.9109e-06,1.213e+07,-302.39,0,9.4003e+07,-21.39,12117,10867,1,10867,1,-0.00045128,-4.7123e-09,0,5.1402e-06,-9.6523e-05,-1.8355e+08,-1511.2,0,2.1671e+06,-262.46,10866,11508,1,11508,1,-0.0002282,-2.3513e-09,0,0.00011667,-5.4698e-05,-9.2814e+07,-768.07,0,4.7451e+07,-64.74,11507,12724,1,12724,1,0.00029227,1.782e-10,0,0.0003769,4.2829e-05,1.0737e+08,57.741,0,1.4737e+08,16.347,12723,702.88,0,702.88,0,0.00028951,1.609e-09,0,0.00014655,5.4255e-05,1.1128e+08,524.87,0,5.5529e+07,55.691,702.88,1
2344,1.84,12116,1,12116,1,3.0697e-05,-1.7815e-09,0,0.00025286,-5.6805e-06,6.8202e+06,-581.78,0,9.7185e+07,-22.066,12115,13336,1,13336,1,0.00051818,2.9304e-09,0,0.00051818,8.5111e-05,1.8857e+08,966.23,0,1.8857e+08,93.454,13335,12118,1,12118,1,3.2211e-05,-1.711e-09,0,0.00025649,-5.9433e-06,1.2197e+07,-563.11,0,9.4517e+07,-10.556,12117,10867,1,10867,1,-0.00045375,-6.0621e-09,0,5.1675e-06,-9.7051e-05,-1.8456e+08,-1944,0,2.1787e+06,-256.75,10866,11508,1,11508,1,-0.00022944,-3.556e-09,0,0.00011731,-5.4996e-05,-9.332e+07,-1162.5,0,4.771e+07,-57.512,11507,12724,1,12724,1,0.00029386,-4.2049e-11,0,0.00037895,4.3062e-05,1.0795e+08,-14.398,0,1.4817e+08,22.199,12723,702.88,0,702.88,0,0.00029109,2.1107e-09,0,0.00014735,5.4552e-05,1.1189e+08,689.22,0,5.5831e+07,61.949,702.88,1
2344,1.85,12116,1,12116,1,3.0866e-05,-3.5861e-10,0,0.00025424,-5.7119e-06,6.8576e+06,-117.11,0,9.7717e+07,-13.612,12115,13336,1,13336,1,0.00052099,6.7545e-10,0,0.00052099,8.5573e-05,1.8959e+08,231.29,0,1.8959e+08,31.263,13335,12118,1,12118,1,3.2389e-05,-3.3973e-10,0,0.0002579,-5.9762e-06,1.2264e+07,-110.13,0,9.5036e+07,-2.5475,12117,10867,1,10867,1,-0.00045621,-1.2998e-09,0,5.1946e-06,-9.7578e-05,-1.8556e+08,-438.73,0,2.1901e+06,-234.87,10866,11508,1,11508,1,-0.0002307,-6.167e-10,0,0.00011795,-5.5299e-05,-9.3833e+07,-201.42,0,4.797e+07,-20.713,11507,12724,1,12724,1,0.00029548,-6.0362e-11,0,0.00038104,4.3299e-05,1.0855e+08,-19.095,0,1.4899e+08,4.7131,12723,702.88,0,702.88,0,0.00029268,3.7722e-10,0,0.00014815,5.485e-05,1.125e+08,123.53,0,5.6137e+07,31.939,702.88,1
2344,1.86,12116,1,12116,1,3.1034e-05,-2.2316e-09,0,0.00025561,-5.7429e-06,6.8946e+06,-728.94,0,9.8243e+07,-33.329,12115,13336,1,13336,1,0.00052383,1.2637e-09,0,0.00052383,8.6038e-05,1.9061e+08,432.69,0,1.9061e+08,100.13,13335,12118,1,12118,1,3.2565e-05,-2.1654e-09,0,0.00025928,-6.0086e-06,1.2331e+07,-699.16,0,9.5547e+07,-25.49,12117,10867,1,10867,1,-0.0004587,-6.5574e-09,0,5.2211e-06,-9.8109e-05,-1.8657e+08,-2102.9,0,2.2013e+06,-313.74,10866,11508,1,11508,1,-0.00023194,-3.7442e-09,0,0.00011859,-5.5596e-05,-9.4335e+07,-1218.3,0,4.8229e+07,-71.044,11507,12724,1,12724,1,0.00029706,-5.8195e-10,0,0.00038308,4.353e-05,1.0913e+08,-189.09,0,1.4979e+08,15.864,12723,702.88,0,702.88,0,0.00029426,1.8868e-09,0,0.00014895,5.5146e-05,1.1311e+08,615.34,0,5.6438e+07,65.428,702.88,1
2344,1.87,12116,1,12116,1,3.1203e-05,-3.7206e-10,0,0.00025699,-5.7742e-06,6.9319e+06,-121.52,0,9.8773e+07,-21.029,12115,13336,1,13336,1,0.00052663,5.7877e-10,0,0.00052663,8.6498e-05,1.9162e+08,198.2,0,1.9162e+08,27.042,13335,12118,1,12118,1,3.2742e-05,-2.1905e-10,0,0.00026069,-6.0413e-06,1.2398e+07,-71.455,0,9.6064e+07,-14.701,12117,10867,1,10867,1,-0.00046115,-1.4306e-09,0,5.2481e-06,-9.8634e-05,-1.8757e+08,-456.83,0,2.2128e+06,-221.97,10866,11508,1,11508,1,-0.00023319,-6.4872e-10,0,0.00011922,-5.5898e-05,-9.4846e+07,-214.11,0,4.8488e+07,-31.459,11507,12724,1,12724,1,0.00029868,-4.1516e-11,0,0.00038516,4.3766e-05,1.0972e+08,-13.737,0,1.506e+08,-0.45543,12723,702.88,0,702.88,0,0.00029585,4.4825e-10,0,0.00014976,5.5444e-05,1.1372e+08,146.64,0,5.6742e+07,33.19,702.88,1
2344,1.88,12116,1,12116,1,3.1369e-05,-1.8376e-09,0,0.00025836,-5.805e-06,6.9685e+06,-600.17,0,9.9296e+07,-24.991,12115,13336,1,13336,1,0.00052946,4.4773e-09,0,0.00052946,8.6962e-05,1.9264e+08,1458.2,0,1.9264e+08,171.44,13335,12118,1,12118,1,3.2917e-05,-1.6181e-09,0,0.00026207,-6.0734e-06,1.2464e+07,-533.6,0,9.6572e+07,-17.673,12117,10867,1,10867,1,-0.00046362,-8.2327e-09,0,5.2748e-06,-9.9163e-05,-1.8857e+08,-2640.1,0,2.2241e+06,-331.5,10866,11508,1,11508,1,-0.00023442,-4.2589e-09,0,0.00011986,-5.6193e-05,-9.5346e+07,-1395.7,0,4.8746e+07,-89.04,11507,12724,1,12724,1,0.00030025,2.8571e-10,0,0.00038719,4.3997e-05,1.103e+08,91.488,0,1.5139e+08,42.006,12723,702.88,0,702.88,0,0.00029742,2.9961e-09,0,0.00015055,5.5738e-05,1.1432e+08,978.4,0,5.7043e+07,89.948,702.88,1
2344,1.89,12116,1,12116,1,3.1537e-05,-2.0033e-09,0,0.00025973,-5.8361e-06,7.0056e+06,-654.24,0,9.9824e+07,-34.545,12115,13336,1,13336,1,0.00053227,2.8062e-09,0,0.00053227,8.7424e-05,1.9366e+08,940.74,0,1.9366e+08,135.51,13335,12118,1,12118,1,3.3093e-05,-1.6255e-09,0,0.00026346,-6.1061e-06,1.2531e+07,-530.81,0,9.7087e+07,-25.634,12117,10867,1,10867,1,-0.00046608,-7.5289e-09,0,5.3017e-06,-9.9691e-05,-1.8957e+08,-2414.4,0,2.2354e+06,-315.53,10866,11508,1,11508,1,-0.00023567,-3.9146e-09,0,0.00012049,-5.6492e-05,-9.5853e+07,-1279.2,0,4.9005e+07,-86.575,11507,12724,1,12724,1,0.00030185,6.146e-11,0,0.00038925,4.4231e-05,1.1089e+08,19.193,0,1.522e+08,19.679,12723,702.88,0,702.88,0,0.000299,2.3916e-09,0,0.00015135,5.6034e-05,1.1493e+08,780.74,0,5.7345e+07,75.426,702.88,1
2344,1.9,12116,1,12116,1,3.1706e-05,-2.0759e-09,0,0.00026111,-5.8674e-06,7.0429e+06,-678.17,0,1.0036e+08,-30.226,12115,13336,1,13336,1,0.00053511,1.6188e-09,0,0.00053511,8.7888e-05,1.9468e+08,554.26,0,1.9468e+08,111.81,13335,12118,1,12118,1,3.327e-05,-1.9283e-09,0,0.00026487,-6.1388e-06,1.2598e+07,-627.23,0,9.7604e+07,-20.734,12117,10867,1,10867,1,-0.00046856,-6.7228e-09,0,5.3285e-06,-0.00010022,-1.9058e+08,-2155.9,0,2.2468e+06,-334.02,10866,11508,1,11508,1,-0.00023692,-3.5186e-09,0,0.00012113,-5.6793e-05,-9.6363e+07,-1152.5,0,4.9265e+07,-71.831,11507,12724,1,12724,1,0.00030346,-4.453e-10,0,0.00039132,4.4466e-05,1.1148e+08,-148.31,0,1.5301e+08,22.072,12723,702.88,0,702.88,0,0.00030059,1.9236e-09,0,0.00015216,5.6332e-05,1.1554e+08,627.44,0,5.765e+07,69.753,702.88,1
2344,1.91,12116,1,12116,1,3.1874e-05,-5.3006e-10,0,0.00026248,-5.8984e-06,7.0799e+06,-173.28,0,1.0088e+08,6.8839,12115,13336,1,13336,1,0.00053789,2.9624e-09,0,0.00053789,8.8345e-05,1.9569e+08,949.97,0,1.9569e+08,401.16,13335,12118,1,12118,1,3.3447e-05,-3.4562e-10,0,0.00026626,-6.171e-06,1.2665e+07,-112.01,0,9.8118e+07,6.5819,12117,10867,1,10867,1,-0.000471,-3.7292e-09,0,5.3552e-06,-0.00010074,-1.9157e+08,-1233,0,2.258e+06,-203,10866,11508,1,11508,1,-0.00023817,-1.7199e-09,0,0.00012176,-5.7093e-05,-9.687e+07,-553.79,0,4.9522e+07,-31.452,11507,12724,1,12724,1,0.00030506,5.9481e-10,0,0.00039338,4.4701e-05,1.1207e+08,193.86,0,1.5382e+08,53.136,12723,702.88,0,702.88,0,0.00030217,1.6139e-09,0,0.00015296,5.6628e-05,1.1615e+08,528.34,0,5.7952e+07,71.149,702.88,1
2344,1.92,12116,1,12116,1,3.2042e-05,-1.0608e-09,0,0.00026386,-5.9295e-06,7.1168e+06,-346.18,0,1.0141e+08,-20.062,12115,13336,1,13336,1,0.00054072,3.3281e-09,0,0.00054072,8.8809e-05,1.9671e+08,1107.2,0,1.9671e+08,88.814,13335,12118,1,12118,1,3.3623e-05,-9.561e-10,0,0.00026765,-6.2037e-06,1.2731e+07,-312.11,0,9.863e+07,-13.282,12117,10867,1,10867,1,-0.00047347,-4.7005e-09,0,5.382e-06,-0.00010127,-1.9258e+08,-1507.4,0,2.2694e+06,-250.47,10866,11508,1,11508,1,-0.00023941,-2.4305e-09,0,0.0001224,-5.7391e-05,-9.7375e+07,-798.67,0,4.9781e+07,-49.797,11507,12724,1,12724,1,0.00030665,2.1132e-10,0,0.00039543,4.4933e-05,1.1265e+08,70.398,0,1.5462e+08,19.487,12723,702.88,0,702.88,0,0.00030375,1.8122e-09,0,0.00015376,5.6924e-05,1.1675e+08,591.76,0,5.8254e+07,56.076,702.88,1
2344,1.93,12116,1,12116,1,3.221e-05,-1.5662e-09,0,0.00026523,-5.9607e-06,7.154e+06,-511.23,0,1.0194e+08,-19.663,12115,13336,1,13336,1,0.00054354,2.5436e-09,0,0.00054354,8.9273e-05,1.9773e+08,868.53,0,1.9773e+08,351.87,13335,12118,1,12118,1,3.3799e-05,-1.0386e-09,0,0.00026905,-6.2363e-06,1.2798e+07,-336.98,0,9.9144e+07,-14.409,12117,10867,1,10867,1,-0.00047594,-7.1246e-09,0,5.4084e-06,-0.0001018,-1.9358e+08,-2284.8,0,2.2805e+06,-325.4,10866,11508,1,11508,1,-0.00024065,-3.3557e-09,0,0.00012304,-5.7689e-05,-9.7881e+07,-1102.4,0,5.004e+07,-74.26,11507,12724,1,12724,1,0.00030825,3.1758e-10,0,0.00039748,4.5167e-05,1.1324e+08,103.16,0,1.5542e+08,33.947,12723,702.88,0,702.88,0,0.00030533,2.4098e-09,0,0.00015456,5.722e-05,1.1736e+08,785.71,0,5.8557e+07,75.002,702.88,1
2344,1.94,12116,1,12116,1,3.2379e-05,-5.5926e-10,0,0.00026661,-5.9919e-06,7.1911e+06,-182.57,0,1.0247e+08,-16.271,12115,13336,1,13336,1,0.00054636,2.1314e-09,0,0.00054636,8.9735e-05,1.9875e+08,727,0,1.9875e+08,96.731,13335,12118,1,12118,1,3.3977e-05,-5.3278e-10,0,0.00027045,-6.269e-06,1.2865e+07,-173.29,0,9.9662e+07,-11.063,12117,10867,1,10867,1,-0.0004784,-2.9429e-09,0,5.4356e-06,-0.00010233,-1.9458e+08,-943.76,0,2.2921e+06,-248.87,10866,11508,1,11508,1,-0.00024191,-1.5427e-09,0,0.00012368,-5.7991e-05,-9.8392e+07,-505.37,0,5.03e+07,-40.245,11507,12724,1,12724,1,0.00030986,2.4525e-10,0,0.00039956,4.5403e-05,1.1383e+08,77.243,0,1.5623e+08,16.148,12723,702.88,0,702.88,0,0.00030692,1.2142e-09,0,0.00015536,5.7519e-05,1.1797e+08,396.68,0,5.8861e+07,49.164,702.88,1
2344,1.95,12116,1,12116,1,3.2547e-05,-9.9238e-10,0,0.00026798,-6.0229e-06,7.228e+06,-323.65,0,1.0299e+08,-17.775,12115,13336,1,13336,1,0.00054917,3.957e-09,0,0.00054917,9.0196e-05,1.9976e+08,1297.9,0,1.9976e+08,133.08,13335,12118,1,12118,1,3.4152e-05,-4.6141e-10,0,0.00027184,-6.3014e-06,1.2932e+07,-149.77,0,1.0017e+08,-18.329,12117,10867,1,10867,1,-0.00048086,-6.3173e-09,0,5.4617e-06,-0.00010286,-1.9559e+08,-2026,0,2.3031e+06,-290.58,10866,11508,1,11508,1,-0.00024315,-2.8424e-09,0,0.00012431,-5.8288e-05,-9.8894e+07,-925.79,0,5.0556e+07,-67.768,11507,12724,1,12724,1,0.00031145,7.6107e-10,0,0.0004016,4.5635e-05,1.1441e+08,241.71,0,1.5703e+08,33.438,12723,702.88,0,702.88,0,0.00030849,2.5699e-09,0,0.00015616,5.7813e-05,1.1857e+08,838.79,0,5.9162e+07,68.691,702.88,1
2344,1.96,12116,1,12116,1,3.2714e-05,-7.8222e-10,0,0.00026935,-6.0539e-06,7.2649e+06,-254.97,0,1.0352e+08,-2.4872,12115,13336,1,13336,1,0.00055198,4.6462e-09,0,0.00055198,9.0658e-05,2.0077e+08,1561.7,0,2.0077e+08,374.96,13335,12118,1,12118,1,3.4328e-05,-3.1289e-10,0,0.00027323,-6.3338e-06,1.2998e+07,-101.23,0,1.0069e+08,-3.4374,12117,10867,1,10867,1,-0.00048333,-6.2312e-09,0,5.4887e-06,-0.00010338,-1.9659e+08,-1998.4,0,2.3146e+06,-255.3,10866,11508,1,11508,1,-0.00024439,-2.8054e-09,0,0.00012494,-5.8587e-05,-9.9401e+07,-904.21,0,5.0815e+07,-58.443,11507,12724,1,12724,1,0.00031305,9.7229e-10,0,0.00040366,4.5868e-05,1.15e+08,310.35,0,1.5784e+08,52.444,12723,702.88,0,702.88,0,0.00031007,2.7527e-09,0,0.00015696,5.8109e-05,1.1918e+08,898.68,0,5.9464e+07,74.784,702.88,1
2344,1.97,12116,1,12116,1,3.2883e-05,-1.3359e-09,0,0.00027073,-6.0851e-06,7.3021e+06,-436.19,0,1.0405e+08,-12.042,12115,13336,1,13336,1,0.00055481,2.892e-09,0,0.00055481,9.1121e-05,2.0179e+08,973,0,2.0179e+08,124.16,13335,12118,1,12118,1,3.4505e-05,-9.3244e-10,0,0.00027463,-6.3665e-06,1.3065e+07,-299.89,0,1.012e+08,-7.4898,12117,10867,1,10867,1,-0.0004858,-5.918e-09,0,5.5155e-06,-0.00010391,-1.9759e+08,-1897.8,0,2.3259e+06,-262.7,10866,11508,1,11508,1,-0.00024564,-2.9778e-09,0,0.00012558,-5.8887e-05,-9.9908e+07,-967.2,0,5.1075e+07,-55.222,11507,12724,1,12724,1,0.00031465,2.6484e-10,0,0.00040572,4.6102e-05,1.1559e+08,87.207,0,1.5864e+08,29.223,12723,702.88,0,702.88,0,0.00031166,2.1337e-09,0,0.00015776,5.8407e-05,1.1979e+08,696.7,0,5.9768e+07,59.734,702.88,1
2344,1.98,12116,1,12116,1,3.3053e-05,-2.3832e-10,0,0.00027211,-6.1165e-06,7.3395e+06,-77.755,0,1.0458e+08,-17.323,12115,13336,1,13336,1,0.00055763,1.6262e-09,0,0.00055763,9.1584e-05,2.0281e+08,556.67,0,2.0281e+08,39.678,13335,12118,1,12118,1,3.4683e-05,-1.7815e-10,0,0.00027604,-6.3994e-06,1.3133e+07,-56.801,0,1.0172e+08,-10.203,12117,10867,1,10867,1,-0.00048826,-1.5587e-09,0,5.5424e-06,-0.00010444,-1.9859e+08,-496.93,0,2.3372e+06,-212.93,10866,11508,1,11508,1,-0.0002469,-7.1803e-10,0,0.00012622,-5.9189e-05,-1.0042e+08,-236.38,0,5.1335e+07,-30.604,11507,12724,1,12724,1,0.00031626,1.7797e-10,0,0.0004078,4.6339e-05,1.1618e+08,56.842,0,1.5946e+08,6.7061,12723,702.88,0,702.88,0,0.00031326,6.6941e-10,0,0.00015857,5.8705e-05,1.204e+08,219.21,0,6.0073e+07,38.864,702.88,1
2344,1.99,12116,1,12116,1,3.322e-05,-1.0181e-09,0,0.00027348,-6.1475e-06,7.3763e+06,-332.23,0,1.051e+08,-16.84,12115,13336,1,13336,1,0.00056045,2.5202e-09,0,0.00056045,9.2047e-05,2.0383e+08,846.8,0,2.0383e+08,126.76,13335,12118,1,12118,1,3.4858e-05,-5.966e-10,0,0.00027743,-6.4318e-06,1.3199e+07,-199.28,0,1.0223e+08,-11.72,12117,10867,1,10867,1,-0.00049073,-5.3364e-09,0,5.5691e-06,-0.00010497,-1.996e+08,-1711.4,0,2.3485e+06,-290.52,10866,11508,1,11508,1,-0.00024814,-2.4905e-09,0,0.00012686,-5.9486e-05,-1.0092e+08,-817.91,0,5.1593e+07,-57.225,11507,12724,1,12724,1,0.00031785,3.9962e-10,0,0.00040985,4.6571e-05,1.1677e+08,128.01,0,1.6026e+08,27.212,12723,702.88,0,702.88,0,0.00031483,1.9618e-09,0,0.00015937,5.9001e-05,1.21e+08,640.2,0,6.0374e+07,61.556,702.88,1
2344,2,12116,1,12116,1,3.3396e-05,1.6782e-10,0,0.00027487,-6.18e-06,7.4137e+06,54.711,0,1.0563e+08,-18.733,12115,13336,1,13336,1,0.00056328,1.1846e-09,0,0.00056328,9.2508e-05,2.0482e+08,405.51,0,2.0482e+08,22.907,13335,12118,1,12118,1,3.5043e-05,8.3762e-11,0,0.00027884,-6.4658e-06,1.3269e+07,26.785,0,1.0275e+08,-9.0431,12117,10867,1,10867,1,-0.00049319,-1.453e-10,0,5.5901e-06,-0.0001055,-2.006e+08,-49.763,0,2.3576e+06,-200.55,10866,11508,1,11508,1,-0.00024939,2.7361e-11,0,0.00012749,-5.979e-05,-1.0143e+08,9.1948,0,5.1851e+07,-23.594,11507,12724,1,12724,1,0.00031948,2.0602e-10,0,0.00041192,4.6806e-05,1.1736e+08,66.715,0,1.6107e+08,-1.4841,12723,702.88,0,702.88,0,0.00031643,2.319e-10,0,0.00016018,5.93e-05,1.2161e+08,76.598,0,6.0677e+07,30.042,702.88,1
2344,2.01,12116,1,12116,1,3.3571e-05,-9.5303e-11,0,0.00027625,-6.2125e-06,7.4508e+06,-31.143,0,1.0616e+08,-15.159,12115,13336,1,13336,1,0.00056611,2.2016e-10,0,0.00056611,9.2971e-05,2.0582e+08,69.077,0,2.0582e+08,24.66,13335,12118,1,12118,1,3.5226e-05,-5.9534e-11,0,0.00028025,-6.4997e-06,1.3338e+07,-19.562,0,1.0327e+08,-6.5859,12117,10867,1,10867,1,-0.00049566,-4.3211e-10,0,5.6105e-06,-0.00010603,-2.016e+08,-147.98,0,2.3664e+06,-202.61,10866,11508,1,11508,1,-0.00025063,-1.6582e-10,0,0.00012812,-6.0091e-05,-1.0194e+08,-54.264,0,5.2108e+07,-18.304,11507,12724,1,12724,1,0.00032109,-2.6699e-11,0,0.00041398,4.704e-05,1.1795e+08,-8.6947,0,1.6187e+08,-0.16777,12723,702.88,0,702.88,0,0.00031801,9.9343e-11,0,0.00016098,5.9597e-05,1.2222e+08,32.285,0,6.0977e+07,28.356,702.88,1
2344,2.02,12116,1,12116,1,3.3745e-05,-1.1704e-09,0,0.00027761,-6.2446e-06,7.4875e+06,-382.37,0,1.0668e+08,-29.975,12115,13336,1,13336,1,0.00056894,4.0319e-09,0,0.00056894,9.3433e-05,2.0682e+08,1306.3,0,2.0682e+08,158.21,13335,12118,1,12118,1,3.5408e-05,-1.0181e-09,0,0.00028164,-6.5334e-06,1.3407e+07,-328.39,0,1.0378e+08,-26.909,12117,10867,1,10867,1,-0.00049812,-6.2001e-09,0,5.6302e-06,-0.00010656,-2.0261e+08,-1988.3,0,2.3749e+06,-222.41,10866,11508,1,11508,1,-0.00025186,-3.0853e-09,0,0.00012875,-6.0389e-05,-1.0244e+08,-1000.7,0,5.2363e+07,-81.057,11507,12724,1,12724,1,0.00032267,4.3857e-10,0,0.00041601,4.727e-05,1.1854e+08,140.05,0,1.6267e+08,21.002,12723,702.88,0,702.88,0,0.00031958,2.4319e-09,0,0.00016178,5.9891e-05,1.2282e+08,795.46,0,6.1274e+07,70.169,702.88,1
2344,2.03,12116,1,12116,1,3.3921e-05,1.0556e-10,0,0.000279,-6.2772e-06,7.5247e+06,34.31,0,1.0721e+08,-19.024,12115,13336,1,13336,1,0.00057176,2.7421e-09,0,0.00057176,9.3894e-05,2.0781e+08,884.87,0,2.0781e+08,61.615,13335,12118,1,12118,1,3.5592e-05,6.3878e-11,0,0.00028305,-6.5673e-06,1.3477e+07,20.462,0,1.043e+08,-14.257,12117,10867,1,10867,1,-0.00050058,-1.9096e-09,0,5.6505e-06,-0.00010709,-2.036e+08,-612.38,0,2.3837e+06,-225.2,10866,11508,1,11508,1,-0.00025311,-7.1906e-10,0,0.00012938,-6.0692e-05,-1.0295e+08,-233.54,0,5.262e+07,-42.868,11507,12724,1,12724,1,0.00032429,7.2311e-10,0,0.00041808,4.7504e-05,1.1913e+08,239.09,0,1.6348e+08,13.639,12723,702.88,0,702.88,0,0.00032118,1.0967e-09,0,0.00016258,6.019e-05,1.2342e+08,359.51,0,6.1575e+07,46.933,702.88,1
2344,2.04,12116,1,12116,1,3.4098e-05,-4.8649e-10,0,0.00028039,-6.31e-06,7.5622e+06,-159,0,1.0774e+08,-21.313,12115,13336,1,13336,1,0.00057462,8.2163e-10,0,0.00057462,9.436e-05,2.0881e+08,257.04,0,2.0881e+08,27.62,13335,12118,1,12118,1,3.5778e-05,-4.1111e-10,0,0.00028447,-6.6016e-06,1.3547e+07,-135.08,0,1.0483e+08,-13.803,12117,10867,1,10867,1,-0.00050307,-1.8408e-09,0,5.6707e-06,-0.00010762,-2.0462e+08,-585.45,0,2.3924e+06,-208.76,10866,11508,1,11508,1,-0.00025437,-8.7525e-10,0,0.00013002,-6.0996e-05,-1.0346e+08,-285.49,0,5.288e+07,-29.372,11507,12724,1,12724,1,0.00032592,-5.1725e-11,0,0.00042016,4.774e-05,1.1973e+08,-16.729,0,1.6429e+08,-3.3663,12723,702.88,0,702.88,0,0.00032278,5.3619e-10,0,0.0001634,6.049e-05,1.2404e+08,174.15,0,6.1878e+07,30.492,702.88,1
2344,2.05,12116,1,12116,1,3.4272e-05,-9.2224e-10,0,0.00028175,-6.3421e-06,7.5987e+06,-301.48,0,1.0826e+08,-25.954,12115,13336,1,13336,1,0.00057743,3.1835e-09,0,0.00057743,9.4818e-05,2.098e+08,1033.4,0,2.098e+08,64.937,13335,12118,1,12118,1,3.5959e-05,-7.3892e-10,0,0.00028586,-6.6352e-06,1.3616e+07,-239.92,0,1.0534e+08,-17.908,12117,10867,1,10867,1,-0.00050551,-4.5684e-09,0,5.69e-06,-0.00010815,-2.0561e+08,-1465,0,2.4008e+06,-217.46,10866,11508,1,11508,1,-0.00025559,-2.2259e-09,0,0.00013064,-6.1292e-05,-1.0395e+08,-724.68,0,5.3132e+07,-57.165,11507,12724,1,12724,1,0.0003275,2.8544e-10,0,0.00042218,4.7969e-05,1.2031e+08,92.454,0,1.6508e+08,12.041,12723,702.88,0,702.88,0,0.00032434,1.7488e-09,0,0.00016419,6.0783e-05,1.2463e+08,571.99,0,6.2173e+07,50.886,702.88,1
2344,2.06,12116,1,12116,1,3.4447e-05,-1.2231e-09,0,0.00028312,-6.3745e-06,7.6357e+06,-399.71,0,1.0879e+08,-24.35,12115,13336,1,13336,1,0.00058026,3.174e-09,0,0.00058026,9.5281e-05,2.1079e+08,1045.8,0,2.1079e+08,137.64,13335,12118,1,12118,1,3.6142e-05,-1.0734e-09,0,0.00028726,-6.669e-06,1.3685e+07,-349.9,0,1.0585e+08,-28.563,12117,10867,1,10867,1,-0.00050797,-5.6104e-09,0,5.7099e-06,-0.00010868,-2.0661e+08,-1799.1,0,2.4094e+06,-225.76,10866,11508,1,11508,1,-0.00025682,-2.8841e-09,0,0.00013127,-6.1593e-05,-1.0446e+08,-944.88,0,5.3389e+07,-70.988,11507,12724,1,12724,1,0.00032911,2.3726e-10,0,0.00042423,4.8202e-05,1.209e+08,74.514,0,1.6588e+08,27.683,12723,702.88,0,702.88,0,0.00032593,2.0711e-09,0,0.00016499,6.108e-05,1.2523e+08,677.16,0,6.2472e+07,65.178,702.88,1
2344,2.07,12116,1,12116,1,3.4623e-05,-2.0561e-10,0,0.00028451,-6.4071e-06,7.6729e+06,-67.195,0,1.0931e+08,-17.345,12115,13336,1,13336,1,0.00058309,1.2201e-09,0,0.00058309,9.5742e-05,2.1178e+08,417.63,0,2.1178e+08,76.299,13335,12118,1,12118,1,3.6328e-05,-2.5343e-10,0,0.00028867,-6.7031e-06,1.3755e+07,-83.159,0,1.0637e+08,-6.2502,12117,10867,1,10867,1,-0.00051043,-8.5293e-10,0,5.7297e-06,-0.00010921,-2.0761e+08,-273.62,0,2.418e+06,-621.08,10866,11508,1,11508,1,-0.00025808,-5.0761e-10,0,0.0001319,-6.1896e-05,-1.0497e+08,-165.69,0,5.3646e+07,-26.828,11507,12724,1,12724,1,0.00033073,7.6621e-11,0,0.00042631,4.8437e-05,1.215e+08,24.427,0,1.6669e+08,3.8888,12723,702.88,0,702.88,0,0.00032752,3.791e-10,0,0.0001658,6.1379e-05,1.2584e+08,124.57,0,6.2774e+07,39.06,702.88,1
2344,2.08,12116,1,12116,1,3.48e-05,-6.9229e-10,0,0.00028589,-6.4399e-06,7.7102e+06,-226.26,0,1.0984e+08,-24.884,12115,13336,1,13336,1,0.00058593,3.2701e-10,0,0.00058593,9.6206e-05,2.1278e+08,100.02,0,2.1278e+08,22.427,13335,12118,1,12118,1,3.6513e-05,-7.3514e-10,0,0.00029009,-6.7374e-06,1.3826e+07,-240.79,0,1.0689e+08,-17.629,12117,10867,1,10867,1,-0.0005129,-1.6574e-09,0,5.749e-06,-0.00010974,-2.0862e+08,-531.5,0,2.4263e+06,-217.57,10866,11508,1,11508,1,-0.00025932,-1.0762e-09,0,0.00013254,-6.2198e-05,-1.0547e+08,-352.6,0,5.3903e+07,-33.055,11507,12724,1,12724,1,0.00033234,-3.1801e-10,0,0.00042837,4.867e-05,1.2209e+08,-104.86,0,1.675e+08,-4.8391,12723,702.88,0,702.88,0,0.00032911,4.7313e-10,0,0.00016661,6.1677e-05,1.2645e+08,153.97,0,6.3074e+07,32.476,702.88,1
2344,2.09,12116,1,12116,1,3.4976e-05,-4.6836e-10,0,0.00028726,-6.4724e-06,7.7471e+06,-153.08,0,1.1037e+08,-22.806,12115,13336,1,13336,1,0.00058876,1.142e-09,0,0.00058876,9.6667e-05,2.1377e+08,390.93,0,2.1377e+08,40.024,13335,12118,1,12118,1,3.6697e-05,-4.6025e-10,0,0.00029149,-6.7713e-06,1.3895e+07,-149.23,0,1.0741e+08,-15.111,12117,10867,1,10867,1,-0.00051536,-1.9357e-09,0,5.7683e-06,-0.00011027,-2.0962e+08,-620.74,0,2.4348e+06,-210.47,10866,11508,1,11508,1,-0.00026056,-9.4456e-10,0,0.00013317,-6.2499e-05,-1.0598e+08,-306.6,0,5.4159e+07,-37.238,11507,12724,1,12724,1,0.00033395,5.7379e-11,0,0.00043042,4.8903e-05,1.2268e+08,18.367,0,1.683e+08,1.8953,12723,702.88,0,702.88,0,0.00033069,6.3559e-10,0,0.00016741,6.1973e-05,1.2705e+08,207.56,0,6.3373e+07,35.529,702.88,1
2344,2.1,12116,1,12116,1,3.5151e-05,2.0645e-10,0,0.00028864,-6.5048e-06,7.7841e+06,67.32,0,1.1089e+08,-15.523,12115,13336,1,13336,1,0.00059157,1.2955e-09,0,0.00059157,9.7126e-05,2.1476e+08,443.26,0,2.1476e+08,23.925,13335,12118,1,12118,1,3.6881e-05,1.3682e-10,0,0.00029289,-6.8052e-06,1.3965e+07,43.183,0,1.0793e+08,-7.1655,12117,10867,1,10867,1,-0.00051781,-7.4515e-10,0,5.7873e-06,-0.00011079,-2.1061e+08,-255.13,0,2.443e+06,-202.98,10866,11508,1,11508,1,-0.0002618,-9.1279e-11,0,0.00013379,-6.28e-05,-1.0648e+08,-29.903,0,5.4414e+07,-19.89,11507,12724,1,12724,1,0.00033556,4.9006e-10,0,0.00043247,4.9135e-05,1.2327e+08,159.14,0,1.6911e+08,4.0382,12723,702.88,0,702.88,0,0.00033227,4.4759e-10,0,0.00016821,6.2269e-05,1.2765e+08,147.31,0,6.3671e+07,32.304,702.88,1
2344,2.11,12116,1,12116,1,3.5328e-05,1.6891e-10,0,0.00029002,-6.5376e-06,7.8212e+06,55.229,0,1.1142e+08,-18.273,12115,13336,1,13336,1,0.00059441,1.053e-09,0,0.00059441,9.7589e-05,2.1575e+08,354.05,0,2.1575e+08,367.88,13335,12118,1,12118,1,3.7066e-05,1.6237e-10,0,0.0002943,-6.8394e-06,1.4035e+07,53.106,0,1.0845e+08,-2.2713,12117,10867,1,10867,1,-0.00052028,-3.5515e-09,0,5.8066e-06,-0.00011133,-2.1162e+08,-1191.5,0,2.4514e+06,-2309.3,10866,11508,1,11508,1,-0.00026304,6.6675e-11,0,0.00013442,-6.3102e-05,-1.0699e+08,21,0,5.4671e+07,-15.248,11507,12724,1,12724,1,0.00033717,2.4662e-10,0,0.00043453,4.9369e-05,1.2386e+08,79.491,0,1.6991e+08,3.047,12723,702.88,0,702.88,0,0.00033386,2.0686e-10,0,0.00016902,6.2567e-05,1.2826e+08,69.284,0,6.3971e+07,88.063,702.88,1
2344,2.12,12116,1,12116,1,3.5504e-05,-1.5848e-10,0,0.0002914,-6.5702e-06,7.8582e+06,-51.794,0,1.1194e+08,-14.557,12115,13336,1,13336,1,0.00059724,3.5161e-10,0,0.00059724,9.8051e-05,2.1674e+08,120.41,0,2.1674e+08,20.166,13335,12118,1,12118,1,3.725e-05,-1.6353e-10,0,0.00029571,-6.8735e-06,1.4105e+07,-53.096,0,1.0897e+08,-2.7422,12117,10867,1,10867,1,-0.00052274,-4.8389e-10,0,5.8256e-06,-0.00011186,-2.1262e+08,-165.71,0,2.4597e+06,-208.48,10866,11508,1,11508,1,-0.00026428,-2.6555e-10,0,0.00013505,-6.3403e-05,-1.0749e+08,-87.295,0,5.4927e+07,-16.398,11507,12724,1,12724,1,0.00033878,-6.6523e-11,0,0.00043659,4.9601e-05,1.2445e+08,-21.362,0,1.7072e+08,1.8541,12723,702.88,0,702.88,0,0.00033545,1.3105e-10,0,0.00016982,6.2864e-05,1.2886e+08,43.175,0,6.4271e+07,31.089,702.88,1
2344,2.13,12116,1,12116,1,3.5681e-05,-3.2481e-10,0,0.00029278,-6.6029e-06,7.8954e+06,-106.14,0,1.1247e+08,-19.837,12115,13336,1,13336,1,0.00060008,3.743e-10,0,0.00060008,9.8514e-05,2.1773e+08,116.19,0,2.1773e+08,20.567,13335,12118,1,12118,1,3.7435e-05,-3.1267e-10,0,0.00029712,-6.9077e-06,1.4175e+07,-100.22,0,1.0948e+08,-9.7144,12117,10867,1,10867,1,-0.00052521,-8.9171e-10,0,5.8444e-06,-0.00011239,-2.1362e+08,-299.59,0,2.4678e+06,-210.37,10866,11508,1,11508,1,-0.00026552,-5.342e-10,0,0.00013569,-6.3705e-05,-1.08e+08,-173.92,0,5.5184e+07,-23.037,11507,12724,1,12724,1,0.00034039,-1.1847e-10,0,0.00043864,4.9834e-05,1.2505e+08,-38.975,0,1.7152e+08,-3.3387,12723,702.88,0,702.88,0,0.00033704,2.6567e-10,0,0.00017063,6.3162e-05,1.2947e+08,86.304,0,6.457e+07,30.82,702.88,1
2344,2.14,12116,1,12116,1,3.5857e-05,-2.3837e-10,0,0.00029415,-6.6354e-06,7.9322e+06,-78.045,0,1.1299e+08,-11.078,12115,13336,1,13336,1,0.0006029,2.1444e-09,0,0.0006029,9.8973e-05,2.1872e+08,689.1,0,2.1872e+08,79.797,13335,12118,1,12118,1,3.7619e-05,-1.721e-10,0,0.00029851,-6.9416e-06,1.4244e+07,-56.578,0,1.1e+08,-6.7286,12117,10867,1,10867,1,-0.00052766,-2.1317e-09,0,5.8629e-06,-0.00011291,-2.1462e+08,-683.6,0,2.4759e+06,-211.55,10866,11508,1,11508,1,-0.00026676,-1.06e-09,0,0.00013631,-6.4004e-05,-1.085e+08,-340.7,0,5.5438e+07,-28.955,11507,12724,1,12724,1,0.00034199,4.4048e-10,0,0.00044068,5.0066e-05,1.2563e+08,143.44,0,1.7232e+08,18.076,12723,702.88,0,702.88,0,0.00033861,1.0491e-09,0,0.00017143,6.3457e-05,1.3007e+08,343.84,0,6.4867e+07,45.2,702.88,1
2344,2.15,12116,1,12116,1,3.6033e-05,-5.4722e-10,0,0.00029551,-6.668e-06,7.9688e+06,-179.62,0,1.1351e+08,-23.031,12115,13336,1,13336,1,0.00060571,5.5462e-09,0,0.00060571,9.9432e-05,2.197e+08,1791.4,0,2.197e+08,136.71,13335,12118,1,12118,1,3.7803e-05,-1.5357e-10,0,0.0002999,-6.9757e-06,1.4314e+07,-49.06,0,1.1051e+08,-19.874,12117,10867,1,10867,1,-0.00053011,-5.8934e-09,0,5.8799e-06,-0.00011344,-2.1561e+08,-1893.3,0,2.4833e+06,-252.67,10866,11508,1,11508,1,-0.00026798,-2.4575e-09,0,0.00013693,-6.4302e-05,-1.0899e+08,-793.54,0,5.5691e+07,-71.528,11507,12724,1,12724,1,0.00034358,1.0201e-09,0,0.00044271,5.0296e-05,1.2622e+08,334.75,0,1.7311e+08,32.277,12723,702.88,0,702.88,0,0.00034018,2.7317e-09,0,0.00017222,6.3751e-05,1.3066e+08,894.5,0,6.5162e+07,70.451,702.88,1
2344,2.16,12116,1,12116,1,3.6226e-05,1.6847e-09,0,0.00029691,-6.7037e-06,8.0062e+06,550.23,0,1.1404e+08,0.42117,12115,13336,1,13336,1,0.00060861,4.5972e-09,0,0.00060861,9.9899e-05,2.2068e+08,1463.1,0,2.2068e+08,124.63,13335,12118,1,12118,1,3.8005e-05,1.454e-09,0,0.00030135,-7.0128e-06,1.439e+07,466.84,0,1.1104e+08,2.5207,12117,10867,1,10867,1,-0.00053259,-6.3227e-10,0,5.885e-06,-0.00011398,-2.1663e+08,-216.51,0,2.4861e+06,-237.93,10866,11508,1,11508,1,-0.00026922,3.4509e-10,0,0.00013756,-6.4611e-05,-1.095e+08,112.69,0,5.5946e+07,-28.409,11507,12724,1,12724,1,0.00034523,2.9261e-09,0,0.00044478,5.0529e-05,1.2682e+08,948.21,0,1.739e+08,36.717,12723,702.88,0,702.88,0,0.00034179,1.4454e-09,0,0.00017304,6.4053e-05,1.3127e+08,472.52,0,6.546e+07,56.29,702.88,1
2344,2.17,12116,1,12116,1,3.6418e-05,3.9626e-11,0,0.00029829,-6.7393e-06,8.0433e+06,13.119,0,1.1456e+08,-19.368,12115,13336,1,13336,1,0.00061145,1.2733e-09,0,0.00061145,0.00010036,2.2163e+08,435.88,0,2.2163e+08,33.807,13335,12118,1,12118,1,3.8205e-05,6.6034e-11,0,0.00030278,-7.05e-06,1.4466e+07,21.122,0,1.1157e+08,-13.155,12117,10867,1,10867,1,-0.00053503,-9.1036e-10,0,5.8891e-06,-0.00011451,-2.1762e+08,-291.43,0,2.4885e+06,-222.8,10866,11508,1,11508,1,-0.00027046,-3.2508e-10,0,0.00013818,-6.4917e-05,-1.1e+08,-107.3,0,5.6196e+07,-29.494,11507,12724,1,12724,1,0.00034687,3.2217e-10,0,0.00044684,5.0761e-05,1.2743e+08,103.74,0,1.7469e+08,2.6824,12723,702.88,0,702.88,0,0.00034338,4.9717e-10,0,0.00017385,6.4351e-05,1.3187e+08,163.64,0,6.5754e+07,36.713,702.88,1
2344,2.18,12116,1,12116,1,3.6613e-05,8.6345e-10,0,0.00029967,-6.7753e-06,8.0801e+06,282.47,0,1.1508e+08,4.6489,12115,13336,1,13336,1,0.00061431,3.8635e-09,0,0.00061431,0.00010082,2.2259e+08,1238.8,0,2.2259e+08,119.98,13335,12118,1,12118,1,3.8408e-05,5.5237e-10,0,0.0003042,-7.0875e-06,1.4543e+07,179.83,0,1.1209e+08,10.114,12117,10867,1,10867,1,-0.00053749,-1.6068e-09,0,5.8894e-06,-0.00011505,-2.1862e+08,-550.05,0,2.4894e+06,-210.82,10866,11508,1,11508,1,-0.00027168,-1.3684e-10,0,0.00013879,-6.5221e-05,-1.105e+08,-44.029,0,5.6445e+07,-17.449,11507,12724,1,12724,1,0.00034849,1.8724e-09,0,0.00044887,5.0989e-05,1.2802e+08,610.77,0,1.7546e+08,37.076,12723,702.88,0,702.88,0,0.00034497,1.2471e-09,0,0.00017466,6.4648e-05,1.3246e+08,408.93,0,6.6045e+07,47.815,702.88,1
2344,2.19,12116,1,12116,1,3.6815e-05,-5.9137e-10,0,0.00030106,-6.8127e-06,8.1172e+06,-193.01,0,1.156e+08,-18.766,12115,13336,1,13336,1,0.00061718,9.4045e-10,0,0.00061718,0.00010128,2.2354e+08,322.01,0,2.2354e+08,42.827,13335,12118,1,12118,1,3.8619e-05,-6.1126e-10,0,0.00030564,-7.1265e-06,1.4623e+07,-196.78,0,1.1263e+08,-11.723,12117,10867,1,10867,1,-0.00053994,-1.8494e-09,0,5.8849e-06,-0.00011559,-2.1961e+08,-593.03,0,2.4884e+06,-224.52,10866,11508,1,11508,1,-0.00027291,-1.082e-09,0,0.0001394,-6.5529e-05,-1.11e+08,-354.19,0,5.6694e+07,-28.483,11507,12724,1,12724,1,0.00035014,-8.2273e-11,0,0.00045092,5.122e-05,1.2862e+08,-26.376,0,1.7623e+08,1.8029,12723,702.88,0,702.88,0,0.00034657,5.9215e-10,0,0.00017547,6.4948e-05,1.3306e+08,193.81,0,6.6337e+07,35.929,702.88,1
2344,2.2,12116,1,12116,1,3.7017e-05,-5.9346e-11,0,0.00030244,-6.8501e-06,8.1541e+06,-19.834,0,1.1612e+08,-14.989,12115,13336,1,13336,1,0.00062005,1.6756e-09,0,0.00062005,0.00010174,2.2448e+08,567.08,0,2.2448e+08,64.515,13335,12118,1,12118,1,3.8829e-05,1.2736e-10,0,0.00030708,-7.1654e-06,1.4702e+07,39.978,0,1.1315e+08,-9.7005,12117,10867,1,10867,1,-0.00054239,-2.2532e-09,0,5.879e-06,-0.00011612,-2.2061e+08,-722.55,0,2.4869e+06,-214.4,10866,11508,1,11508,1,-0.00027413,-7.9345e-10,0,0.00014,-6.5836e-05,-1.115e+08,-260.54,0,5.6941e+07,-32.115,11507,12724,1,12724,1,0.00035178,6.7332e-10,0,0.00045296,5.1449e-05,1.2922e+08,221.58,0,1.77e+08,7.8596,12723,702.88,0,702.88,0,0.00034816,1.0023e-09,0,0.00017628,6.5246e-05,1.3365e+08,328.86,0,6.6627e+07,41.188,702.88,1
2344,2.21,12116,1,12116,1,3.7219e-05,-3.8338e-10,0,0.00030383,-6.8875e-06,8.1911e+06,-125.41,0,1.1664e+08,-16.829,12115,13336,1,13336,1,0.00062292,1.4082e-09,0,0.00062292,0.0001022,2.2543e+08,482.04,0,2.2543e+08,35.519,13335,12118,1,12118,1,3.9039e-05,-3.2084e-10,0,0.00030852,-7.2044e-06,1.4782e+07,-103.9,0,1.1368e+08,-11.777,12117,10867,1,10867,1,-0.00054484,-1.8837e-09,0,5.8731e-06,-0.00011666,-2.2161e+08,-604.02,0,2.4853e+06,-210.08,10866,11508,1,11508,1,-0.00027535,-9.4964e-10,0,0.00014061,-6.6144e-05,-1.1199e+08,-307.99,0,5.7188e+07,-28.838,11507,12724,1,12724,1,0.00035343,7.9803e-11,0,0.000455,5.1679e-05,1.2981e+08,26.674,0,1.7777e+08,6.2979,12723,702.88,0,702.88,0,0.00034975,7.2352e-10,0,0.00017709,6.5544e-05,1.3424e+08,237.69,0,6.6917e+07,35.113,702.88,1
2344,2.22,12116,1,12116,1,3.7423e-05,1.6242e-10,0,0.00030522,-6.9252e-06,8.2282e+06,52.962,0,1.1716e+08,-10.602,12115,13336,1,13336,1,0.0006258,7.4362e-10,0,0.0006258,0.00010266,2.2638e+08,238.44,0,2.2638e+08,24.588,13335,12118,1,12118,1,3.9251e-05,1.0798e-10,0,0.00030996,-7.2436e-06,1.4863e+07,35.583,0,1.1422e+08,-0.57321,12117,10867,1,10867,1,-0.00054729,-4.0364e-10,0,5.8668e-06,-0.0001172,-2.226e+08,-125.29,0,2.4836e+06,-222.16,10866,11508,1,11508,1,-0.00027658,4.2582e-12,0,0.00014122,-6.6453e-05,-1.1249e+08,1.4481,0,5.7436e+07,-11.261,11507,12724,1,12724,1,0.00035508,3.1214e-10,0,0.00045705,5.1909e-05,1.3041e+08,101.99,0,1.7855e+08,7.1937,12723,702.88,0,702.88,0,0.00035136,2.1858e-10,0,0.00017791,6.5844e-05,1.3484e+08,70.775,0,6.7208e+07,34.122,702.88,1
2344,2.23,12116,1,12116,1,3.7625e-05,1.2154e-09,0,0.0003066,-6.9626e-06,8.2649e+06,397.54,0,1.1767e+08,13.396,12115,13336,1,13336,1,0.00062867,4.1737e-09,0,0.00062867,0.00010312,2.2732e+08,1338.2,0,2.2732e+08,156.72,13335,12118,1,12118,1,3.9462e-05,1.0385e-09,0,0.00031139,-7.2825e-06,1.4942e+07,341.32,0,1.1474e+08,21.557,12117,10867,1,10867,1,-0.00054974,-1.3232e-09,0,5.8596e-06,-0.00011774,-2.236e+08,-452.95,0,2.4815e+06,-238.13,10866,11508,1,11508,1,-0.00027779,6.0098e-11,0,0.00014183,-6.6758e-05,-1.1298e+08,18.612,0,5.7682e+07,-11.558,11507,12724,1,12724,1,0.00035671,2.3126e-09,0,0.00045907,5.2136e-05,1.31e+08,755.36,0,1.7931e+08,47.189,12723,702.88,0,702.88,0,0.00035294,1.3226e-09,0,0.00017872,6.6141e-05,1.3542e+08,432.59,0,6.7496e+07,55.742,702.88,1
2344,2.24,12116,1,12116,1,3.7828e-05,-9.6687e-10,0,0.00030798,-7.0002e-06,8.3017e+06,-315.34,0,1.1819e+08,-19.67,12115,13336,1,13336,1,0.00063154,2.6046e-09,0,0.00063154,0.00010357,2.2827e+08,884.45,0,2.2827e+08,96.396,13335,12118,1,12118,1,3.9673e-05,-8.2186e-10,0,0.00031283,-7.3217e-06,1.5022e+07,-264.59,0,1.1527e+08,-18.721,12117,10867,1,10867,1,-0.00055219,-4.5113e-09,0,5.8528e-06,-0.00011827,-2.246e+08,-1446.5,0,2.4796e+06,-232.33,10866,11508,1,11508,1,-0.00027901,-2.2839e-09,0,0.00014243,-6.7065e-05,-1.1348e+08,-746.85,0,5.7928e+07,-56.181,11507,12724,1,12724,1,0.00035835,1.608e-10,0,0.00046111,5.2365e-05,1.316e+08,51.08,0,1.8008e+08,19.136,12723,702.88,0,702.88,0,0.00035453,1.6433e-09,0,0.00017953,6.6439e-05,1.3602e+08,538.05,0,6.7785e+07,53.802,702.88,1
2344,2.25,12116,1,12116,1,3.8033e-05,7.1726e-10,0,0.00030937,-7.0381e-06,8.3389e+06,234.19,0,1.1871e+08,1.8999,12115,13336,1,13336,1,0.00063441,3.2922e-09,0,0.00063441,0.00010403,2.2921e+08,1058.3,0,2.2921e+08,127.3,13335,12118,1,12118,1,3.9886e-05,3.9839e-10,0,0.00031428,-7.3611e-06,1.5103e+07,130.46,0,1.1581e+08,7.4271,12117,10867,1,10867,1,-0.00055464,-1.2615e-09,0,5.8448e-06,-0.00011881,-2.2559e+08,-431.93,0,2.4773e+06,-198.37,10866,11508,1,11508,1,-0.00028023,-9.8851e-11,0,0.00014304,-6.7375e-05,-1.1398e+08,-31.824,0,5.8176e+07,-16.234,11507,12724,1,12724,1,0.00036001,1.5583e-09,0,0.00046316,5.2595e-05,1.322e+08,500.97,0,1.8085e+08,30.926,12723,702.88,0,702.88,0,0.00035613,1.0529e-09,0,0.00018034,6.6739e-05,1.3661e+08,345.4,0,6.8076e+07,47.04,702.88,1
2344,2.26,12116,1,12116,1,3.8238e-05,-5.6599e-10,0,0.00031076,-7.076e-06,8.3758e+06,-184.55,0,1.1922e+08,-26.062,12115,13336,1,13336,1,0.00063728,2.3095e-09,0,0.00063728,0.00010449,2.3015e+08,790.56,0,2.3015e+08,99.498,13335,12118,1,12118,1,4.0099e-05,-5.8577e-10,0,0.00031571,-7.4006e-06,1.5184e+07,-189.24,0,1.1634e+08,-23.469,12117,10867,1,10867,1,-0.00055708,-2.913e-09,0,5.8361e-06,-0.00011935,-2.2659e+08,-934.06,0,2.4746e+06,-240.92,10866,11508,1,11508,1,-0.00028145,-1.4805e-09,0,0.00014365,-6.7682e-05,-1.1447e+08,-485.55,0,5.8422e+07,-55.308,11507,12724,1,12724,1,0.00036165,2.0141e-10,0,0.00046519,5.2824e-05,1.328e+08,61.948,0,1.8162e+08,6.6546,12723,702.88,0,702.88,0,0.00035772,1.1557e-09,0,0.00018115,6.7037e-05,1.372e+08,378.35,0,6.8364e+07,50.1,702.88,1
2344,2.27,12116,1,12116,1,3.8444e-05,-5.935e-10,0,0.00031215,-7.1142e-06,8.413e+06,-194.31,0,1.1975e+08,-24.799,12115,13336,1,13336,1,0.00064017,4.4995e-10,0,0.00064017,0.00010495,2.311e+08,139.6,0,2.311e+08,25.703,13335,12118,1,12118,1,4.0314e-05,-5.6022e-10,0,0.00031717,-7.4404e-06,1.5265e+07,-181.28,0,1.1687e+08,-14.847,12117,10867,1,10867,1,-0.00055954,-1.6429e-09,0,5.8281e-06,-0.00011989,-2.2759e+08,-524.3,0,2.4722e+06,-220.62,10866,11508,1,11508,1,-0.00028268,-9.6292e-10,0,0.00014426,-6.7993e-05,-1.1497e+08,-314.1,0,5.867e+07,-29.88,11507,12724,1,12724,1,0.00036331,-1.9644e-10,0,0.00046725,5.3055e-05,1.334e+08,-64.514,0,1.8239e+08,-4.8579,12723,702.88,0,702.88,0,0.00035933,4.8143e-10,0,0.00018197,6.7338e-05,1.378e+08,156.75,0,6.8656e+07,34.963,702.88,1
2344,2.28,12116,1,12116,1,3.8649e-05,-5.2101e-10,0,0.00031353,-7.1521e-06,8.4497e+06,-170.51,0,1.2026e+08,-17.164,12115,13336,1,13336,1,0.00064304,9.1289e-10,0,0.00064304,0.00010541,2.3203e+08,312.56,0,2.3203e+08,36.795,13335,12118,1,12118,1,4.0527e-05,-4.674e-10,0,0.0003186,-7.4798e-06,1.5345e+07,-152.3,0,1.174e+08,-9.2767,12117,10867,1,10867,1,-0.00056198,-1.9613e-09,0,5.8186e-06,-0.00012042,-2.2858e+08,-628.87,0,2.4693e+06,-228.66,10866,11508,1,11508,1,-0.00028389,-1.0357e-09,0,0.00014486,-6.8299e-05,-1.1547e+08,-339.09,0,5.8914e+07,-26.666,11507,12724,1,12724,1,0.00036495,1.5025e-11,0,0.00046928,5.3282e-05,1.34e+08,4.6615,0,1.8315e+08,5.3729,12723,702.88,0,702.88,0,0.00036091,6.4115e-10,0,0.00018278,6.7635e-05,1.3839e+08,210.12,0,6.8943e+07,36.441,702.88,1
2344,2.29,12116,1,12116,1,3.8853e-05,-1.6817e-09,0,0.00031491,-7.1899e-06,8.4864e+06,-549.69,0,1.2077e+08,-25.454,12115,13336,1,13336,1,0.00064591,1.6677e-09,0,0.00064591,0.00010587,2.3297e+08,570.87,0,2.3297e+08,81.511,13335,12118,1,12118,1,4.0739e-05,-1.5317e-09,0,0.00032003,-7.5192e-06,1.5426e+07,-496.72,0,1.1793e+08,-22.006,12117,10867,1,10867,1,-0.00056443,-5.5529e-09,0,5.8091e-06,-0.00012096,-2.2957e+08,-1780.5,0,2.4663e+06,-219.23,10866,11508,1,11508,1,-0.0002851,-3.1145e-09,0,0.00014546,-6.8605e-05,-1.1596e+08,-1017,0,5.9159e+07,-61.564,11507,12724,1,12724,1,0.00036658,-1.4596e-10,0,0.0004713,5.3509e-05,1.3459e+08,-47.656,0,1.8391e+08,16.217,12723,702.88,0,702.88,0,0.0003625,1.7335e-09,0,0.00018359,6.7932e-05,1.3897e+08,567.47,0,6.923e+07,54.552,702.88,1
2344,2.3,12116,1,12116,1,3.9061e-05,-4.8823e-10,0,0.00031631,-7.2284e-06,8.5237e+06,-160.32,0,1.213e+08,-29.07,12115,13336,1,13336,1,0.00064879,5.1144e-10,0,0.00064879,0.00010633,2.3391e+08,158.17,0,2.3391e+08,35.76,13335,12118,1,12118,1,4.0956e-05,-4.6399e-10,0,0.00032149,-7.5594e-06,1.5508e+07,-152.8,0,1.1846e+08,-19.841,12117,10867,1,10867,1,-0.00056688,-1.4704e-09,0,5.7991e-06,-0.0001215,-2.3057e+08,-471.48,0,2.4632e+06,-239.63,10866,11508,1,11508,1,-0.00028633,-8.2273e-10,0,0.00014607,-6.8916e-05,-1.1646e+08,-271.57,0,5.9407e+07,-34.163,11507,12724,1,12724,1,0.00036824,-1.3051e-10,0,0.00047336,5.374e-05,1.3519e+08,-44.025,0,1.8469e+08,-7.9671,12723,702.88,0,702.88,0,0.00036411,4.3576e-10,0,0.00018441,6.8233e-05,1.3957e+08,142.08,0,6.9521e+07,36.963,702.88,1
2344,2.31,12116,1,12116,1,3.9268e-05,-2.8321e-10,0,0.00031769,-7.2667e-06,8.5606e+06,-92.821,0,1.2181e+08,-15.96,12115,13336,1,13336,1,0.00065166,1.4496e-10,0,0.00065166,0.00010679,2.3484e+08,49.645,0,2.3484e+08,7.6163,13335,12118,1,12118,1,4.1172e-05,-3.0475e-10,0,0.00032294,-7.5992e-06,1.559e+07,-98.223,0,1.19e+08,-3.2299,12117,10867,1,10867,1,-0.00056932,-6.4546e-10,0,5.7886e-06,-0.00012204,-2.3156e+08,-221.03,0,2.4598e+06,-224.38,10866,11508,1,11508,1,-0.00028755,-4.3079e-10,0,0.00014667,-6.9225e-05,-1.1696e+08,-142.79,0,5.9652e+07,-13.759,11507,12724,1,12724,1,0.00036989,-1.4608e-10,0,0.00047539,5.3969e-05,1.3579e+08,-46.336,0,1.8545e+08,0.16397,12723,702.88,0,702.88,0,0.0003657,1.7001e-10,0,0.00018522,6.8531e-05,1.4016e+08,56.192,0,6.9809e+07,32.853,702.88,1
2344,2.32,12116,1,12116,1,3.9475e-05,-6.3676e-10,0,0.00031907,-7.3049e-06,8.5972e+06,-208.19,0,1.2232e+08,-20.106,12115,13336,1,13336,1,0.00065453,1.3605e-09,0,0.00065453,0.00010725,2.3577e+08,465.71,0,2.3577e+08,55.27,13335,12118,1,12118,1,4.1386e-05,-5.8928e-10,0,0.00032437,-7.6389e-06,1.5671e+07,-193.69,0,1.1952e+08,-12.191,12117,10867,1,10867,1,-0.00057176,-2.5163e-09,0,5.7777e-06,-0.00012258,-2.3256e+08,-806.8,0,2.4563e+06,-223,10866,11508,1,11508,1,-0.00028876,-1.3158e-09,0,0.00014727,-6.9531e-05,-1.1745e+08,-430.11,0,5.9896e+07,-33.524,11507,12724,1,12724,1,0.00037153,5.6195e-11,0,0.00047741,5.4196e-05,1.3639e+08,17.679,0,1.8621e+08,3.4353,12723,702.88,0,702.88,0,0.00036728,8.5384e-10,0,0.00018603,6.8828e-05,1.4075e+08,279.57,0,7.0095e+07,39.469,702.88,1
2344,2.33,12116,1,12116,1,3.9682e-05,1.4221e-09,0,0.00032045,-7.3432e-06,8.6341e+06,464.37,0,1.2284e+08,1.5068,12115,13336,1,13336,1,0.00065741,3.1455e-09,0,0.00065741,0.0001077,2.3671e+08,1000.6,0,2.3671e+08,82.787,13335,12118,1,12118,1,4.1602e-05,1.4501e-09,0,0.00032581,-7.6788e-06,1.5752e+07,474.92,0,1.2005e+08,9.2629,12117,10867,1,10867,1,-0.0005742,-4.042e-10,0,5.7662e-06,-0.00012311,-2.3355e+08,-122.55,0,2.4525e+06,-234.78,10866,11508,1,11508,1,-0.00028997,6.0465e-10,0,0.00014787,-6.9839e-05,-1.1794e+08,195.74,0,6.0141e+07,-11.189,11507,12724,1,12724,1,0.00037317,2.2467e-09,0,0.00047944,5.4423e-05,1.3698e+08,732.62,0,1.8697e+08,28.552,12723,702.88,0,702.88,0,0.00036888,9.4332e-10,0,0.00018684,6.9126e-05,1.4133e+08,308.24,0,7.0383e+07,44.078,702.88,1
2344,2.34,12116,1,12116,1,3.9891e-05,-2.0438e-10,0,0.00032184,-7.3819e-06,8.6711e+06,-66.419,0,1.2336e+08,-19.428,12115,13336,1,13336,1,0.00066029,2.0407e-09,0,0.00066029,0.00010816,2.3764e+08,698.21,0,2.3764e+08,60.46,13335,12118,1,12118,1,4.1819e-05,-9.1313e-11,0,0.00032726,-7.719e-06,1.5835e+07,-30.251,0,1.2059e+08,-12.962,12117,10867,1,10867,1,-0.00057665,-2.4112e-09,0,5.7546e-06,-0.00012365,-2.3454e+08,-773.11,0,2.4487e+06,-237.81,10866,11508,1,11508,1,-0.0002912,-8.7386e-10,0,0.00014848,-7.0149e-05,-1.1844e+08,-282.39,0,6.0386e+07,-42.502,11507,12724,1,12724,1,0.00037483,3.5658e-10,0,0.00048149,5.4653e-05,1.3758e+08,115.14,0,1.8774e+08,12.921,12723,702.88,0,702.88,0,0.00037047,9.5364e-10,0,0.00018766,6.9425e-05,1.4193e+08,312.44,0,7.0671e+07,45.235,702.88,1
2344,2.35,12116,1,12116,1,4.0098e-05,-4.2492e-10,0,0.00032321,-7.4202e-06,8.7077e+06,-139.18,0,1.2387e+08,-19.393,12115,13336,1,13336,1,0.00066314,4.8721e-09,0,0.00066314,0.00010862,2.3856e+08,1607.3,0,2.3856e+08,93.145,13335,12118,1,12118,1,4.2034e-05,6.9809e-12,0,0.00032869,-7.7589e-06,1.5916e+07,2.2543,0,1.2111e+08,-15.546,12117,10867,1,10867,1,-0.00057907,-5.5e-09,0,5.7413e-06,-0.00012419,-2.3553e+08,-1784.3,0,2.4443e+06,-459.14,10866,11508,1,11508,1,-0.00029239,-1.9753e-09,0,0.00014907,-7.0453e-05,-1.1892e+08,-643.05,0,6.0628e+07,-55.421,11507,12724,1,12724,1,0.00037646,1.0251e-09,0,0.0004835,5.4878e-05,1.3818e+08,332.75,0,1.8849e+08,30.141,12723,702.88,0,702.88,0,0.00037205,2.3597e-09,0,0.00018846,6.972e-05,1.4251e+08,773.43,0,7.0955e+07,60.968,702.88,1
2344,2.36,12116,1,12116,1,4.0307e-05,-1.1691e-09,0,0.00032461,-7.459e-06,8.7446e+06,-382.14,0,1.2439e+08,-26.57,12115,13336,1,13336,1,0.00066604,2.9752e-09,0,0.00066604,0.00010908,2.395e+08,996.11,0,2.395e+08,96.494,13335,12118,1,12118,1,4.2252e-05,-8.4822e-10,0,0.00033014,-7.7993e-06,1.5998e+07,-270.97,0,1.2165e+08,-19.577,12117,10867,1,10867,1,-0.00058154,-5.5133e-09,0,5.7293e-06,-0.00012473,-2.3653e+08,-1767.7,0,2.4403e+06,-228.19,10866,11508,1,11508,1,-0.00029362,-2.6091e-09,0,0.00014968,-7.0764e-05,-1.1942e+08,-852.25,0,6.0874e+07,-68.539,11507,12724,1,12724,1,0.00037812,2.0264e-10,0,0.00048554,5.5107e-05,1.3878e+08,64.816,0,1.8926e+08,19.992,12723,702.88,0,702.88,0,0.00037365,1.9406e-09,0,0.00018928,7.0021e-05,1.431e+08,635.92,0,7.1244e+07,60.974,702.88,1
2344,2.37,12116,1,12116,1,4.0518e-05,-1.3408e-09,0,0.000326,-7.498e-06,8.7816e+06,-438.56,0,1.249e+08,-35.772,12115,13336,1,13336,1,0.00066893,2.348e-09,0,0.00066893,0.00010954,2.4043e+08,803.35,0,2.4043e+08,103.27,13335,12118,1,12118,1,4.247e-05,-1.1614e-09,0,0.00033159,-7.8398e-06,1.6081e+07,-381.69,0,1.2218e+08,-33.501,12117,10867,1,10867,1,-0.00058398,-5.3634e-09,0,5.7155e-06,-0.00012527,-2.3753e+08,-1719.6,0,2.4357e+06,-225.46,10866,11508,1,11508,1,-0.00029483,-2.8237e-09,0,0.00015028,-7.1073e-05,-1.1992e+08,-925.93,0,6.1119e+07,-80.208,11507,12724,1,12724,1,0.00037977,1.0584e-10,0,0.00048758,5.5335e-05,1.3938e+08,34.087,0,1.9002e+08,10.259,12723,702.88,0,702.88,0,0.00037525,1.8109e-09,0,0.00019009,7.032e-05,1.4369e+08,593.33,0,7.1532e+07,59.448,702.88,1
2344,2.38,12116,1,12116,1,4.0729e-05,-1.1504e-09,0,0.00032739,-7.537e-06,8.8187e+06,-376.44,0,1.2542e+08,-26.039,12115,13336,1,13336,1,0.00067181,8.4656e-10,0,0.00067181,0.00011,2.4136e+08,289.88,0,2.4136e+08,56.07,13335,12118,1,12118,1,4.269e-05,-1.0885e-09,0,0.00033304,-7.8804e-06,1.6164e+07,-354.7,0,1.2272e+08,-20.927,12117,10867,1,10867,1,-0.00058643,-3.4118e-09,0,5.7019e-06,-0.00012581,-2.3852e+08,-1093.9,0,2.4311e+06,-224.76,10866,11508,1,11508,1,-0.00029606,-2.0196e-09,0,0.00015088,-7.1384e-05,-1.2041e+08,-659.64,0,6.1364e+07,-47.409,11507,12724,1,12724,1,0.00038143,-2.1624e-10,0,0.00048962,5.5565e-05,1.3998e+08,-67.902,0,1.9079e+08,3.2995,12723,702.88,0,702.88,0,0.00037685,1.0282e-09,0,0.00019091,7.062e-05,1.4428e+08,337.39,0,7.182e+07,42.637,702.88,1
2344,2.39,12116,1,12116,1,4.094e-05,-8.081e-10,0,0.00032878,-7.576e-06,8.8556e+06,-264.5,0,1.2594e+08,-21.529,12115,13336,1,13336,1,0.00067469,1.1457e-09,0,0.00067469,0.00011045,2.4229e+08,392.27,0,2.4229e+08,56.713,13335,12118,1,12118,1,4.2909e-05,-7.5379e-10,0,0.00033449,-7.921e-06,1.6247e+07,-242.74,0,1.2325e+08,-15.805,12117,10867,1,10867,1,-0.00058887,-2.8275e-09,0,5.6874e-06,-0.00012635,-2.3952e+08,-906.54,0,2.4262e+06,-230.14,10866,11508,1,11508,1,-0.00029727,-1.5617e-09,0,0.00015148,-7.1693e-05,-1.2091e+08,-510.62,0,6.1608e+07,-39.555,11507,12724,1,12724,1,0.00038309,-1.2637e-11,0,0.00049166,5.5793e-05,1.4058e+08,-4.3182,0,1.9155e+08,4.6827,12723,702.88,0,702.88,0,0.00037845,9.1201e-10,0,0.00019173,7.0919e-05,1.4487e+08,299.05,0,7.2107e+07,40.601,702.88,1
2344,2.4,12116,1,12116,1,4.1152e-05,-7.6489e-10,0,0.00033017,-7.6152e-06,8.8926e+06,-250.31,0,1.2645e+08,-24.404,12115,13336,1,13336,1,0.00067758,2.6548e-10,0,0.00067758,0.00011091,2.4321e+08,80.295,0,2.4321e+08,19.113,13335,12118,1,12118,1,4.3129e-05,-7.3508e-10,0,0.00033595,-7.9619e-06,1.6331e+07,-240.51,0,1.2379e+08,-10.732,12117,10867,1,10867,1,-0.00059132,-1.774e-09,0,5.6728e-06,-0.00012689,-2.4051e+08,-568.76,0,2.4212e+06,-229.77,10866,11508,1,11508,1,-0.00029849,-1.2147e-09,0,0.00015208,-7.2004e-05,-1.214e+08,-397.55,0,6.1853e+07,-33.872,11507,12724,1,12724,1,0.00038475,-3.2697e-10,0,0.0004937,5.6022e-05,1.4118e+08,-107.49,0,1.9231e+08,-1.8289,12723,702.88,0,702.88,0,0.00038005,5.3164e-10,0,0.00019254,7.1219e-05,1.4546e+08,173.94,0,7.2394e+07,38.066,702.88,1
2344,2.41,12116,1,12116,1,4.1362e-05,1.0726e-09,0,0.00033154,-7.6541e-06,8.9292e+06,350.37,0,1.2696e+08,7.4938,12115,13336,1,13336,1,0.00068045,4.1208e-09,0,0.00068045,0.00011137,2.4413e+08,1322,0,2.4413e+08,151.85,13335,12118,1,12118,1,4.3348e-05,7.0674e-10,0,0.00033738,-8.0022e-06,1.6414e+07,231.3,0,1.2432e+08,11.932,12117,10867,1,10867,1,-0.00059375,-1.4034e-09,0,5.6573e-06,-0.00012742,-2.415e+08,-480.41,0,2.4159e+06,-226.19,10866,11508,1,11508,1,-0.00029969,-7.7549e-11,0,0.00015268,-7.231e-05,-1.2189e+08,-25.809,0,6.2094e+07,-17.177,11507,12724,1,12724,1,0.00038638,2.2064e-09,0,0.00049571,5.6247e-05,1.4177e+08,712.96,0,1.9306e+08,44.565,12723,702.88,0,702.88,0,0.00038163,1.3586e-09,0,0.00019335,7.1515e-05,1.4604e+08,444.55,0,7.2678e+07,58.84,702.88,1
2344,2.42,12116,1,12116,1,4.1575e-05,-8.1544e-10,0,0.00033293,-7.6935e-06,8.9661e+06,-265.92,0,1.2748e+08,-16.842,12115,13336,1,13336,1,0.00068334,1.2679e-09,0,0.00068334,0.00011183,2.4506e+08,434.11,0,2.4506e+08,76.256,13335,12118,1,12118,1,4.3569e-05,-6.1671e-10,0,0.00033884,-8.0432e-06,1.6497e+07,-198.45,0,1.2485e+08,-12.711,12117,10867,1,10867,1,-0.0005962,-3.5046e-09,0,5.642e-06,-0.00012796,-2.425e+08,-1123.6,0,2.4106e+06,-266.3,10866,11508,1,11508,1,-0.00030091,-1.7182e-09,0,0.00015328,-7.2621e-05,-1.2239e+08,-562.13,0,6.2339e+07,-37.605,11507,12724,1,12724,1,0.00038805,1.0215e-10,0,0.00049775,5.6476e-05,1.4237e+08,32.285,0,1.9383e+08,15.731,12723,702.88,0,702.88,0,0.00038323,1.1468e-09,0,0.00019417,7.1814e-05,1.4663e+08,375.45,0,7.2965e+07,50.249,702.88,1
2344,2.43,12116,1,12116,1,4.1798e-05,1.5774e-09,0,0.00033432,-7.7348e-06,9.0027e+06,514.11,0,1.2799e+08,9.3239,12115,13336,1,13336,1,0.00068623,4.1011e-09,0,0.00068623,0.00011229,2.4597e+08,1308.4,0,2.4597e+08,151.76,13335,12118,1,12118,1,4.3801e-05,1.6039e-09,0,0.0003403,-8.0861e-06,1.6585e+07,532.13,0,1.2538e+08,17.312,12117,10867,1,10867,1,-0.00059863,-1.3136e-09,0,5.6143e-06,-0.00012851,-2.4348e+08,-449.74,0,2.4005e+06,-271.93,10866,11508,1,11508,1,-0.00030211,4.6001e-10,0,0.00015387,-7.2931e-05,-1.2288e+08,149.5,0,6.2578e+07,-20.446,11507,12724,1,12724,1,0.00038971,2.5659e-09,0,0.00049977,5.6701e-05,1.4296e+08,837.17,0,1.9457e+08,50.477,12723,702.88,0,702.88,0,0.00038482,1.2921e-09,0,0.00019498,7.2113e-05,1.4721e+08,420.37,0,7.3247e+07,67.264,702.88,1
2344,2.44,12116,1,12116,1,4.2034e-05,-2.8095e-09,0,0.00033571,-7.7786e-06,9.0396e+06,-916.12,0,1.285e+08,-44.158,12115,13336,1,13336,1,0.00068916,1.0895e-09,0,0.00068916,0.00011274,2.4687e+08,328.67,0,2.4687e+08,110.86,13335,12118,1,12118,1,4.4045e-05,-2.808e-09,0,0.00034177,-8.1317e-06,1.6678e+07,-905.66,0,1.2591e+08,-35.641,12117,10867,1,10867,1,-0.00060107,-6.7254e-09,0,5.5753e-06,-0.00012905,-2.4448e+08,-2156.2,0,2.3859e+06,-319.48,10866,11508,1,11508,1,-0.0003033,-4.4796e-09,0,0.00015444,-7.3245e-05,-1.2336e+08,-1463.6,0,6.2813e+07,-78.163,11507,12724,1,12724,1,0.00039138,-1.1576e-09,0,0.00050177,5.6924e-05,1.4354e+08,-369.41,0,1.9531e+08,2.382,12723,702.88,0,702.88,0,0.00038642,1.9476e-09,0,0.0001958,7.2412e-05,1.4779e+08,633.78,0,7.3527e+07,65.107,702.88,1
2344,2.45,12116,1,12116,1,4.2272e-05,1.5306e-09,0,0.00033711,-7.8225e-06,9.0764e+06,497.74,0,1.2901e+08,5.3689,12115,13336,1,13336,1,0.00069208,4.1613e-09,0,0.00069208,0.0001132,2.4777e+08,1323.4,0,2.4777e+08,166.04,13335,12118,1,12118,1,4.4291e-05,1.5051e-09,0,0.00034326,-8.1772e-06,1.6771e+07,498.39,0,1.2643e+08,9.9813,12117,10867,1,10867,1,-0.00060349,-5.499e-10,0,5.5353e-06,-0.0001296,-2.4546e+08,-188.33,0,2.3709e+06,-315.51,10866,11508,1,11508,1,-0.0003045,5.7217e-10,0,0.00015502,-7.3563e-05,-1.2385e+08,186.94,0,6.3049e+07,-14.416,11507,12724,1,12724,1,0.00039308,2.3601e-09,0,0.00050381,5.715e-05,1.4413e+08,763.62,0,1.9605e+08,43.529,12723,702.88,0,702.88,0,0.00038803,1.1406e-09,0,0.00019663,7.2714e-05,1.4837e+08,369.2,0,7.3808e+07,71.43,702.88,1
2344,2.46,12116,1,12116,1,4.251e-05,-2.1259e-09,0,0.0003385,-7.8666e-06,9.1132e+06,-693.4,0,1.2951e+08,-35.805,12115,13336,1,13336,1,0.000695,2.0361e-09,0,0.000695,0.00011365,2.4866e+08,696.97,0,2.4866e+08,96.744,13335,12118,1,12118,1,4.4538e-05,-2.0433e-09,0,0.00034473,-8.223e-06,1.6864e+07,-661.28,0,1.2696e+08,-25.574,12117,10867,1,10867,1,-0.00060592,-6.6034e-09,0,5.494e-06,-0.00013015,-2.4645e+08,-2117,0,2.3555e+06,-345.03,10866,11508,1,11508,1,-0.00030568,-3.9339e-09,0,0.0001556,-7.3876e-05,-1.2433e+08,-1284.2,0,6.3282e+07,-75.062,11507,12724,1,12724,1,0.00039476,-1.5935e-10,0,0.00050581,5.7372e-05,1.4471e+08,-49.737,0,1.9678e+08,8.9933,12723,702.88,0,702.88,0,0.00038962,2.1532e-09,0,0.00019744,7.3012e-05,1.4895e+08,703.24,0,7.4086e+07,67.045,702.88,1
2344,2.47,12116,1,12116,1,4.2748e-05,-1.0739e-09,0,0.00033989,-7.9106e-06,9.1497e+06,-352.16,0,1.3001e+08,-23.425,12115,13336,1,13336,1,0.00069791,4.2939e-09,0,0.00069791,0.00011411,2.4955e+08,1393.2,0,2.4955e+08,180.23,13335,12118,1,12118,1,4.4784e-05,-8.8294e-10,0,0.00034621,-8.2686e-06,1.6957e+07,-292.21,0,1.2748e+08,-30.549,12117,10867,1,10867,1,-0.00060834,-5.7461e-09,0,5.4528e-06,-0.00013069,-2.4743e+08,-1842.2,0,2.3401e+06,-316.85,10866,11508,1,11508,1,-0.00030688,-2.8943e-09,0,0.00015617,-7.4191e-05,-1.2482e+08,-941.87,0,6.3515e+07,-71.352,11507,12724,1,12724,1,0.00039644,4.0668e-10,0,0.00050783,5.7596e-05,1.4529e+08,130.05,0,1.9752e+08,30.21,12723,702.88,0,702.88,0,0.00039122,2.4187e-09,0,0.00019826,7.3311e-05,1.4952e+08,792.78,0,7.4364e+07,76.828,702.88,1
2344,2.48,12116,1,12116,1,4.2986e-05,-1.5161e-09,0,0.00034127,-7.9547e-06,9.1862e+06,-496.72,0,1.3052e+08,-23.452,12115,13336,1,13336,1,0.00070082,5.6126e-09,0,0.00070082,0.00011456,2.5043e+08,1811.7,0,2.5043e+08,178.66,13335,12118,1,12118,1,4.503e-05,-7.046e-10,0,0.00034768,-8.3143e-06,1.7051e+07,-228.71,0,1.28e+08,-31.798,12117,10867,1,10867,1,-0.00061075,-9.6784e-09,0,5.4104e-06,-0.00013123,-2.4841e+08,-3115.7,0,2.3241e+06,-338.38,10866,11508,1,11508,1,-0.00030806,-4.0355e-09,0,0.00015674,-7.4503e-05,-1.2529e+08,-1338.8,0,6.3746e+07,-94.951,11507,12724,1,12724,1,0.00039811,9.6407e-10,0,0.00050982,5.7817e-05,1.4587e+08,315.75,0,1.9824e+08,51.903,12723,702.88,0,702.88,0,0.00039281,3.7898e-09,0,0.00019908,7.3608e-05,1.5009e+08,1241.6,0,7.464e+07,95.363,702.88,1
2344,2.49,12116,1,12116,1,4.3228e-05,-5.0324e-10,0,0.00034268,-7.9993e-06,9.2232e+06,-166.26,0,1.3103e+08,-17.439,12115,13336,1,13336,1,0.00070375,4.5431e-09,0,0.00070375,0.00011502,2.5133e+08,1456.5,0,2.5133e+08,147.32,13335,12118,1,12118,1,4.528e-05,-1.2512e-10,0,0.00034918,-8.3607e-06,1.7145e+07,-40.615,0,1.2853e+08,-18.132,12117,10867,1,10867,1,-0.00061319,-5.4232e-09,0,5.3679e-06,-0.00013178,-2.4941e+08,-1764.6,0,2.3082e+06,-366.1,10866,11508,1,11508,1,-0.00030926,-2.1807e-09,0,0.00015732,-7.4822e-05,-1.2579e+08,-719.39,0,6.3982e+07,-68.641,11507,12724,1,12724,1,0.00039982,1.0174e-09,0,0.00051186,5.8044e-05,1.4646e+08,330.49,0,1.9899e+08,44.001,12723,702.88,0,702.88,0,0.00039443,2.4177e-09,0,0.00019991,7.3911e-05,1.5068e+08,793.2,0,7.4922e+07,80.672,702.88,1
2344,2.5,12116,1,12116,1,4.3471e-05,-9.99e-10,0,0.00034408,-8.0443e-06,9.2601e+06,-326.86,0,1.3154e+08,-22.418,12115,13336,1,13336,1,0.00070669,1.5089e-09,0,0.00070669,0.00011547,2.5222e+08,516.53,0,2.5222e+08,69.572,13335,12118,1,12118,1,4.5532e-05,-8.6184e-10,0,0.00035067,-8.4075e-06,1.7241e+07,-274.3,0,1.2906e+08,-18.123,12117,10867,1,10867,1,-0.00061562,-3.5351e-09,0,5.3238e-06,-0.00013233,-2.504e+08,-1133.3,0,2.2916e+06,-285.74,10866,11508,1,11508,1,-0.00031046,-1.9672e-09,0,0.0001579,-7.514e-05,-1.2627e+08,-641.54,0,6.4217e+07,-41.579,11507,12724,1,12724,1,0.00040152,-1.6593e-11,0,0.00051389,5.8269e-05,1.4704e+08,-5.0533,0,1.9973e+08,8.4532,12723,702.88,0,702.88,0,0.00039604,1.2582e-09,0,0.00020074,7.4213e-05,1.5126e+08,413.87,0,7.5202e+07,47.822,702.88,1
2344,2.51,12116,1,12116,1,4.3714e-05,-4.0058e-10,0,0.00034548,-8.0892e-06,9.2969e+06,-131.58,0,1.3204e+08,-19.155,12115,13336,1,13336,1,0.00070961,1.4846e-09,0,0.00070961,0.00011593,2.5311e+08,508.21,0,2.5311e+08,38.825,13335,12118,1,12118,1,4.5783e-05,-2.7887e-10,0,0.00035216,-8.4541e-06,1.7336e+07,-92.848,0,1.2959e+08,-7.2006,12117,10867,1,10867,1,-0.00061804,-2.1511e-09,0,5.2785e-06,-0.00013288,-2.5138e+08,-733.68,0,2.2747e+06,-747.26,10866,11508,1,11508,1,-0.00031165,-8.9134e-10,0,0.00015847,-7.5457e-05,-1.2676e+08,-287.99,0,6.445e+07,-27.779,11507,12724,1,12724,1,0.00040322,1.2426e-10,0,0.0005159,5.8493e-05,1.4762e+08,38.458,0,2.0046e+08,7.0335,12723,702.88,0,702.88,0,0.00039765,7.5458e-10,0,0.00020156,7.4514e-05,1.5183e+08,248.45,0,7.548e+07,49.652,702.88,1
2344,2.52,12116,1,12116,1,4.3956e-05,-8.9187e-10,0,0.00034687,-8.1341e-06,9.3334e+06,-291.96,0,1.3255e+08,-13.522,12115,13336,1,13336,1,0.00071254,3.8229e-09,0,0.00071254,0.00011638,2.5399e+08,1225.5,0,2.5399e+08,176.94,13335,12118,1,12118,1,4.6033e-05,-6.3074e-10,0,0.00035364,-8.5005e-06,1.7431e+07,-200.5,0,1.3011e+08,-20.509,12117,10867,1,10867,1,-0.00062047,-5.3215e-09,0,5.233e-06,-0.00013342,-2.5237e+08,-1756.3,0,2.2575e+06,-754.59,10866,11508,1,11508,1,-0.00031284,-2.6478e-09,0,0.00015904,-7.5772e-05,-1.2724e+08,-845.29,0,6.4681e+07,-59.765,11507,12724,1,12724,1,0.0004049,5.8144e-10,0,0.0005179,5.8715e-05,1.482e+08,190.65,0,2.0119e+08,43.187,12723,702.88,0,702.88,0,0.00039924,2.3e-09,0,0.00020238,7.4812e-05,1.5241e+08,752.68,0,7.5756e+07,82.255,702.88,1
2344,2.53,12116,1,12116,1,4.4201e-05,9.258e-10,0,0.00034827,-8.1793e-06,9.3703e+06,300.91,0,1.3305e+08,-12.876,12115,13336,1,13336,1,0.00071547,2.5291e-09,0,0.00071547,0.00011684,2.5488e+08,799.88,0,2.5488e+08,102.76,13335,12118,1,12118,1,4.6287e-05,8.6271e-10,0,0.00035513,-8.5475e-06,1.7526e+07,278.53,0,1.3065e+08,0.70576,12117,10867,1,10867,1,-0.0006229,-1.0566e-09,0,5.1868e-06,-0.00013397,-2.5336e+08,-354.43,0,2.2401e+06,-1684.8,10866,11508,1,11508,1,-0.00031403,3.2607e-10,0,0.00015961,-7.609e-05,-1.2773e+08,107.24,0,6.4916e+07,-19.626,11507,12724,1,12724,1,0.00040661,1.5217e-09,0,0.00051993,5.8939e-05,1.4879e+08,496.92,0,2.0192e+08,20.113,12723,702.88,0,702.88,0,0.00040085,7.6984e-10,0,0.00020321,7.5114e-05,1.5298e+08,249.62,0,7.6035e+07,97.257,702.88,1
2344,2.54,12116,1,12116,1,4.4443e-05,-8.9589e-10,0,0.00034964,-8.2241e-06,9.4065e+06,-293.04,0,1.3355e+08,-26.843,12115,13336,1,13336,1,0.00071837,6.7426e-09,0,0.00071837,0.00011729,2.5575e+08,2165.4,0,2.5575e+08,177.43,13335,12118,1,12118,1,4.6537e-05,-2.0118e-10,0,0.00035659,-8.5939e-06,1.7621e+07,-67.39,0,1.3116e+08,-31.649,12117,10867,1,10867,1,-0.00062529,-9.0958e-09,0,5.1385e-06,-0.00013451,-2.5433e+08,-3000.8,0,2.2218e+06,-1683.7,10866,11508,1,11508,1,-0.00031519,-3.5647e-09,0,0.00016017,-7.6401e-05,-1.282e+08,-1134.9,0,6.5142e+07,-90.973,11507,12724,1,12724,1,0.00040827,1.5076e-09,0,0.00052189,5.9157e-05,1.4936e+08,483.79,0,2.0264e+08,51.968,12723,702.88,0,702.88,0,0.00040242,3.8314e-09,0,0.00020402,7.5409e-05,1.5355e+08,1253,0,7.6306e+07,110.17,702.88,1
2344,2.55,12116,1,12116,1,4.469e-05,-1.8299e-09,0,0.00035106,-8.2699e-06,9.4438e+06,-597.7,0,1.3406e+08,-35.314,12115,13336,1,13336,1,0.00072135,5.714e-10,0,0.00072135,0.00011775,2.5665e+08,171.4,0,2.5665e+08,70.324,13335,12118,1,12118,1,4.6793e-05,-1.8747e-09,0,0.00035811,-8.6416e-06,1.7718e+07,-614.11,0,1.317e+08,-26.234,12117,10867,1,10867,1,-0.00062775,-4.034e-09,0,5.0923e-06,-0.00013507,-2.5533e+08,-1295.6,0,2.2045e+06,-797.89,10866,11508,1,11508,1,-0.00031641,-2.831e-09,0,0.00016076,-7.6723e-05,-1.2869e+08,-939.89,0,6.538e+07,-56.212,11507,12724,1,12724,1,0.00040999,-9.0053e-10,0,0.00052395,5.9385e-05,1.4995e+08,-285.94,0,2.0338e+08,-2.8752,12723,702.88,0,702.88,0,0.00040406,1.1724e-09,0,0.00020486,7.5715e-05,1.5413e+08,383.97,0,7.659e+07,52.597,702.88,1
2344,2.56,12116,1,12116,1,4.4936e-05,-1.1964e-09,0,0.00035244,-8.3154e-06,9.4802e+06,-391.9,0,1.3456e+08,-25.998,12115,13336,1,13336,1,0.00072425,3.3288e-09,0,0.00072425,0.0001182,2.5752e+08,1081.6,0,2.5752e+08,130.15,13335,12118,1,12118,1,4.7047e-05,-1.1028e-09,0,0.00035959,-8.6887e-06,1.7814e+07,-353.62,0,1.3222e+08,-21.201,12117,10867,1,10867,1,-0.00063015,-5.059e-09,0,5.0423e-06,-0.00013561,-2.5631e+08,-1621.7,0,2.1856e+06,-1533.1,10866,11508,1,11508,1,-0.00031758,-2.7387e-09,0,0.00016132,-7.7038e-05,-1.2917e+08,-892.83,0,6.5608e+07,-61.932,11507,12724,1,12724,1,0.00041167,1.9364e-10,0,0.00052594,5.9605e-05,1.5053e+08,63.78,0,2.041e+08,20.801,12723,702.88,0,702.88,0,0.00040565,1.9908e-09,0,0.00020567,7.6012e-05,1.547e+08,652.03,0,7.6863e+07,86.726,702.88,1
2344,2.57,12116,1,12116,1,4.5182e-05,-1.1237e-09,0,0.00035383,-8.3609e-06,9.5166e+06,-368.36,0,1.3506e+08,-30.119,12115,13336,1,13336,1,0.00072717,5.2695e-09,0,0.00072717,0.00011865,2.5839e+08,1689.2,0,2.5839e+08,177.26,13335,12118,1,12118,1,4.7301e-05,-6.9132e-10,0,0.00036107,-8.7358e-06,1.791e+07,-221.67,0,1.3274e+08,-33.646,12117,10867,1,10867,1,-0.00063257,-7.4205e-09,0,4.9931e-06,-0.00013616,-2.5729e+08,-2420.8,0,2.1671e+06,-1491.1,10866,11508,1,11508,1,-0.00031876,-3.3916e-09,0,0.00016188,-7.7353e-05,-1.2965e+08,-1094,0,6.5838e+07,-86.447,11507,12724,1,12724,1,0.00041336,8.8327e-10,0,0.00052794,5.9826e-05,1.511e+08,277.19,0,2.0482e+08,41.314,12723,702.88,0,702.88,0,0.00040724,3.1076e-09,0,0.00020649,7.631e-05,1.5527e+08,1017.6,0,7.7137e+07,120.01,702.88,1
2344,2.58,12116,1,12116,1,4.543e-05,-1.3825e-09,0,0.00035523,-8.4068e-06,9.5534e+06,-452.59,0,1.3557e+08,-32.215,12115,13336,1,13336,1,0.00073011,3.5928e-09,0,0.00073011,0.00011911,2.5927e+08,1154.2,0,2.5927e+08,136.07,13335,12118,1,12118,1,4.7557e-05,-1.164e-09,0,0.00036256,-8.7834e-06,1.8007e+07,-385.44,0,1.3327e+08,-26.533,12117,10867,1,10867,1,-0.00063499,-5.8842e-09,0,4.9429e-06,-0.00013671,-2.5827e+08,-1958.4,0,2.1482e+06,-1418.2,10866,11508,1,11508,1,-0.00031995,-3.112e-09,0,0.00016245,-7.7671e-05,-1.3013e+08,-1014,0,6.607e+07,-71.457,11507,12724,1,12724,1,0.00041506,1.5005e-10,0,0.00052995,6.005e-05,1.5169e+08,49.742,0,2.0555e+08,24.754,12723,702.88,0,702.88,0,0.00040885,2.2661e-09,0,0.00020732,7.6612e-05,1.5585e+08,743.46,0,7.7415e+07,110.83,702.88,1
2344,2.59,12116,1,12116,1,4.568e-05,-4.9416e-10,0,0.00035664,-8.453e-06,9.5903e+06,-162.39,0,1.3607e+08,-30.919,12115,13336,1,13336,1,0.00073305,5.7565e-10,0,0.00073305,0.00011956,2.6014e+08,197.13,0,2.6014e+08,25.632,13335,12118,1,12118,1,4.7816e-05,-2.8282e-10,0,0.00036407,-8.8315e-06,1.8105e+07,-91.689,0,1.338e+08,-17.071,12117,10867,1,10867,1,-0.00063741,-2.2424e-09,0,4.8918e-06,-0.00013726,-2.5926e+08,-767.61,0,2.1288e+06,-1306.2,10866,11508,1,11508,1,-0.00032115,-8.3977e-10,0,0.00016302,-7.7991e-05,-1.3062e+08,-274.07,0,6.6301e+07,-30.395,11507,12724,1,12724,1,0.00041678,-5.0842e-11,0,0.00053198,6.0274e-05,1.5227e+08,-16.195,0,2.0629e+08,-0.5063,12723,702.88,0,702.88,0,0.00041047,5.9744e-10,0,0.00020815,7.6914e-05,1.5642e+08,198.28,0,7.7692e+07,93.377,702.88,1
2344,2.6,12116,1,12116,1,4.593e-05,4.8593e-10,0,0.00035803,-8.4993e-06,9.6269e+06,157.63,0,1.3658e+08,-18.361,12115,13336,1,13336,1,0.00073598,2.8369e-09,0,0.00073598,0.00012001,2.6102e+08,909.35,0,2.6102e+08,82.385,13335,12118,1,12118,1,4.8075e-05,3.093e-10,0,0.00036557,-8.8795e-06,1.8203e+07,100.18,0,1.3433e+08,-0.40814,12117,10867,1,10867,1,-0.00063983,-1.3929e-09,0,4.8396e-06,-0.00013781,-2.6024e+08,-476.8,0,2.1091e+06,-1244.3,10866,11508,1,11508,1,-0.00032233,-1.218e-10,0,0.00016359,-7.831e-05,-1.311e+08,-38.336,0,6.6531e+07,-27.2,11507,12724,1,12724,1,0.00041848,1.1083e-09,0,0.00053399,6.0497e-05,1.5286e+08,360.26,0,2.0701e+08,23.643,12723,702.88,0,702.88,0,0.00041207,9.0127e-10,0,0.00020898,7.7215e-05,1.57e+08,294.94,0,7.7968e+07,121.71,702.88,1
2344,2.61,12116,1,12116,1,4.6182e-05,-1.3898e-09,0,0.00035943,-8.5458e-06,9.6637e+06,-452.94,0,1.3708e+08,-44.47,12115,13336,1,13336,1,0.00073893,4.1102e-10,0,0.00073893,0.00012047,2.6189e+08,122.7,0,2.6189e+08,82.186,13335,12118,1,12118,1,4.8334e-05,-1.501e-09,0,0.00036706,-8.9278e-06,1.8302e+07,-491.13,0,1.3486e+08,-21.81,12117,10867,1,10867,1,-0.00064226,-3.3251e-09,0,4.7868e-06,-0.00013836,-2.6123e+08,-1114.3,0,2.0889e+06,-1185,10866,11508,1,11508,1,-0.00032351,-2.1176e-09,0,0.00016415,-7.8627e-05,-1.3158e+08,-696.86,0,6.6762e+07,-53.545,11507,12724,1,12724,1,0.00042018,-7.0064e-10,0,0.000536,6.0718e-05,1.5344e+08,-230.73,0,2.0774e+08,-6.0665,12723,702.88,0,702.88,0,0.00041368,8.6343e-10,0,0.0002098,7.7516e-05,1.5757e+08,281.03,0,7.8244e+07,116.36,702.88,1
2344,2.62,12116,1,12116,1,4.6431e-05,-1.1655e-09,0,0.00036082,-8.592e-06,9.6999e+06,-381.54,0,1.3758e+08,-29.437,12115,13336,1,13336,1,0.00074185,1.739e-09,0,0.00074185,0.00012092,2.6276e+08,586.79,0,2.6276e+08,105.85,13335,12118,1,12118,1,4.8592e-05,-1.0265e-09,0,0.00036855,-8.9756e-06,1.8399e+07,-330.06,0,1.3538e+08,-10.216,12117,10867,1,10867,1,-0.00064467,-4.2909e-09,0,4.7328e-06,-0.0001389,-2.6221e+08,-1399,0,2.0686e+06,-1081.9,10866,11508,1,11508,1,-0.00032469,-2.3791e-09,0,0.00016471,-7.8943e-05,-1.3206e+08,-778.99,0,6.6989e+07,-41.903,11507,12724,1,12724,1,0.00042187,3.1283e-11,0,0.00053799,6.0939e-05,1.5401e+08,9.8914,0,2.0845e+08,17.53,12723,702.88,0,702.88,0,0.00041527,1.5045e-09,0,0.00021062,7.7813e-05,1.5814e+08,492.48,0,7.8516e+07,124.07,702.88,1
2344,2.63,12116,1,12116,1,4.6684e-05,-1.9789e-09,0,0.00036222,-8.6388e-06,9.7369e+06,-646.3,0,1.3808e+08,-63.84,12115,13336,1,13336,1,0.00074481,1.2117e-09,0,0.00074481,0.00012138,2.6363e+08,414.9,0,2.6363e+08,78.894,13335,12118,1,12118,1,4.8853e-05,-1.921e-09,0,0.00037005,-9.0242e-06,1.8498e+07,-618.21,0,1.3591e+08,-43.262,12117,10867,1,10867,1,-0.0006471,-5.5871e-09,0,4.6783e-06,-0.00013946,-2.632e+08,-1829.8,0,2.048e+06,-1057.1,10866,11508,1,11508,1,-0.00032587,-3.3721e-09,0,0.00016528,-7.9261e-05,-1.3254e+08,-1105.6,0,6.722e+07,-83.442,11507,12724,1,12724,1,0.00042357,-5.4373e-10,0,0.00053999,6.1161e-05,1.5459e+08,-173,0,2.0918e+08,-4.7633,12723,702.88,0,702.88,0,0.00041688,1.6759e-09,0,0.00021145,7.8115e-05,1.5871e+08,548.16,0,7.8792e+07,130.6,702.88,1
2344,2.64,12116,1,12116,1,4.6937e-05,-1.241e-10,0,0.00036361,-8.6855e-06,9.7733e+06,-42.291,0,1.3859e+08,-29.135,12115,13336,1,13336,1,0.00074772,7.9695e-10,0,0.00074772,0.00012183,2.6449e+08,251.92,0,2.6449e+08,106.93,13335,12118,1,12118,1,4.9115e-05,-1.2802e-11,0,0.00037155,-9.0726e-06,1.8597e+07,-4.0728,0,1.3644e+08,-3.0048,12117,10867,1,10867,1,-0.00064949,-2.6143e-09,0,4.6226e-06,-0.00014,-2.6417e+08,-894.91,0,2.0268e+06,-919.36,10866,11508,1,11508,1,-0.00032705,-3.8637e-10,0,0.00016584,-7.9581e-05,-1.3302e+08,-127.44,0,6.7448e+07,-20.746,11507,12724,1,12724,1,0.00042528,3.2122e-10,0,0.00054201,6.1383e-05,1.5518e+08,105.2,0,2.099e+08,16.125,12723,702.88,0,702.88,0,0.00041848,6.356e-10,0,0.00021227,7.8415e-05,1.5928e+08,209.12,0,7.9065e+07,119.15,702.88,1
2344,2.65,12116,1,12116,1,4.7191e-05,-3.6268e-10,0,0.00036501,-8.7325e-06,9.8101e+06,-118.52,0,1.3909e+08,-37.345,12115,13336,1,13336,1,0.00075066,5.6651e-10,0,0.00075066,0.00012228,2.6536e+08,194.01,0,2.6536e+08,33.942,13335,12118,1,12118,1,4.9377e-05,-3.3899e-10,0,0.00037304,-9.1214e-06,1.8697e+07,-108.71,0,1.3697e+08,-14.301,12117,10867,1,10867,1,-0.00065191,-1.7392e-09,0,4.5668e-06,-0.00014055,-2.6516e+08,-582.78,0,2.0056e+06,-865.26,10866,11508,1,11508,1,-0.00032823,-6.0286e-10,0,0.0001664,-7.9899e-05,-1.335e+08,-196.62,0,6.7676e+07,-38.52,11507,12724,1,12724,1,0.00042699,-1.0144e-10,0,0.00054401,6.1604e-05,1.5576e+08,-33.161,0,2.1062e+08,-2.5757,12723,702.88,0,702.88,0,0.00042009,3.5919e-10,0,0.0002131,7.8715e-05,1.5985e+08,118.15,0,7.9339e+07,94.902,702.88,1
2344,2.66,12116,1,12116,1,4.7458e-05,-5.234e-10,0,0.00036638,-8.782e-06,9.8462e+06,-171.49,0,1.3957e+08,-31.831,12115,13336,1,13336,1,0.0007536,8.1585e-09,0,0.0007536,0.00012273,2.662e+08,2623.7,0,2.662e+08,222.16,13335,12118,1,12118,1,4.9652e-05,1.2438e-10,0,0.00037453,-9.1726e-06,1.8801e+07,38.192,0,1.3748e+08,-31.192,12117,10867,1,10867,1,-0.00065429,-1.0078e-08,0,4.4935e-06,-0.0001411,-2.6613e+08,-3230.3,0,1.9775e+06,-816.78,10866,11508,1,11508,1,-0.00032937,-3.7221e-09,0,0.00016694,-8.0215e-05,-1.3396e+08,-1214.4,0,6.7894e+07,-102.19,11507,12724,1,12724,1,0.00042867,2.5552e-09,0,0.00054595,6.1818e-05,1.5631e+08,835.65,0,2.1131e+08,62.683,12723,702.88,0,702.88,0,0.00042166,4.5508e-09,0,0.00021391,7.901e-05,1.604e+08,1486.5,0,7.9604e+07,130.91,702.88,1
2344,2.67,12116,1,12116,1,4.7739e-05,-3.4153e-10,0,0.00036781,-8.8339e-06,9.883e+06,-112.79,0,1.4007e+08,-41.32,12115,13336,1,13336,1,0.0007566,3.1559e-09,0,0.0007566,0.00012318,2.6705e+08,1080.3,0,2.6711e+08,88.471,13335,12118,1,12118,1,4.9942e-05,-1.3926e-12,0,0.00037608,-9.2264e-06,1.891e+07,-0.43295,0,1.38e+08,-30.402,12117,10867,1,10867,1,-0.00065671,-3.773e-09,0,4.413e-06,-0.00014166,-2.6711e+08,-1209.3,0,1.9466e+06,-645.96,10866,11508,1,11508,1,-0.00033055,-1.5346e-09,0,0.00016749,-8.0544e-05,-1.3445e+08,-491.32,0,6.8117e+07,-66.229,11507,12724,1,12724,1,0.00043044,7.4536e-10,0,0.00054798,6.204e-05,1.5689e+08,234.84,0,2.1203e+08,6.3493,12723,702.88,0,702.88,0,0.0004233,1.6823e-09,0,0.00021476,7.9316e-05,1.6097e+08,553.97,0,7.9878e+07,89.401,702.88,1
2344,2.68,12116,1,12116,1,4.8024e-05,-5.2392e-10,0,0.00036922,-8.8865e-06,9.9195e+06,-171.54,0,1.4057e+08,-30.638,12115,13336,1,13336,1,0.0007596,1.6444e-09,0,0.0007596,0.00012363,2.679e+08,563.01,0,2.6809e+08,107.28,13335,12118,1,12118,1,5.0235e-05,-3.8479e-10,0,0.00037763,-9.2808e-06,1.9021e+07,-124.18,0,1.3852e+08,-18.595,12117,10867,1,10867,1,-0.00065913,-3.0214e-09,0,4.3295e-06,-0.00014222,-2.6809e+08,-968.32,0,1.9146e+06,-543.95,10866,11508,1,11508,1,-0.00033172,-1.3937e-09,0,0.00016803,-8.0871e-05,-1.3492e+08,-451.62,0,6.8338e+07,-47.584,11507,12724,1,12724,1,0.00043219,3.0115e-10,0,0.00054998,6.2259e-05,1.5746e+08,93.334,0,2.1273e+08,13.496,12723,702.88,0,702.88,0,0.00042492,1.0777e-09,0,0.0002156,7.962e-05,1.6154e+08,353.49,0,8.0149e+07,77.666,702.88,1
2344,2.69,12116,1,12116,1,4.8308e-05,6.8284e-10,0,0.00037062,-8.9391e-06,9.956e+06,221.6,0,1.4106e+08,-22.724,12115,13336,1,13336,1,0.00076258,1.7891e-09,0,0.00076258,0.00012408,2.6873e+08,569.93,0,2.6907e+08,52.5,13335,12118,1,12118,1,5.0528e-05,7.0755e-10,0,0.00037916,-9.3353e-06,1.9132e+07,227.43,0,1.3903e+08,-8.9921,12117,10867,1,10867,1,-0.00066152,-9.1452e-10,0,4.2434e-06,-0.00014278,-2.6907e+08,-313.16,0,1.8815e+06,-415.54,10866,11508,1,11508,1,-0.00033288,1.887e-10,0,0.00016856,-8.1197e-05,-1.3539e+08,62.816,0,6.8555e+07,-26.723,11507,12724,1,12724,1,0.00043393,1.164e-09,0,0.00055196,6.2476e-05,1.5803e+08,381.65,0,2.1343e+08,4.8079,12723,702.88,0,702.88,0,0.00042653,5.7909e-10,0,0.00021644,7.9922e-05,1.6209e+08,188.84,0,8.0416e+07,56.442,702.88,1
2344,2.7,12116,1,12116,1,4.8591e-05,-7.295e-10,0,0.00037201,-8.9915e-06,9.9922e+06,-237.26,0,1.4155e+08,-25.227,12115,13336,1,13336,1,0.00076555,5.065e-09,0,0.00076555,0.00012453,2.6956e+08,1643.6,0,2.7004e+08,151.42,13335,12118,1,12118,1,5.0819e-05,-2.9142e-10,0,0.00038068,-9.3895e-06,1.9243e+07,-94.899,0,1.3954e+08,-24.286,12117,10867,1,10867,1,-0.00066391,-6.3686e-09,0,4.1568e-06,-0.00014333,-2.7004e+08,-2041.1,0,1.8482e+06,-480.15,10866,11508,1,11508,1,-0.00033402,-2.6549e-09,0,0.00016909,-8.1518e-05,-1.3585e+08,-823.98,0,6.8769e+07,-78.393,11507,12724,1,12724,1,0.00043565,9.2938e-10,0,0.00055392,6.269e-05,1.5858e+08,291.48,0,2.1412e+08,35.581,12723,702.88,0,702.88,0,0.00042813,2.7707e-09,0,0.00021726,8.022e-05,1.6265e+08,905.2,0,8.068e+07,77.806,702.88,1
2344,2.71,12116,1,12116,1,4.8877e-05,-9.7957e-10,0,0.00037342,-9.0443e-06,1.0029e+07,-320.44,0,1.4204e+08,-23.161,12115,13336,1,13336,1,0.00076855,3.7088e-09,0,0.00076855,0.00012498,2.704e+08,1250.8,0,2.7102e+08,107.75,13335,12118,1,12118,1,5.1113e-05,-5.1854e-10,0,0.00038222,-9.4441e-06,1.9354e+07,-163.87,0,1.4006e+08,-22.826,12117,10867,1,10867,1,-0.00066632,-5.8427e-09,0,4.07e-06,-0.00014389,-2.7102e+08,-1872.5,0,1.8148e+06,-292.44,10866,11508,1,11508,1,-0.00033518,-2.5731e-09,0,0.00016963,-8.1845e-05,-1.3633e+08,-840.98,0,6.8989e+07,-66.282,11507,12724,1,12724,1,0.0004374,5.7008e-10,0,0.00055592,6.2908e-05,1.5915e+08,180.96,0,2.1483e+08,24.41,12723,702.88,0,702.88,0,0.00042975,2.3152e-09,0,0.0002181,8.0523e-05,1.6321e+08,758.26,0,8.095e+07,63.977,702.88,1
2344,2.72,12116,1,12116,1,4.9164e-05,-4.52e-10,0,0.00037482,-9.0975e-06,1.0065e+07,-149.18,0,1.4253e+08,-54.92,12115,13336,1,13336,1,0.00077153,8.6599e-09,0,0.00077153,0.00012543,2.7123e+08,2848,0,2.7199e+08,194.97,13335,12118,1,12118,1,5.1409e-05,-2.5461e-10,0,0.00038375,-9.4993e-06,1.9466e+07,-78.857,0,1.4057e+08,-51.754,12117,10867,1,10867,1,-0.0006687,-7.385e-09,0,3.9802e-06,-0.00014445,-2.7199e+08,-2440.3,0,1.7803e+06,-432.56,10866,11508,1,11508,1,-0.00033632,-3.4004e-09,0,0.00017016,-8.2169e-05,-1.3679e+08,-1109.5,0,6.9203e+07,-119.64,11507,12724,1,12724,1,0.00043914,1.973e-09,0,0.00055788,6.3123e-05,1.5971e+08,631.65,0,2.1552e+08,19.318,12723,702.88,0,702.88,0,0.00043135,3.9521e-09,0,0.00021893,8.0823e-05,1.6376e+08,1292.4,0,8.1215e+07,118.4,702.88,1
2344,2.73,12116,1,12116,1,4.945e-05,-1.4553e-09,0,0.00037622,-9.1503e-06,1.0101e+07,-475.34,0,1.4302e+08,-35.448,12115,13336,1,13336,1,0.00077451,7.7231e-09,0,0.00077451,0.00012588,2.7206e+08,2558.2,0,2.7296e+08,229.41,13335,12118,1,12118,1,5.1703e-05,-7.2386e-10,0,0.00038528,-9.554e-06,1.9577e+07,-231.5,0,1.4108e+08,-38.933,12117,10867,1,10867,1,-0.0006711,-1.0351e-08,0,3.8915e-06,-0.00014501,-2.7296e+08,-3405.9,0,1.7463e+06,-557.47,10866,11508,1,11508,1,-0.00033747,-4.9367e-09,0,0.00017069,-8.2492e-05,-1.3726e+08,-1568.9,0,6.9418e+07,-120.92,11507,12724,1,12724,1,0.00044087,1.6487e-09,0,0.00055985,6.3338e-05,1.6027e+08,509.55,0,2.1621e+08,45.201,12723,702.88,0,702.88,0,0.00043295,4.6188e-09,0,0.00021976,8.1123e-05,1.6432e+08,1511.5,0,8.148e+07,112.06,702.88,1
2344,2.74,12116,1,12116,1,4.9742e-05,-2.0426e-09,0,0.00037765,-9.2043e-06,1.0138e+07,-667.26,0,1.4352e+08,-41.712,12115,13336,1,13336,1,0.00077754,1.6856e-09,0,0.00077754,0.00012633,2.729e+08,558.74,0,2.7395e+08,121.7,13335,12118,1,12118,1,5.2003e-05,-2.0097e-09,0,0.00038685,-9.6097e-06,1.9691e+07,-659.43,0,1.416e+08,-30.013,12117,10867,1,10867,1,-0.00067352,-5.6891e-09,0,3.8015e-06,-0.00014557,-2.7395e+08,-1884.3,0,1.7117e+06,-616.45,10866,11508,1,11508,1,-0.00033864,-3.4366e-09,0,0.00017123,-8.2823e-05,-1.3774e+08,-1126.8,0,6.9639e+07,-65.108,11507,12724,1,12724,1,0.00044264,-6.4639e-10,0,0.00056187,6.3558e-05,1.6085e+08,-206.67,0,2.1691e+08,7.2283,12723,702.88,0,702.88,0,0.00043459,1.6508e-09,0,0.00022061,8.143e-05,1.6488e+08,542.44,0,8.1752e+07,90.995,702.88,1
2344,2.75,12116,1,12116,1,5.0034e-05,-1.7113e-09,0,0.00037904,-9.2581e-06,1.0174e+07,-559.92,0,1.44e+08,-16.939,12115,13336,1,13336,1,0.00078052,3.6171e-09,0,0.00078052,0.00012678,2.7372e+08,1198.1,0,2.7492e+08,236.27,13335,12118,1,12118,1,5.2303e-05,-2.5082e-10,0,0.00038838,-9.6654e-06,1.9804e+07,-83.795,0,1.4212e+08,-16.681,12117,10867,1,10867,1,-0.00067591,-1.0528e-08,0,3.7081e-06,-0.00014613,-2.7492e+08,-3487,0,1.6758e+06,-716.64,10866,11508,1,11508,1,-0.00033979,-4.069e-09,0,0.00017175,-8.3149e-05,-1.382e+08,-1315.9,0,6.9852e+07,-72.152,11507,12724,1,12724,1,0.00044439,9.8897e-10,0,0.00056384,6.3773e-05,1.6141e+08,314.88,0,2.176e+08,48.167,12723,702.88,0,702.88,0,0.0004362,3.619e-09,0,0.00022145,8.173e-05,1.6544e+08,1182.9,0,8.2015e+07,123.14,702.88,1
2344,2.76,12116,1,12116,1,5.0324e-05,-1.6411e-09,0,0.00038044,-9.3118e-06,1.0211e+07,-537.09,0,1.4449e+08,-43.488,12115,13336,1,13336,1,0.0007835,6.4016e-09,0,0.0007835,0.00012723,2.7454e+08,2120.4,0,2.7588e+08,225.31,13335,12118,1,12118,1,5.2601e-05,-1.0663e-09,0,0.00038991,-9.721e-06,1.9917e+07,-350.17,0,1.4262e+08,-41.021,12117,10867,1,10867,1,-0.00067829,-9.7049e-09,0,3.6147e-06,-0.00014669,-2.7588e+08,-3214.2,0,1.6398e+06,-795.8,10866,11508,1,11508,1,-0.00034092,-4.3816e-09,0,0.00017228,-8.3473e-05,-1.3866e+08,-1414.9,0,7.0065e+07,-107.55,11507,12724,1,12724,1,0.00044612,8.3033e-10,0,0.00056579,6.3986e-05,1.6196e+08,260.28,0,2.1829e+08,35.957,12723,702.88,0,702.88,0,0.0004378,3.7693e-09,0,0.00022228,8.203e-05,1.6599e+08,1234.3,0,8.2278e+07,125.03,702.88,1
2344,2.77,12116,1,12116,1,5.0617e-05,-2.4419e-09,0,0.00038185,-9.3659e-06,1.0247e+07,-798.21,0,1.4498e+08,-38.303,12115,13336,1,13336,1,0.00078651,4.3359e-09,0,0.00078651,0.00012768,2.7537e+08,1436.5,0,2.7686e+08,124.09,13335,12118,1,12118,1,5.2902e-05,-2.0348e-09,0,0.00039146,-9.7771e-06,2.0031e+07,-671.33,0,1.4314e+08,-22.438,12117,10867,1,10867,1,-0.00068069,-9.4778e-09,0,3.5209e-06,-0.00014725,-2.7686e+08,-3139,0,1.6038e+06,-933.89,10866,11508,1,11508,1,-0.00034208,-4.5362e-09,0,0.00017281,-8.3801e-05,-1.3913e+08,-1483.7,0,7.0281e+07,-76.034,11507,12724,1,12724,1,0.00044788,4.4466e-11,0,0.00056778,6.4203e-05,1.6253e+08,15.234,0,2.1898e+08,22.072,12723,702.88,0,702.88,0,0.00043942,2.8888e-09,0,0.00022312,8.2333e-05,1.6654e+08,948.1,0,8.2545e+07,117.52,702.88,1
2344,2.78,12116,1,12116,1,5.0911e-05,1.046e-09,0,0.00038325,-9.4203e-06,1.0283e+07,336.49,0,1.4547e+08,-43.799,12115,13336,1,13336,1,0.00078945,8.3909e-09,0,0.00078945,0.00012812,2.7618e+08,2779.2,0,2.7782e+08,110.93,13335,12118,1,12118,1,5.3206e-05,9.1198e-10,0,0.000393,-9.8335e-06,2.0146e+07,276.86,0,1.4365e+08,-37.764,12117,10867,1,10867,1,-0.00068304,-6.5868e-09,0,3.4247e-06,-0.0001478,-2.7782e+08,-2181.7,0,1.5668e+06,-1086,10866,11508,1,11508,1,-0.00034322,-1.0467e-09,0,0.00017333,-8.4128e-05,-1.396e+08,-339.8,0,7.0493e+07,-95.097,11507,12724,1,12724,1,0.00044963,3.1899e-09,0,0.00056975,6.4418e-05,1.6309e+08,1025.5,0,2.1967e+08,30.863,12723,702.88,0,702.88,0,0.00044102,3.0724e-09,0,0.00022395,8.2633e-05,1.671e+08,1006.2,0,8.2808e+07,121.1,702.88,1
2344,2.79,12116,1,12116,1,5.1207e-05,-1.918e-10,0,0.00038466,-9.4751e-06,1.032e+07,-63.731,0,1.4596e+08,-54.719,12115,13336,1,13336,1,0.00079247,8.6271e-09,0,0.00079247,0.00012857,2.77e+08,2857.5,0,2.788e+08,152.1,13335,12118,1,12118,1,5.351e-05,1.4864e-10,0,0.00039455,-9.8902e-06,2.0262e+07,47.124,0,1.4417e+08,-43.937,12117,10867,1,10867,1,-0.00068545,-8.5937e-09,0,3.3289e-06,-0.00014836,-2.788e+08,-2846.3,0,1.5299e+06,-1202.5,10866,11508,1,11508,1,-0.00034437,-2.7915e-09,0,0.00017385,-8.4456e-05,-1.4007e+08,-898.22,0,7.0707e+07,-110.04,11507,12724,1,12724,1,0.00045139,2.2609e-09,0,0.00057173,6.4634e-05,1.6366e+08,733.09,0,2.2036e+08,32.735,12723,702.88,0,702.88,0,0.00044264,3.7317e-09,0,0.00022479,8.2936e-05,1.6765e+08,1222,0,8.3074e+07,153.66,702.88,1
2344,2.8,12116,1,12116,1,5.1504e-05,-5.1975e-10,0,0.00038606,-9.5298e-06,1.0356e+07,-170.64,0,1.4644e+08,-39.628,12115,13336,1,13336,1,0.00079547,6.3248e-09,0,0.00079547,0.00012902,2.7782e+08,2094.9,0,2.7977e+08,112.91,13335,12118,1,12118,1,5.3815e-05,-8.4782e-11,0,0.0003961,-9.9468e-06,2.0377e+07,-27.204,0,1.4468e+08,-32.952,12117,10867,1,10867,1,-0.00068783,-7.4975e-09,0,3.2308e-06,-0.00014892,-2.7977e+08,-2483.3,0,1.4922e+06,-1261.4,10866,11508,1,11508,1,-0.00034552,-2.3271e-09,0,0.00017438,-8.4784e-05,-1.4053e+08,-750.89,0,7.092e+07,-79.344,11507,12724,1,12724,1,0.00045315,1.0378e-09,0,0.00057371,6.4849e-05,1.6422e+08,331.17,0,2.2105e+08,22.835,12723,702.88,0,702.88,0,0.00044425,2.6799e-09,0,0.00022563,8.3238e-05,1.682e+08,880.15,0,8.3338e+07,121.06,702.88,1
2344,2.81,12116,1,12116,1,5.1799e-05,1.2576e-09,0,0.00038746,-9.5845e-06,1.0392e+07,407.29,0,1.4693e+08,-22.911,12115,13336,1,13336,1,0.00079845,1.0545e-08,0,0.00079845,0.00012946,2.7862e+08,3492.6,0,2.8073e+08,175.19,13335,12118,1,12118,1,5.412e-05,7.8569e-10,0,0.00039764,-1.0003e-05,2.0492e+07,256.6,0,1.4519e+08,-5.9059,12117,10867,1,10867,1,-0.0006902,-8.693e-09,0,3.1319e-06,-0.00014948,-2.8073e+08,-2879.2,0,1.4541e+06,-1372,10866,11508,1,11508,1,-0.00034665,-1.0487e-09,0,0.0001749,-8.511e-05,-1.4099e+08,-333.57,0,7.1131e+07,-83.265,11507,12724,1,12724,1,0.00045489,3.8249e-09,0,0.00057566,6.5062e-05,1.6477e+08,1246.2,0,2.2173e+08,66.071,12723,702.88,0,702.88,0,0.00044586,3.6523e-09,0,0.00022646,8.3538e-05,1.6875e+08,1194.8,0,8.3599e+07,159.39,702.88,1
2344,2.82,12116,1,12116,1,5.2101e-05,-7.8709e-11,0,0.00038888,-9.6402e-06,1.0429e+07,-25.811,0,1.4742e+08,-39.907,12115,13336,1,13336,1,0.00080147,6.8842e-09,0,0.00080147,0.00012991,2.7945e+08,2280.2,0,2.8171e+08,91.659,13335,12118,1,12118,1,5.4429e-05,1.6068e-10,0,0.00039921,-1.0061e-05,2.061e+07,50.518,0,1.4571e+08,-32.429,12117,10867,1,10867,1,-0.00069261,-6.8592e-09,0,3.0323e-06,-0.00015004,-2.8171e+08,-2272,0,1.4155e+06,-1502.1,10866,11508,1,11508,1,-0.00034781,-1.753e-09,0,0.00017542,-8.5442e-05,-1.4146e+08,-571.94,0,7.1346e+07,-81.222,11507,12724,1,12724,1,0.00045667,1.4038e-09,0,0.00057766,6.5279e-05,1.6534e+08,456.54,0,2.2242e+08,24.913,12723,702.88,0,702.88,0,0.00044749,2.5168e-09,0,0.00022731,8.3843e-05,1.6931e+08,826.08,0,8.3866e+07,116.85,702.88,1
2344,2.83,12116,1,12116,1,5.2405e-05,-8.6977e-11,0,0.0003903,-9.6964e-06,1.0465e+07,-28.984,0,1.4791e+08,-35.851,12115,13336,1,13336,1,0.0008045,1.3989e-09,0,0.0008045,0.00013036,2.8026e+08,437.48,0,2.8269e+08,54.197,13335,12118,1,12118,1,5.4742e-05,-9.6983e-11,0,0.00040078,-1.0119e-05,2.0728e+07,-32.068,0,1.4623e+08,-24.415,12117,10867,1,10867,1,-0.00069501,-1.2075e-09,0,2.9298e-06,-0.00015061,-2.8269e+08,-400.22,0,1.3762e+06,-1622.6,10866,11508,1,11508,1,-0.00034897,-4.3996e-10,0,0.00017595,-8.5775e-05,-1.4194e+08,-141.15,0,7.156e+07,-41.291,11507,12724,1,12724,1,0.00045845,1.6994e-10,0,0.00057966,6.5497e-05,1.6591e+08,55.668,0,2.2311e+08,-9.9766,12723,702.88,0,702.88,0,0.00044912,4.5049e-10,0,0.00022816,8.4149e-05,1.6987e+08,145.89,0,8.4133e+07,69.327,702.88,1
2344,2.84,12116,1,12116,1,5.2706e-05,1.307e-09,0,0.0003917,-9.7519e-06,1.0501e+07,424.7,0,1.4839e+08,-13.169,12115,13336,1,13336,1,0.00080749,4.0961e-09,0,0.00080749,0.00013081,2.8106e+08,1308.7,0,2.8365e+08,99.644,13335,12118,1,12118,1,5.5051e-05,1.2657e-09,0,0.00040232,-1.0177e-05,2.0845e+07,411.72,0,1.4674e+08,-0.79073,12117,10867,1,10867,1,-0.00069738,-2.0381e-09,0,2.8263e-06,-0.00015117,-2.8365e+08,-697.25,0,1.3361e+06,-272.94,10866,11508,1,11508,1,-0.00035009,1.9621e-10,0,0.00017646,-8.61e-05,-1.4239e+08,62.36,0,7.1768e+07,-36.841,11507,12724,1,12724,1,0.00046019,2.3675e-09,0,0.0005816,6.5707e-05,1.6646e+08,768.96,0,2.2378e+08,34.822,12723,702.88,0,702.88,0,0.00045072,1.3587e-09,0,0.00022899,8.4447e-05,1.7041e+08,442.26,0,8.4392e+07,66.503,702.88,1
2344,2.85,12116,1,12116,1,5.3007e-05,-2.8419e-10,0,0.00039309,-9.8076e-06,1.0537e+07,-92.064,0,1.4887e+08,-33.742,12115,13336,1,13336,1,0.00081048,6.7731e-09,0,0.00081048,0.00013125,2.8187e+08,2181.4,0,2.8462e+08,155.81,13335,12118,1,12118,1,5.536e-05,8.9954e-11,0,0.00040386,-1.0234e-05,2.0962e+07,27.606,0,1.4725e+08,-33.854,12117,10867,1,10867,1,-0.00069976,-7.0013e-09,0,2.722e-06,-0.00015173,-2.8462e+08,-2253.3,0,1.2959e+06,-403.55,10866,11508,1,11508,1,-0.00035122,-2.6331e-09,0,0.00017698,-8.6426e-05,-1.4285e+08,-838.76,0,7.1977e+07,-99.054,11507,12724,1,12724,1,0.00046194,1.9209e-09,0,0.00058355,6.592e-05,1.6702e+08,614.41,0,2.2446e+08,40.451,12723,702.88,0,702.88,0,0.00045232,3.3572e-09,0,0.00022982,8.4747e-05,1.7096e+08,1096.1,0,8.4652e+07,95.055,702.88,1
2344,2.86,12116,1,12116,1,5.3312e-05,6.4598e-10,0,0.00039451,-9.864e-06,1.0574e+07,208.56,0,1.4936e+08,-41.017,12115,13336,1,13336,1,0.00081349,4.6408e-09,0,0.00081349,0.0001317,2.8267e+08,1532.8,0,2.8559e+08,190.41,13335,12118,1,12118,1,5.5674e-05,7.9692e-10,0,0.00040543,-1.0293e-05,2.1081e+07,252.55,0,1.4777e+08,-29.537,12117,10867,1,10867,1,-0.00070214,-5.7665e-09,0,2.6168e-06,-0.00015229,-2.8559e+08,-1885.3,0,1.2553e+06,-350.88,10866,11508,1,11508,1,-0.00035237,-6.3856e-10,0,0.0001775,-8.6757e-05,-1.4332e+08,-202.16,0,7.2188e+07,-94.281,11507,12724,1,12724,1,0.00046372,2.5156e-09,0,0.00058554,6.6135e-05,1.6758e+08,811,0,2.2515e+08,11.844,12723,702.88,0,702.88,0,0.00045394,2.3992e-09,0,0.00023067,8.5051e-05,1.7151e+08,786.39,0,8.4916e+07,85.588,702.88,1
2344,2.87,12116,1,12116,1,5.3615e-05,-1.9398e-09,0,0.0003959,-9.9201e-06,1.061e+07,-631.69,0,1.4984e+08,-24.318,12115,13336,1,13336,1,0.00081651,5.8061e-09,0,0.00081651,0.00013215,2.8348e+08,1923.5,0,2.8656e+08,210.82,13335,12118,1,12118,1,5.5985e-05,-1.3902e-09,0,0.00040697,-1.0351e-05,2.1199e+07,-452.53,0,1.4827e+08,-18.151,12117,10867,1,10867,1,-0.00070453,-9.3132e-09,0,2.5104e-06,-0.00015285,-2.8656e+08,-2997.6,0,1.2143e+06,-438.25,10866,11508,1,11508,1,-0.00035349,-4.3031e-09,0,0.00017801,-8.7083e-05,-1.4378e+08,-1378.6,0,7.2397e+07,-89.734,11507,12724,1,12724,1,0.00046546,4.1675e-10,0,0.00058748,6.6346e-05,1.6814e+08,132.78,0,2.2581e+08,53.583,12723,702.88,0,702.88,0,0.00045555,3.4034e-09,0,0.0002315,8.5351e-05,1.7206e+08,1112.7,0,8.5175e+07,110.65,702.88,1
2344,2.88,12116,1,12116,1,5.3922e-05,-4.916e-10,0,0.00039731,-9.9768e-06,1.0646e+07,-163.65,0,1.5033e+08,-43.056,12115,13336,1,13336,1,0.00081952,6.5418e-09,0,0.00081952,0.00013259,2.8428e+08,2117.6,0,2.8752e+08,124.02,13335,12118,1,12118,1,5.63e-05,-8.8508e-11,0,0.00040853,-1.0409e-05,2.1318e+07,-27.4,0,1.4879e+08,-42.667,12117,10867,1,10867,1,-0.0007069,-6.8185e-09,0,2.4018e-06,-0.00015341,-2.8752e+08,-2189.8,0,1.1724e+06,-355.34,10866,11508,1,11508,1,-0.00035463,-2.7519e-09,0,0.00017852,-8.7414e-05,-1.4424e+08,-900.46,0,7.2606e+07,-105.44,11507,12724,1,12724,1,0.00046723,1.4526e-09,0,0.00058945,6.656e-05,1.687e+08,451.74,0,2.265e+08,35.05,12723,702.88,0,702.88,0,0.00045716,3.2569e-09,0,0.00023235,8.5653e-05,1.7261e+08,1066.6,0,8.5436e+07,93.062,702.88,1
2344,2.89,12116,1,12116,1,5.4231e-05,4.2286e-11,0,0.00039872,-1.0034e-05,1.0683e+07,11.196,0,1.5081e+08,-45.566,12115,13336,1,13336,1,0.00082253,6.5183e-09,0,0.00082253,0.00013304,2.8507e+08,2119.3,0,2.8849e+08,129.27,13335,12118,1,12118,1,5.6618e-05,1.2087e-10,0,0.0004101,-1.0468e-05,2.1438e+07,38.998,0,1.493e+08,-48.409,12117,10867,1,10867,1,-0.00070928,-5.0828e-09,0,2.2929e-06,-0.00015397,-2.8849e+08,-1635.6,0,1.1303e+06,-365,10866,11508,1,11508,1,-0.00035577,-2.0338e-09,0,0.00017904,-8.7745e-05,-1.447e+08,-674.63,0,7.2815e+07,-104.24,11507,12724,1,12724,1,0.00046901,1.779e-09,0,0.00059143,6.6774e-05,1.6926e+08,564.21,0,2.2718e+08,22.978,12723,702.88,0,702.88,0,0.00045878,2.8618e-09,0,0.00023319,8.5956e-05,1.7316e+08,938.08,0,8.5698e+07,84.246,702.88,1
2344,2.9,12116,1,12116,1,5.4542e-05,-9.872e-10,0,0.00040015,-1.0091e-05,1.0719e+07,-322.37,0,1.513e+08,-32.949,12115,13336,1,13336,1,0.00082557,2.3264e-09,0,0.00082557,0.00013349,2.8588e+08,796.4,0,2.8947e+08,97.241,13335,12118,1,12118,1,5.6938e-05,-8.6589e-10,0,0.00041168,-1.0528e-05,2.1559e+07,-282.5,0,1.4982e+08,-26.09,12117,10867,1,10867,1,-0.00071169,-4.3945e-09,0,2.1834e-06,-0.00015454,-2.8947e+08,-1418.8,0,1.0881e+06,-350.28,10866,11508,1,11508,1,-0.00035692,-2.1341e-09,0,0.00017956,-8.8079e-05,-1.4517e+08,-694.8,0,7.3027e+07,-60.72,11507,12724,1,12724,1,0.0004708,1.6248e-10,0,0.00059341,6.6989e-05,1.6982e+08,52.173,0,2.2786e+08,8.1719,12723,702.88,0,702.88,0,0.00046042,1.4791e-09,0,0.00023404,8.6262e-05,1.7371e+08,485.79,0,8.5961e+07,65.839,702.88,1
2344,2.91,12116,1,12116,1,5.4854e-05,-1.4585e-09,0,0.00040156,-1.0149e-05,1.0755e+07,-475.72,0,1.5178e+08,-18.426,12115,13336,1,13336,1,0.00082859,6.2712e-10,0,0.00082859,0.00013394,2.8667e+08,182.89,0,2.9044e+08,69.182,13335,12118,1,12118,1,5.7258e-05,-1.5347e-09,0,0.00041325,-1.0587e-05,2.1681e+07,-501.33,0,1.5034e+08,-7.2596,12117,10867,1,10867,1,-0.00071407,-3.4946e-09,0,2.0709e-06,-0.00015511,-2.9044e+08,-1128.8,0,1.0446e+06,-298.31,10866,11508,1,11508,1,-0.00035806,-2.2474e-09,0,0.00018007,-8.841e-05,-1.4563e+08,-736.16,0,7.3235e+07,-32.068,11507,12724,1,12724,1,0.00047257,-6.9528e-10,0,0.00059538,6.7202e-05,1.7038e+08,-219.74,0,2.2853e+08,14.682,12723,702.88,0,702.88,0,0.00046204,9.7215e-10,0,0.00023488,8.6565e-05,1.7426e+08,318.15,0,8.6222e+07,52.272,702.88,1
2344,2.92,12116,1,12116,1,5.5181e-05,2.6879e-10,0,0.00040297,-1.0209e-05,1.0792e+07,84.981,0,1.5226e+08,-17.168,12115,13336,1,13336,1,0.00083161,1.0378e-09,0,0.00083161,0.00013438,2.8746e+08,325,0,2.914e+08,43.227,13335,12118,1,12118,1,5.7594e-05,2.0612e-10,0,0.00041483,-1.065e-05,2.1808e+07,66.102,0,1.5084e+08,-3.2417,12117,10867,1,10867,1,-0.00071643,-7.1751e-10,0,1.9444e-06,-0.00015567,-2.914e+08,-245.71,0,9.9567e+05,-292.85,10866,11508,1,11508,1,-0.00035918,9.6164e-12,0,0.00018057,-8.8746e-05,-1.4609e+08,3.1966,0,7.3437e+07,-23.97,11507,12724,1,12724,1,0.00047437,5.1744e-10,0,0.00059734,6.7414e-05,1.7094e+08,163.82,0,2.292e+08,13.728,12723,702.88,0,702.88,0,0.00046366,3.485e-10,0,0.00023573,8.6868e-05,1.748e+08,111.29,0,8.648e+07,50.79,702.88,1
2344,2.93,12116,1,12116,1,5.552e-05,3.2629e-09,0,0.00040437,-1.0272e-05,1.0827e+07,1059.6,0,1.5273e+08,6.7601,12115,13336,1,13336,1,0.00083469,9.4327e-09,0,0.00083469,0.00013483,2.8823e+08,2999.2,0,2.9236e+08,243.07,13335,12118,1,12118,1,5.7941e-05,2.8904e-09,0,0.00041641,-1.0714e-05,2.1939e+07,935.35,0,1.5134e+08,10.89,12117,10867,1,10867,1,-0.0007188,-1.0659e-09,0,1.8033e-06,-0.00015625,-2.9236e+08,-319.06,0,9.4099e+05,-404.98,10866,11508,1,11508,1,-0.00036027,7.7915e-10,0,0.00018105,-8.9078e-05,-1.4653e+08,254.33,0,7.3632e+07,-40.968,11507,12724,1,12724,1,0.00047615,5.5985e-09,0,0.00059925,6.7619e-05,1.7147e+08,1812.3,0,2.2985e+08,66.388,12723,702.88,0,702.88,0,0.00046526,2.7282e-09,0,0.00023658,8.7169e-05,1.7533e+08,888.96,0,8.6734e+07,96.67,702.88,1
2344,2.94,12116,1,12116,1,5.5868e-05,-1.1545e-09,0,0.0004058,-1.0336e-05,1.0864e+07,-371.2,0,1.5321e+08,-32.718,12115,13336,1,13336,1,0.00083775,1.3076e-09,0,0.00083775,0.00013527,2.89e+08,447.74,0,2.9332e+08,80.294,13335,12118,1,12118,1,5.8298e-05,-1.1102e-09,0,0.00041804,-1.0781e-05,2.2073e+07,-351.96,0,1.5184e+08,-21.245,12117,10867,1,10867,1,-0.00072116,-3.4186e-09,0,1.6559e-06,-0.00015682,-2.9332e+08,-1094.8,0,8.8381e+05,-387.04,10866,11508,1,11508,1,-0.00036139,-2.0766e-09,0,0.00018153,-8.9421e-05,-1.4699e+08,-669.97,0,7.3829e+07,-49.405,11507,12724,1,12724,1,0.00047799,-2.1684e-10,0,0.00060122,6.7829e-05,1.7202e+08,-67.972,0,2.3051e+08,1.7689,12723,702.88,0,702.88,0,0.00046691,1.0888e-09,0,0.00023744,8.7475e-05,1.7588e+08,351.6,0,8.6992e+07,61.772,702.88,1
2344,2.95,12116,1,12116,1,5.6221e-05,-1.3039e-09,0,0.00040723,-1.0402e-05,1.09e+07,-424.34,0,1.5368e+08,-28.283,12115,13336,1,13336,1,0.00084084,1.416e-09,0,0.00084084,0.00013571,2.8977e+08,484.84,0,2.9428e+08,101.3,13335,12118,1,12118,1,5.8659e-05,-1.212e-09,0,0.00041965,-1.0848e-05,2.2209e+07,-388.5,0,1.5234e+08,-15.558,12117,10867,1,10867,1,-0.00072352,-4.3139e-09,0,1.5052e-06,-0.00015739,-2.9428e+08,-1383.8,0,8.2537e+05,-390.71,10866,11508,1,11508,1,-0.0003625,-2.4394e-09,0,0.00018201,-8.9761e-05,-1.4744e+08,-792.99,0,7.4023e+07,-54.497,11507,12724,1,12724,1,0.00047982,-4.7188e-11,0,0.00060316,6.8036e-05,1.7257e+08,-14.864,0,2.3116e+08,16.061,12723,702.88,0,702.88,0,0.00046854,1.3954e-09,0,0.0002383,8.778e-05,1.7641e+08,455.51,0,8.7248e+07,71.484,702.88,1
2344,2.96,12116,1,12116,1,5.6574e-05,5.2183e-10,0,0.00040864,-1.0467e-05,1.0936e+07,167.53,0,1.5415e+08,-13.899,12115,13336,1,13336,1,0.0008439,1.6354e-09,0,0.0008439,0.00013615,2.9052e+08,518.57,0,2.9523e+08,62.621,13335,12118,1,12118,1,5.9021e-05,5.1233e-10,0,0.00042127,-1.0915e-05,2.2345e+07,163.28,0,1.5284e+08,-4.0022,12117,10867,1,10867,1,-0.00072585,-1.1912e-09,0,1.3519e-06,-0.00015796,-2.9523e+08,-407.89,0,7.6588e+05,-278.47,10866,11508,1,11508,1,-0.0003636,8.3867e-11,0,0.00018248,-9.0102e-05,-1.4789e+08,25.869,0,7.4215e+07,-22.087,11507,12724,1,12724,1,0.00048164,9.6598e-10,0,0.0006051,6.8243e-05,1.7311e+08,312.65,0,2.3181e+08,11.136,12723,702.88,0,702.88,0,0.00047016,5.8446e-10,0,0.00023915,8.8084e-05,1.7694e+08,189.66,0,8.7502e+07,47.472,702.88,1
2344,2.97,12116,1,12116,1,5.6928e-05,-9.1066e-10,0,0.00041006,-1.0532e-05,1.0971e+07,-295.34,0,1.5462e+08,-20.543,12115,13336,1,13336,1,0.00084698,1.8094e-09,0,0.00084698,0.00013659,2.9128e+08,619.34,0,2.9619e+08,73.24,13335,12118,1,12118,1,5.9383e-05,-8.0636e-10,0,0.00042288,-1.0983e-05,2.248e+07,-260.97,0,1.5334e+08,-12.998,12117,10867,1,10867,1,-0.00072821,-3.3155e-09,0,1.1988e-06,-0.00015854,-2.9619e+08,-1061.9,0,7.0649e+05,-334.86,10866,11508,1,11508,1,-0.00036469,-1.822e-09,0,0.00018295,-9.0441e-05,-1.4833e+08,-589.9,0,7.4406e+07,-39.466,11507,12724,1,12724,1,0.00048346,6.7936e-11,0,0.00060702,6.8448e-05,1.7365e+08,21.366,0,2.3246e+08,13.604,12723,702.88,0,702.88,0,0.00047178,1.1852e-09,0,0.00024,8.8387e-05,1.7747e+08,386.2,0,8.7755e+07,55.682,702.88,1
2344,2.98,12116,1,12116,1,5.7284e-05,-1.5009e-09,0,0.00041147,-1.0598e-05,1.1007e+07,-488.25,0,1.5508e+08,-28.324,12115,13336,1,13336,1,0.00085007,3.4019e-09,0,0.00085007,0.00013703,2.9204e+08,1153.7,0,2.9715e+08,133.88,13335,12118,1,12118,1,5.9747e-05,-1.3158e-09,0,0.00042449,-1.105e-05,2.2617e+07,-417.04,0,1.5384e+08,-24.981,12117,10867,1,10867,1,-0.00073057,-6.3011e-09,0,1.0424e-06,-0.00015912,-2.9715e+08,-2017.9,0,6.4581e+05,-392.75,10866,11508,1,11508,1,-0.00036579,-3.4535e-09,0,0.00018342,-9.078e-05,-1.4878e+08,-1123.3,0,7.4598e+07,-67.025,11507,12724,1,12724,1,0.00048528,2.2342e-10,0,0.00060895,6.8653e-05,1.7418e+08,71.816,0,2.331e+08,24.883,12723,702.88,0,702.88,0,0.00047341,2.3375e-09,0,0.00024086,8.8691e-05,1.78e+08,761.57,0,8.8008e+07,78.172,702.88,1
2344,2.99,12116,1,12116,1,5.7642e-05,8.7648e-10,0,0.0004129,-1.0664e-05,1.1043e+07,281.74,0,1.5555e+08,-14.456,12115,13336,1,13336,1,0.00085314,4.0692e-09,0,0.00085314,0.00013747,2.928e+08,1303.1,0,2.981e+08,102.71,13335,12118,1,12118,1,6.0114e-05,4.6759e-10,0,0.00042612,-1.1119e-05,2.2755e+07,148.75,0,1.5434e+08,-6.0417,12117,10867,1,10867,1,-0.00073291,-9.4099e-10,0,8.8449e-07,-0.00015969,-2.981e+08,-322.19,0,5.8447e+05,-298.66,10866,11508,1,11508,1,-0.00036689,-8.1695e-11,0,0.00018389,-9.1123e-05,-1.4923e+08,-25.249,0,7.4789e+07,-39.185,11507,12724,1,12724,1,0.00048712,1.7968e-09,0,0.00061089,6.8861e-05,1.7473e+08,564.61,0,2.3375e+08,22.54,12723,702.88,0,702.88,0,0.00047504,1.2848e-09,0,0.00024172,8.8996e-05,1.7854e+08,420.59,0,8.8262e+07,60.262,702.88,1
2344,3,12116,1,12116,1,5.8001e-05,-2.6934e-09,0,0.00041432,-1.073e-05,1.1079e+07,-873.14,0,1.5602e+08,-27.293,12115,13336,1,13336,1,0.00085626,3.5934e-09,0,0.00085626,0.00013792,2.9356e+08,1229.4,0,2.9907e+08,197.52,13335,12118,1,12118,1,6.0481e-05,-2.4297e-09,0,0.00042773,-1.1187e-05,2.2893e+07,-783.81,0,1.5483e+08,-19.747,12117,10867,1,10867,1,-0.00073529,-9.7424e-09,0,7.2606e-07,-0.00016027,-2.9907e+08,-3119.6,0,5.2301e+05,-505.5,10866,11508,1,11508,1,-0.00036798,-5.4063e-09,0,0.00018436,-9.1462e-05,-1.4967e+08,-1754.6,0,7.498e+07,-81.19,11507,12724,1,12724,1,0.00048894,6.2425e-11,0,0.00061281,6.9064e-05,1.7526e+08,20.658,0,2.3439e+08,41.713,12723,702.88,0,702.88,0,0.00047666,3.2809e-09,0,0.00024257,8.93e-05,1.7906e+08,1067.2,0,8.8514e+07,105.49,702.88,1
2344,3.01,12116,1,12116,1,5.8363e-05,-9.2672e-10,0,0.00041574,-1.0797e-05,1.1115e+07,-304.27,0,1.5649e+08,-39.279,12115,13336,1,13336,1,0.00085933,2.9054e-09,0,0.00085933,0.00013836,2.943e+08,993.96,0,3.0001e+08,108.02,13335,12118,1,12118,1,6.0851e-05,-6.2225e-10,0,0.00042936,-1.1256e-05,2.3032e+07,-198.59,0,1.5533e+08,-31.117,12117,10867,1,10867,1,-0.00073761,-5.1382e-09,0,5.6322e-07,-0.00016084,-3.0001e+08,-1665.7,0,4.5974e+05,-317.9,10866,11508,1,11508,1,-0.00036907,-2.5805e-09,0,0.00018482,-9.1805e-05,-1.5011e+08,-836.68,0,7.5168e+07,-85.717,11507,12724,1,12724,1,0.00049077,5.2976e-10,0,0.00061474,6.927e-05,1.758e+08,167.49,0,2.3503e+08,6.9151,12723,702.88,0,702.88,0,0.00047829,2.0046e-09,0,0.00024343,8.9604e-05,1.7959e+08,656.48,0,8.8767e+07,69.907,702.88,1
2344,3.02,12116,1,12116,1,5.8728e-05,2.4339e-10,0,0.00041716,-1.0864e-05,1.1151e+07,76.703,0,1.5695e+08,-16.665,12115,13336,1,13336,1,0.00086241,1.871e-09,0,0.00086241,0.00013879,2.9505e+08,597.03,0,3.0097e+08,73.957,13335,12118,1,12118,1,6.1225e-05,1.969e-10,0,0.000431,-1.1325e-05,2.3172e+07,61.463,0,1.5583e+08,-5.5192,12117,10867,1,10867,1,-0.00073996,-1.9199e-09,0,4.0128e-07,-0.00016142,-3.0097e+08,-657.19,0,3.9685e+05,-285.9,10866,11508,1,11508,1,-0.00037017,-2.5245e-10,0,0.00018529,-9.215e-05,-1.5056e+08,-83.45,0,7.5358e+07,-34.405,11507,12724,1,12724,1,0.00049263,8.6564e-10,0,0.00061669,6.9477e-05,1.7635e+08,277.92,0,2.3568e+08,20.268,12723,702.88,0,702.88,0,0.00047993,8.0305e-10,0,0.00024429,8.991e-05,1.8013e+08,262.84,0,8.902e+07,57.412,702.88,1
2344,3.03,12116,1,12116,1,5.9092e-05,-1.3468e-09,0,0.00041858,-1.0932e-05,1.1187e+07,-436.64,0,1.5742e+08,-18.486,12115,13336,1,13336,1,0.00086551,4.0643e-09,0,0.00086551,0.00013924,2.9579e+08,1357,0,3.0192e+08,191.38,13335,12118,1,12118,1,6.1598e-05,-1.2657e-09,0,0.00043261,-1.1395e-05,2.3312e+07,-398.77,0,1.5632e+08,-10.565,12117,10867,1,10867,1,-0.00074231,-6.4084e-09,0,2.3758e-07,-0.000162,-3.0192e+08,-2051.6,0,3.333e+05,-430.95,10866,11508,1,11508,1,-0.00037125,-3.3436e-09,0,0.00018575,-9.249e-05,-1.51e+08,-1085.4,0,7.5546e+07,-65.234,11507,12724,1,12724,1,0.00049445,3.2848e-10,0,0.0006186,6.968e-05,1.7688e+08,108.92,0,2.3631e+08,35.848,12723,702.88,0,702.88,0,0.00048155,2.4803e-09,0,0.00024515,9.0213e-05,1.8065e+08,806.24,0,8.927e+07,92.365,702.88,1
2344,3.04,12116,1,12116,1,5.9459e-05,-1.4515e-09,0,0.00042,-1.0999e-05,1.1223e+07,-472.71,0,1.5788e+08,-31.654,12115,13336,1,13336,1,0.00086861,3.7486e-09,0,0.00086861,0.00013968,2.9654e+08,1282.4,0,3.0288e+08,162.98,13335,12118,1,12118,1,6.1972e-05,-1.2885e-09,0,0.00043424,-1.1465e-05,2.3452e+07,-409.53,0,1.5682e+08,-18.461,12117,10867,1,10867,1,-0.00074466,-6.5863e-09,0,7.0472e-08,-0.00016258,-3.0288e+08,-2118.4,0,2.6837e+05,-426.53,10866,11508,1,11508,1,-0.00037234,-3.4247e-09,0,0.00018621,-9.2833e-05,-1.5144e+08,-1119.5,0,7.5734e+07,-80.411,11507,12724,1,12724,1,0.00049629,2.5657e-10,0,0.00062052,6.9884e-05,1.7742e+08,78.848,0,2.3695e+08,25.945,12723,702.88,0,702.88,0,0.00048318,2.4508e-09,0,0.00024601,9.0518e-05,1.8118e+08,799.97,0,8.9521e+07,88.166,702.88,1
2344,3.05,12116,1,12116,1,5.9828e-05,-1.0502e-09,0,0.00042143,-1.1067e-05,1.1258e+07,-343.25,0,1.5835e+08,-24.32,12115,13336,1,13336,1,0.0008717,2.688e-09,0,0.0008717,0.00014012,2.9728e+08,920.09,0,3.0383e+08,120.51,13335,12118,1,12118,1,6.235e-05,-1.0176e-09,0,0.00043569,-1.1535e-05,2.3594e+07,-324.39,0,1.5732e+08,-11.089,12117,10867,1,10867,1,-0.000747,-4.1956e-09,0,9.3827e-08,-0.00016315,-3.0383e+08,-1360.3,0,2.0305e+05,-350.34,10866,11508,1,11508,1,-0.00037344,-2.3096e-09,0,0.00018687,-9.3177e-05,-1.5189e+08,-759.57,0,7.5921e+07,-53.791,11507,12724,1,12724,1,0.00049813,1.7171e-10,0,0.00062264,7.0089e-05,1.7796e+08,53.009,0,2.3759e+08,15.028,12723,702.88,0,702.88,0,0.00048481,1.5651e-09,0,0.00024686,9.0823e-05,1.8171e+08,512.81,0,8.9773e+07,65.796,702.88,1
2344,3.06,12116,1,12116,1,6.0199e-05,-1.8595e-09,0,0.00042287,-1.1136e-05,1.1294e+07,-604.78,0,1.5881e+08,-36.917,12115,13336,1,13336,1,0.00087481,1.182e-09,0,0.00087481,0.00014055,2.9801e+08,404.74,0,3.0478e+08,92.897,13335,12118,1,12118,1,6.273e-05,-1.7813e-09,0,0.00043699,-1.1606e-05,2.3737e+07,-579.16,0,1.5782e+08,-18.878,12117,10867,1,10867,1,-0.00074934,-4.9175e-09,0,2.6446e-07,-0.00016373,-3.0478e+08,-1586.2,0,1.3698e+05,-366.13,10866,11508,1,11508,1,-0.00037452,-3.1974e-09,0,0.00018766,-9.352e-05,-1.5233e+08,-1052.2,0,7.6107e+07,-63.514,11507,12724,1,12724,1,0.00049997,-4.9471e-10,0,0.0006249,7.0292e-05,1.7849e+08,-154.89,0,2.3822e+08,6.5798,12723,702.88,0,702.88,0,0.00048644,1.5627e-09,0,0.0002477,9.1128e-05,1.8223e+08,511.17,0,9.0023e+07,67.767,702.88,1
2344,3.07,12116,1,12116,1,6.0572e-05,-1.3603e-09,0,0.00042431,-1.1205e-05,1.133e+07,-443.87,0,1.5928e+08,-35.728,12115,13336,1,13336,1,0.00087791,5.9667e-10,0,0.00087791,0.00014099,2.9875e+08,192.42,0,3.0574e+08,70.544,13335,12118,1,12118,1,6.3112e-05,-1.2525e-09,0,0.00043829,-1.1677e-05,2.388e+07,-406.51,0,1.5831e+08,-18.745,12117,10867,1,10867,1,-0.00075168,-3.5188e-09,0,4.3616e-07,-0.00016431,-3.0574e+08,-1142.7,0,70187,-341.79,10866,11508,1,11508,1,-0.00037561,-2.3146e-09,0,0.00018847,-9.3866e-05,-1.5277e+08,-761.25,0,7.6293e+07,-53.98,11507,12724,1,12724,1,0.00050183,-3.2611e-10,0,0.00062718,7.0497e-05,1.7903e+08,-100.92,0,2.3886e+08,0.60869,12723,702.88,0,702.88,0,0.00048807,1.126e-09,0,0.00024854,9.1433e-05,1.8276e+08,370.02,0,9.0274e+07,59.552,702.88,1
2344,3.08,12116,1,12116,1,6.0945e-05,-5.8818e-10,0,0.00042573,-1.1274e-05,1.1366e+07,-193.29,0,1.5974e+08,-23.888,12115,13336,1,13336,1,0.000881,4.4068e-09,0,0.000881,0.00014143,2.9948e+08,1467.2,0,3.0668e+08,170.11,13335,12118,1,12118,1,6.3493e-05,-6.3935e-10,0,0.00043957,-1.1747e-05,2.4023e+07,-207.13,0,1.5881e+08,-14.433,12117,10867,1,10867,1,-0.000754,-4.4668e-09,0,6.099e-07,-0.00016489,-3.0668e+08,-1435.4,0,2835.2,-373.43,10866,11508,1,11508,1,-0.00037668,-2.218e-09,0,0.00018926,-9.4208e-05,-1.5321e+08,-722.5,0,7.6476e+07,-64.629,11507,12724,1,12724,1,0.00050367,5.6816e-10,0,0.00062943,7.0699e-05,1.7956e+08,180.73,0,2.3949e+08,21.032,12723,702.88,0,702.88,0,0.00048969,2.0623e-09,0,0.00024938,9.1736e-05,1.8328e+08,671.26,0,9.0521e+07,78.692,702.88,1
2344,3.09,12116,1,12116,1,6.1319e-05,-6.0927e-10,0,0.00042716,-1.1343e-05,1.1401e+07,-199.22,0,1.602e+08,-19.858,12115,13336,1,13336,1,0.00088408,3.5129e-09,0,0.00088408,0.00014186,3.002e+08,1202.3,0,3.0762e+08,89.739,13335,12118,1,12118,1,6.3875e-05,-4.3504e-10,0,0.00044085,-1.1819e-05,2.4167e+07,-140.15,0,1.593e+08,-14.213,12117,10867,1,10867,1,-0.00075632,-4.1391e-09,0,7.8453e-07,-0.00016546,-3.0762e+08,-1351.7,0,63915,-295.41,10866,11508,1,11508,1,-0.00037776,-1.9291e-09,0,0.00019006,-9.4551e-05,-1.5364e+08,-626.17,0,7.6658e+07,-50.012,11507,12724,1,12724,1,0.00050551,4.5204e-10,0,0.00063169,7.09e-05,1.8009e+08,134.58,0,2.4011e+08,24.114,12723,702.88,0,702.88,0,0.00049131,1.7902e-09,0,0.00025021,9.2039e-05,1.838e+08,585.11,0,9.076e+07,56.932,702.88,1
2344,3.1,12116,1,12116,1,6.1695e-05,-3.8158e-10,0,0.00042859,-1.1412e-05,1.1437e+07,-124.91,0,1.6066e+08,-26.732,12115,13336,1,13336,1,0.00088717,4.5854e-09,0,0.00088717,0.0001423,3.0093e+08,1468.2,0,3.0857e+08,144.16,13335,12118,1,12118,1,6.426e-05,-3.271e-10,0,0.00044213,-1.189e-05,2.4311e+07,-104.84,0,1.5979e+08,-26.58,12117,10867,1,10867,1,-0.00075865,-4.2084e-09,0,9.6027e-07,-0.00016604,-3.0857e+08,-1354.1,0,1.3223e+05,-322.04,10866,11508,1,11508,1,-0.00037883,-2.1562e-09,0,0.00019086,-9.4895e-05,-1.5408e+08,-695.19,0,7.6842e+07,-67.946,11507,12724,1,12724,1,0.00050735,1.0056e-09,0,0.00063395,7.1102e-05,1.8062e+08,323.06,0,2.4074e+08,14.05,12723,702.88,0,702.88,0,0.00049294,2.1867e-09,0,0.00025105,9.2342e-05,1.8432e+08,713.45,0,9.0999e+07,73.774,702.88,1
2344,3.11,12116,1,12116,1,6.2075e-05,-1.9214e-09,0,0.00043004,-1.1482e-05,1.1473e+07,-622.64,0,1.6113e+08,-22.004,12115,13336,1,13336,1,0.00089032,1.0241e-09,0,0.00089032,0.00014274,3.0167e+08,350.69,0,3.0953e+08,123.31,13335,12118,1,12118,1,6.4648e-05,-1.6817e-09,0,0.00044343,-1.1962e-05,2.4456e+07,-536.79,0,1.6029e+08,-9.639,12117,10867,1,10867,1,-0.00076102,-5.7794e-09,0,1.1377e-06,-0.00016663,-3.0953e+08,-1856.4,0,2.0121e+05,-401.29,10866,11508,1,11508,1,-0.00037992,-3.3823e-09,0,0.00019167,-9.5242e-05,-1.5452e+08,-1090.9,0,7.7028e+07,-51.294,11507,12724,1,12724,1,0.00050921,-3.3274e-10,0,0.00063623,7.1306e-05,1.8116e+08,-104.13,0,2.4137e+08,20.531,12723,702.88,0,702.88,0,0.00049458,1.7437e-09,0,0.0002519,9.265e-05,1.8485e+08,569.83,0,9.124e+07,70.509,702.88,1
2344,3.12,12116,1,12116,1,6.2457e-05,-1.2195e-09,0,0.00043147,-1.1553e-05,1.1509e+07,-398.02,0,1.616e+08,-17.572,12115,13336,1,13336,1,0.00089343,3.9759e-09,0,0.00089343,0.00014318,3.0238e+08,1339,0,3.1048e+08,156.55,13335,12118,1,12118,1,6.5038e-05,-9.7659e-10,0,0.00044471,-1.2035e-05,2.4603e+07,-314.03,0,1.6078e+08,-11.526,12117,10867,1,10867,1,-0.00076334,-6.5675e-09,0,1.3193e-06,-0.00016721,-3.1048e+08,-2109.8,0,2.7182e+05,-445.39,10866,11508,1,11508,1,-0.00038099,-3.2666e-09,0,0.00019248,-9.5587e-05,-1.5496e+08,-1061.3,0,7.7208e+07,-60.151,11507,12724,1,12724,1,0.00051106,4.669e-10,0,0.0006385,7.1507e-05,1.8169e+08,146.41,0,2.4199e+08,39.756,12723,702.88,0,702.88,0,0.0004962,2.5281e-09,0,0.00025274,9.2953e-05,1.8536e+08,823.03,0,9.1477e+07,86.847,702.88,1
2344,3.13,12116,1,12116,1,6.2839e-05,-1.4635e-09,0,0.0004329,-1.1623e-05,1.1544e+07,-476.41,0,1.6206e+08,-24.659,12115,13336,1,13336,1,0.00089653,4.1125e-09,0,0.00089653,0.00014362,3.031e+08,1406.9,0,3.1142e+08,166.25,13335,12118,1,12118,1,6.5429e-05,-1.2517e-09,0,0.00044599,-1.2108e-05,2.4749e+07,-408.81,0,1.6127e+08,-18.465,12117,10867,1,10867,1,-0.00076566,-6.7792e-09,0,1.5011e-06,-0.00016779,-3.1142e+08,-2184.3,0,3.425e+05,-368.27,10866,11508,1,11508,1,-0.00038206,-3.6445e-09,0,0.00019329,-9.5933e-05,-1.5539e+08,-1179.6,0,7.7389e+07,-69.639,11507,12724,1,12724,1,0.00051292,3.2463e-10,0,0.00064077,7.1708e-05,1.8222e+08,96.756,0,2.4261e+08,26.348,12723,702.88,0,702.88,0,0.00049783,2.6146e-09,0,0.00025358,9.3257e-05,1.8588e+08,852.9,0,9.1714e+07,79.856,702.88,1
2344,3.14,12116,1,12116,1,6.3224e-05,3.1748e-09,0,0.00043434,-1.1694e-05,1.158e+07,1023.6,0,1.6252e+08,-0.49159,12115,13336,1,13336,1,0.00089966,1.0414e-08,0,0.00089966,0.00014406,3.0383e+08,3319.7,0,3.1238e+08,315.68,13335,12118,1,12118,1,6.5823e-05,2.4955e-09,0,0.00044727,-1.2181e-05,2.4897e+07,794.82,0,1.6177e+08,4.8293,12117,10867,1,10867,1,-0.00076801,-1.795e-09,0,1.6848e-06,-0.00016837,-3.1238e+08,-614.69,0,4.1398e+05,-458.78,10866,11508,1,11508,1,-0.00038313,4.1727e-10,0,0.0001941,-9.6279e-05,-1.5583e+08,131.17,0,7.757e+07,-62.148,11507,12724,1,12724,1,0.00051477,5.6677e-09,0,0.00064305,7.1909e-05,1.8275e+08,1817.8,0,2.4323e+08,73.954,12723,702.88,0,702.88,0,0.00049946,3.1382e-09,0,0.00025442,9.3562e-05,1.864e+08,1019.3,0,9.1952e+07,115.62,702.88,1
2344,3.15,12116,1,12116,1,6.3611e-05,1.8953e-09,0,0.00043578,-1.1766e-05,1.1616e+07,617.01,0,1.6299e+08,-8.2151,12115,13336,1,13336,1,0.00090276,5.6064e-09,0,0.00090276,0.00014449,3.0453e+08,1831.7,0,3.1332e+08,167.73,13335,12118,1,12118,1,6.6217e-05,1.4221e-09,0,0.00044855,-1.2254e-05,2.5045e+07,466.71,0,1.6226e+08,-5.9924,12117,10867,1,10867,1,-0.00077032,-7.4915e-10,0,1.8704e-06,-0.00016895,-3.1332e+08,-213.14,0,4.8614e+05,-327.41,10866,11508,1,11508,1,-0.0003842,2.6741e-10,0,0.00019492,-9.6626e-05,-1.5627e+08,86.184,0,7.775e+07,-61.342,11507,12724,1,12724,1,0.00051664,3.4808e-09,0,0.00064533,7.2111e-05,1.8328e+08,1119.1,0,2.4386e+08,44.582,12723,702.88,0,702.88,0,0.00050109,1.7313e-09,0,0.00025526,9.3867e-05,1.8692e+08,570.62,0,9.2189e+07,79.194,702.88,1
2344,3.16,12116,1,12116,1,6.3999e-05,-2.4923e-09,0,0.00043721,-1.1837e-05,1.1651e+07,-801.84,0,1.6345e+08,-14.627,12115,13336,1,13336,1,0.00090588,1.2879e-09,0,0.00090588,0.00014493,3.0525e+08,441,0,3.1426e+08,138.41,13335,12118,1,12118,1,6.6615e-05,-2.2875e-09,0,0.00044983,-1.2328e-05,2.5194e+07,-730.56,0,1.6275e+08,-1.6909,12117,10867,1,10867,1,-0.00077265,-7.3069e-09,0,2.058e-06,-0.00016953,-3.1426e+08,-2337.4,0,5.5907e+05,-490.17,10866,11508,1,11508,1,-0.00038527,-4.0054e-09,0,0.00019573,-9.6973e-05,-1.567e+08,-1291.5,0,7.7929e+07,-42.028,11507,12724,1,12724,1,0.0005185,-8.2221e-10,0,0.00064761,7.2311e-05,1.8381e+08,-259.42,0,2.4447e+08,41.946,12723,702.88,0,702.88,0,0.00050272,2.0483e-09,0,0.0002561,9.4172e-05,1.8744e+08,661.71,0,9.2424e+07,92.516,702.88,1
2344,3.17,12116,1,12116,1,6.439e-05,-4.2303e-10,0,0.00043866,-1.191e-05,1.1687e+07,-140.12,0,1.6391e+08,-27.877,12115,13336,1,13336,1,0.00090899,2.8644e-09,0,0.00090899,0.00014536,3.0595e+08,974.05,0,3.152e+08,97.695,13335,12118,1,12118,1,6.7014e-05,-3.6325e-10,0,0.00045111,-1.2403e-05,2.5344e+07,-112.27,0,1.6325e+08,-9.0137,12117,10867,1,10867,1,-0.00077496,-2.9967e-09,0,2.2479e-06,-0.00017011,-3.152e+08,-974.28,0,6.3282e+05,-1630.6,10866,11508,1,11508,1,-0.00038635,-1.5186e-09,0,0.00019655,-9.7322e-05,-1.5714e+08,-499.47,0,7.8107e+07,-50.327,11507,12724,1,12724,1,0.00052037,4.5051e-10,0,0.0006499,7.2513e-05,1.8434e+08,133.55,0,2.451e+08,12.301,12723,702.88,0,702.88,0,0.00050436,1.4137e-09,0,0.00025695,9.4477e-05,1.8796e+08,462.27,0,9.2661e+07,101.64,702.88,1
2344,3.18,12116,1,12116,1,6.4783e-05,-1.1479e-09,0,0.0004401,-1.1982e-05,1.1723e+07,-372.69,0,1.6437e+08,-31.319,12115,13336,1,13336,1,0.00091213,1.8437e-09,0,0.00091213,0.0001458,3.0667e+08,631.08,0,3.1615e+08,74.614,13335,12118,1,12118,1,6.7416e-05,-9.8513e-10,0,0.00045239,-1.2477e-05,2.5494e+07,-308.46,0,1.6374e+08,-11.667,12117,10867,1,10867,1,-0.00077729,-4.3525e-09,0,2.4398e-06,-0.0001707,-3.1615e+08,-1398.2,0,7.0754e+05,-1533.9,10866,11508,1,11508,1,-0.00038741,-2.2543e-09,0,0.00019737,-9.767e-05,-1.5757e+08,-728.52,0,7.8286e+07,-42.946,11507,12724,1,12724,1,0.00052224,5.4573e-11,0,0.00065219,7.2713e-05,1.8487e+08,17.167,0,2.4571e+08,12.94,12723,702.88,0,702.88,0,0.00050599,1.3853e-09,0,0.0002578,9.4783e-05,1.8847e+08,451.52,0,9.2896e+07,130.24,702.88,1
2344,3.19,12116,1,12116,1,6.5178e-05,-2.557e-10,0,0.00044154,-1.2055e-05,1.1758e+07,-85.401,0,1.6483e+08,-26.074,12115,13336,1,13336,1,0.00091525,2.4056e-09,0,0.00091525,0.00014623,3.0737e+08,823.42,0,3.1709e+08,71.141,13335,12118,1,12118,1,6.7819e-05,-6.4843e-11,0,0.00045366,-1.2552e-05,2.5645e+07,-21.543,0,1.6423e+08,-8.5781,12117,10867,1,10867,1,-0.0007796,-2.4597e-09,0,2.6332e-06,-0.00017128,-3.1709e+08,-790,0,7.8282e+05,-1353.2,10866,11508,1,11508,1,-0.00038848,-8.8503e-10,0,0.00019819,-9.8019e-05,-1.58e+08,-284.4,0,7.8462e+07,-34.25,11507,12724,1,12724,1,0.00052411,3.6041e-10,0,0.00065448,7.2913e-05,1.854e+08,107.75,0,2.4632e+08,15.549,12723,702.88,0,702.88,0,0.00050762,9.3838e-10,0,0.00025864,9.5088e-05,1.8899e+08,306.31,0,9.313e+07,113.07,702.88,1
2344,3.2,12116,1,12116,1,6.5573e-05,-1.6647e-09,0,0.00044297,-1.2128e-05,1.1794e+07,-539.35,0,1.6529e+08,-26.366,12115,13336,1,13336,1,0.00091839,2.0543e-09,0,0.00091839,0.00014667,3.0807e+08,703.17,0,3.1804e+08,123.93,13335,12118,1,12118,1,6.8223e-05,-1.4287e-09,0,0.00045493,-1.2628e-05,2.5796e+07,-454.64,0,1.6472e+08,-2.4637,12117,10867,1,10867,1,-0.00078193,-5.8416e-09,0,2.828e-06,-0.00017186,-3.1804e+08,-1882.2,0,8.5861e+05,-1251.2,10866,11508,1,11508,1,-0.00038953,-2.965e-09,0,0.00019902,-9.8366e-05,-1.5843e+08,-959.48,0,7.8639e+07,-38.749,11507,12724,1,12724,1,0.00052597,-2.5716e-10,0,0.00065676,7.3111e-05,1.8592e+08,-78.876,0,2.4693e+08,32.067,12723,702.88,0,702.88,0,0.00050925,1.7413e-09,0,0.00025948,9.5392e-05,1.895e+08,565.58,0,9.3364e+07,127.18,702.88,1
2344,3.21,12116,1,12116,1,6.597e-05,-2.0517e-09,0,0.00044441,-1.2201e-05,1.1829e+07,-665.62,0,1.6575e+08,-15.723,12115,13336,1,13336,1,0.00092152,2.6479e-09,0,0.00092152,0.0001471,3.0877e+08,906.35,0,3.1898e+08,183.97,13335,12118,1,12118,1,6.8628e-05,-1.9142e-09,0,0.0004562,-1.2703e-05,2.5948e+07,-623.07,0,1.6521e+08,0.59444,12117,10867,1,10867,1,-0.00078425,-6.5687e-09,0,3.0235e-06,-0.00017245,-3.1898e+08,-2108,0,9.3466e+05,-1023.9,10866,11508,1,11508,1,-0.00039059,-3.7024e-09,0,0.00019984,-9.8714e-05,-1.5886e+08,-1197.7,0,7.8814e+07,-38.359,11507,12724,1,12724,1,0.00052784,-3.2211e-10,0,0.00065905,7.3309e-05,1.8645e+08,-96.896,0,2.4754e+08,39.912,12723,702.88,0,702.88,0,0.00051088,2.0662e-09,0,0.00026032,9.5696e-05,1.9001e+08,673.53,0,9.3597e+07,116.98,702.88,1
2344,3.22,12116,1,12116,1,6.6368e-05,-1.1402e-09,0,0.00044584,-1.2275e-05,1.1864e+07,-372.45,0,1.6621e+08,-22.88,12115,13336,1,13336,1,0.00092462,4.2388e-09,0,0.00092462,0.00014753,3.0946e+08,1431.5,0,3.1992e+08,131.28,13335,12118,1,12118,1,6.9034e-05,-7.5127e-10,0,0.00045745,-1.2779e-05,2.61e+07,-246.07,0,1.657e+08,-3.5668,12117,10867,1,10867,1,-0.00078654,-6.3265e-09,0,3.2221e-06,-0.00017303,-3.1992e+08,-2023,0,1.012e+06,-819.81,10866,11508,1,11508,1,-0.00039164,-3.1575e-09,0,0.00020066,-9.9062e-05,-1.5929e+08,-1017.4,0,7.8987e+07,-58.32,11507,12724,1,12724,1,0.00052971,6.023e-10,0,0.00066133,7.3507e-05,1.8697e+08,187.82,0,2.4815e+08,39.889,12723,702.88,0,702.88,0,0.0005125,2.4992e-09,0,0.00026116,9.5999e-05,1.9052e+08,813.78,0,9.3827e+07,107.7,702.88,1
2344,3.23,12116,1,12116,1,6.6769e-05,-1.6987e-09,0,0.00044728,-1.2349e-05,1.19e+07,-551.65,0,1.6667e+08,-30.497,12115,13336,1,13336,1,0.00092778,4.6816e-09,0,0.00092778,0.00014797,3.1016e+08,1601.6,0,3.2087e+08,174.74,13335,12118,1,12118,1,6.9443e-05,-1.5096e-09,0,0.00045873,-1.2855e-05,2.6254e+07,-484.39,0,1.6619e+08,-13.598,12117,10867,1,10867,1,-0.00078888,-7.7898e-09,0,3.4215e-06,-0.00017361,-3.2087e+08,-2490.7,0,1.0896e+06,-720.85,10866,11508,1,11508,1,-0.0003927,-4.0462e-09,0,0.00020149,-9.9412e-05,-1.5972e+08,-1305.4,0,7.9163e+07,-88.421,11507,12724,1,12724,1,0.00053159,3.271e-10,0,0.00066363,7.3706e-05,1.875e+08,99.437,0,2.4876e+08,50.081,12723,702.88,0,702.88,0,0.00051414,2.8938e-09,0,0.00026201,9.6305e-05,1.9104e+08,942.17,0,9.4061e+07,117.96,702.88,1
2344,3.24,12116,1,12116,1,6.7175e-05,-9.9448e-10,0,0.00044874,-1.2424e-05,1.1936e+07,-325.56,0,1.6713e+08,-32.255,12115,13336,1,13336,1,0.00093093,4.0759e-09,0,0.00093093,0.00014841,3.1086e+08,1395.1,0,3.2181e+08,143.48,13335,12118,1,12118,1,6.9858e-05,-8.1077e-10,0,0.00046,-1.2932e-05,2.6409e+07,-261.03,0,1.6668e+08,-10.875,12117,10867,1,10867,1,-0.0007912,-5.5502e-09,0,3.6243e-06,-0.0001742,-3.2181e+08,-1789,0,1.1686e+06,-570.51,10866,11508,1,11508,1,-0.00039377,-2.4441e-09,0,0.00020233,-9.9765e-05,-1.6016e+08,-793.05,0,7.9338e+07,-82.755,11507,12724,1,12724,1,0.00053348,3.838e-10,0,0.00066594,7.3906e-05,1.8803e+08,115.8,0,2.4937e+08,38.568,12723,702.88,0,702.88,0,0.00051578,1.9657e-09,0,0.00026286,9.6613e-05,1.9155e+08,641.93,0,9.4295e+07,103.75,702.88,1
2344,3.25,12116,1,12116,1,6.7581e-05,-1.8689e-09,0,0.00045017,-1.2499e-05,1.1971e+07,-605.83,0,1.6758e+08,-18.476,12115,13336,1,13336,1,0.00093406,2.4515e-09,0,0.00093406,0.00014884,3.1154e+08,839.34,0,3.2275e+08,95.637,13335,12118,1,12118,1,7.0272e-05,-1.5469e-09,0,0.00046126,-1.3009e-05,2.6564e+07,-477.83,0,1.6717e+08,-3.8724,12117,10867,1,10867,1,-0.0007935,-6.7586e-09,0,3.8305e-06,-0.00017479,-3.2275e+08,-2175.4,0,1.2489e+06,-333.07,10866,11508,1,11508,1,-0.00039481,-3.6667e-09,0,0.00020316,-0.00010011,-1.6058e+08,-1193.4,0,7.9509e+07,-64.64,11507,12724,1,12724,1,0.00053536,5.3997e-11,0,0.00066824,7.4102e-05,1.8855e+08,16.411,0,2.4996e+08,32.714,12723,702.88,0,702.88,0,0.00051741,2.2197e-09,0,0.00026371,9.6916e-05,1.9206e+08,723.56,0,9.4524e+07,70.393,702.88,1
2344,3.26,12116,1,12116,1,6.7987e-05,3.6362e-09,0,0.00045161,-1.2574e-05,1.2007e+07,1167.4,0,1.6804e+08,0.23744,12115,13336,1,13336,1,0.00093721,1.4365e-08,0,0.00093721,0.00014927,3.1224e+08,4577.3,0,3.2369e+08,1590.6,13335,12118,1,12118,1,7.0688e-05,2.0791e-09,0,0.00046251,-1.3086e-05,2.672e+07,635.06,0,1.6766e+08,2.8387,12117,10867,1,10867,1,-0.00079583,-2.2222e-09,0,4.036e-06,-0.00017537,-3.2369e+08,-760.68,0,1.3289e+06,-523.73,10866,11508,1,11508,1,-0.00039586,-5.0934e-11,0,0.00020399,-0.00010046,-1.6101e+08,-15.838,0,7.9681e+07,-94.086,11507,12724,1,12724,1,0.00053724,7.1043e-09,0,0.00067054,7.4299e-05,1.8907e+08,2249,0,2.5056e+08,86.684,12723,702.88,0,702.88,0,0.00051904,4.4655e-09,0,0.00026455,9.7221e-05,1.9257e+08,1446.4,0,9.4754e+07,173.23,702.88,1
2344,3.27,12116,1,12116,1,6.8398e-05,6.6443e-10,0,0.00045306,-1.2649e-05,1.2042e+07,219.13,0,1.685e+08,-31.514,12115,13336,1,13336,1,0.00094034,3.2764e-09,0,0.00094034,0.0001497,3.1291e+08,1074.4,0,3.2462e+08,59.722,13335,12118,1,12118,1,7.1107e-05,3.6498e-10,0,0.00046379,-1.3164e-05,2.6877e+07,113.15,0,1.6815e+08,-13.107,12117,10867,1,10867,1,-0.00079812,-1.8214e-09,0,4.244e-06,-0.00017596,-3.2462e+08,-597.39,0,1.4099e+06,-667.14,10866,11508,1,11508,1,-0.00039693,-1.3544e-10,0,0.00020484,-0.00010082,-1.6144e+08,-40.047,0,7.9853e+07,-43.456,11507,12724,1,12724,1,0.00053914,1.5525e-09,0,0.00067287,7.4499e-05,1.896e+08,507.94,0,2.5118e+08,10.319,12723,702.88,0,702.88,0,0.00052069,1.1182e-09,0,0.0002654,9.7529e-05,1.9308e+08,371.38,0,9.4987e+07,81.067,702.88,1
2344,3.28,12116,1,12116,1,6.8809e-05,-2.7817e-10,0,0.00045449,-1.2725e-05,1.2077e+07,-87.974,0,1.6895e+08,-16.256,12115,13336,1,13336,1,0.00094347,6.5477e-09,0,0.00094347,0.00015013,3.1359e+08,2146.7,0,3.2556e+08,254.14,13335,12118,1,12118,1,7.1527e-05,-3.6271e-10,0,0.00046504,-1.3242e-05,2.7034e+07,-112.61,0,1.6864e+08,-5.6095,12117,10867,1,10867,1,-0.00080041,-5.1807e-09,0,4.456e-06,-0.00017654,-3.2556e+08,-1698.7,0,1.4923e+06,-830.23,10866,11508,1,11508,1,-0.00039796,-2.1691e-09,0,0.00020567,-0.00010117,-1.6186e+08,-690.29,0,8.0021e+07,-48.28,11507,12724,1,12724,1,0.00054102,9.2526e-10,0,0.00067516,7.4694e-05,1.9012e+08,295.85,0,2.5176e+08,30.069,12723,702.88,0,702.88,0,0.0005223,2.5296e-09,0,0.00026624,9.7831e-05,1.9358e+08,820.04,0,9.5214e+07,116.74,702.88,1
2344,3.29,12116,1,12116,1,6.9221e-05,-2.2483e-09,0,0.00045594,-1.2801e-05,1.2113e+07,-724.97,0,1.694e+08,-25.464,12115,13336,1,13336,1,0.00094665,5.2408e-09,0,0.00094665,0.00015057,3.1428e+08,1718.4,0,3.265e+08,195.55,13335,12118,1,12118,1,7.1946e-05,-1.8043e-09,0,0.00046629,-1.3321e-05,2.7191e+07,-564.82,0,1.6912e+08,-10.187,12117,10867,1,10867,1,-0.00080274,-9.5201e-09,0,4.6658e-06,-0.00017713,-3.265e+08,-3055,0,1.5741e+06,-1148.1,10866,11508,1,11508,1,-0.00039901,-4.9713e-09,0,0.00020651,-0.00010152,-1.6229e+08,-1608.9,0,8.0193e+07,-74.345,11507,12724,1,12724,1,0.0005429,2.811e-10,0,0.00067746,7.489e-05,1.9064e+08,90.179,0,2.5236e+08,49.108,12723,702.88,0,702.88,0,0.00052394,3.3478e-09,0,0.00026709,9.8137e-05,1.9409e+08,1085.9,0,9.5443e+07,136.83,702.88,1
2344,3.3,12116,1,12116,1,6.964e-05,6.5284e-10,0,0.0004574,-1.2878e-05,1.2149e+07,204.77,0,1.6986e+08,-45.386,12115,13336,1,13336,1,0.0009498,2.7872e-09,0,0.0009498,0.000151,3.1496e+08,913.95,0,3.2744e+08,76.292,13335,12118,1,12118,1,7.2374e-05,5.9139e-10,0,0.00046757,-1.34e-05,2.7351e+07,193.59,0,1.6962e+08,-18.384,12117,10867,1,10867,1,-0.00080504,-6.1436e-10,0,4.8799e-06,-0.00017772,-3.2744e+08,-201.56,0,1.6573e+06,-1252.9,10866,11508,1,11508,1,-0.00040008,2.7909e-10,0,0.00020736,-0.00010188,-1.6272e+08,90.8,0,8.0364e+07,-51.523,11507,12724,1,12724,1,0.00054483,9.9357e-10,0,0.00067981,7.5091e-05,1.9117e+08,308.87,0,2.5297e+08,-2.6038,12723,702.88,0,702.88,0,0.0005256,4.7921e-10,0,0.00026795,9.8447e-05,1.9461e+08,147.83,0,9.5676e+07,123.94,702.88,1
2344,3.31,12116,1,12116,1,7.0058e-05,-2.9069e-09,0,0.00045884,-1.2956e-05,1.2184e+07,-936.07,0,1.7031e+08,-12.657,12115,13336,1,13336,1,0.00095298,3.0913e-09,0,0.00095298,0.00015144,3.1564e+08,1013.1,0,3.2839e+08,342.57,13335,12118,1,12118,1,7.2801e-05,-2.6863e-09,0,0.00046881,-1.348e-05,2.7511e+07,-868.65,0,1.7011e+08,2.6182,12117,10867,1,10867,1,-0.00080737,-8.6575e-09,0,5.0984e-06,-0.00017831,-3.2839e+08,-2837.5,0,1.7426e+06,-1278.2,10866,11508,1,11508,1,-0.0004011,-5.3265e-09,0,0.00020821,-0.00010223,-1.6314e+08,-1701.9,0,8.0532e+07,-60.625,11507,12724,1,12724,1,0.0005467,-3.9809e-10,0,0.0006821,7.5284e-05,1.9168e+08,-121.32,0,2.5355e+08,47.896,12723,702.88,0,702.88,0,0.00052722,2.8048e-09,0,0.0002688,9.8751e-05,1.9511e+08,905.84,0,9.5902e+07,136.99,702.88,1
2344,3.32,12116,1,12116,1,7.0476e-05,-5.4714e-10,0,0.00046028,-1.3033e-05,1.2219e+07,-182.22,0,1.7076e+08,-18.145,12115,13336,1,13336,1,0.00095611,3.139e-09,0,0.00095611,0.00015187,3.1629e+08,1003,0,3.2931e+08,84.827,13335,12118,1,12118,1,7.3227e-05,-3.1673e-10,0,0.00047006,-1.3559e-05,2.7671e+07,-99.679,0,1.7059e+08,0.56358,12117,10867,1,10867,1,-0.00080964,-3.9365e-09,0,5.3152e-06,-0.0001789,-3.2931e+08,-1290,0,1.827e+06,-315.65,10866,11508,1,11508,1,-0.00040215,-1.9078e-09,0,0.00020905,-0.00010258,-1.6357e+08,-629.95,0,8.0697e+07,-49.007,11507,12724,1,12724,1,0.0005486,6.377e-10,0,0.00068443,7.548e-05,1.922e+08,184.76,0,2.5415e+08,31.161,12723,702.88,0,702.88,0,0.00052885,1.7734e-09,0,0.00026964,9.9055e-05,1.9561e+08,577.44,0,9.6128e+07,67.62,702.88,1
2344,3.33,12116,1,12116,1,7.0896e-05,-3.4088e-09,0,0.00046172,-1.311e-05,1.2255e+07,-1099.6,0,1.7121e+08,-23.787,12115,13336,1,13336,1,0.00095929,3.51e-09,0,0.00095929,0.0001523,3.1697e+08,1168.9,0,3.3026e+08,347.1,13335,12118,1,12118,1,7.3655e-05,-3.1417e-09,0,0.0004713,-1.3639e-05,2.7831e+07,-1022.2,0,1.7108e+08,-10.261,12117,10867,1,10867,1,-0.00081197,-1.0637e-08,0,5.5343e-06,-0.00017949,-3.3026e+08,-3419.4,0,1.9123e+06,-549.94,10866,11508,1,11508,1,-0.00040318,-6.3039e-09,0,0.00020991,-0.00010293,-1.6398e+08,-2018,0,8.0865e+07,-88.976,11507,12724,1,12724,1,0.00055048,-3.3935e-10,0,0.00068672,7.5673e-05,1.9271e+08,-110.89,0,2.5473e+08,52.528,12723,702.88,0,702.88,0,0.00053048,3.4232e-09,0,0.00027049,9.936e-05,1.9611e+08,1108,0,9.6354e+07,129.75,702.88,1
2344,3.34,12116,1,12116,1,7.1318e-05,-1.4028e-09,0,0.00046316,-1.3188e-05,1.229e+07,-459.81,0,1.7166e+08,-24.847,12115,13336,1,13336,1,0.00096243,3.6777e-09,0,0.00096243,0.00015273,3.1763e+08,1205.3,0,3.3118e+08,113.48,13335,12118,1,12118,1,7.4086e-05,-1.349e-09,0,0.00047256,-1.3719e-05,2.7992e+07,-425.25,0,1.7156e+08,-6.3448,12117,10867,1,10867,1,-0.00081424,-4.9449e-09,0,5.7538e-06,-0.00018008,-3.3118e+08,-1634.7,0,1.9978e+06,-489.12,10866,11508,1,11508,1,-0.00040422,-3.0105e-09,0,0.00021075,-0.00010329,-1.6441e+08,-972.28,0,8.103e+07,-59.266,11507,12724,1,12724,1,0.00055239,1.4627e-10,0,0.00068905,7.5869e-05,1.9324e+08,46.594,0,2.5532e+08,24.267,12723,702.88,0,702.88,0,0.00053212,1.8525e-09,0,0.00027134,9.9665e-05,1.9662e+08,606.49,0,9.6581e+07,77.328,702.88,1
2344,3.35,12116,1,12116,1,7.1743e-05,-1.5803e-09,0,0.00046461,-1.3266e-05,1.2325e+07,-513.86,0,1.7212e+08,-31.997,12115,13336,1,13336,1,0.0009656,3.3298e-09,0,0.0009656,0.00015316,3.1829e+08,1106.9,0,3.3212e+08,178.91,13335,12118,1,12118,1,7.452e-05,-1.3575e-09,0,0.0004738,-1.38e-05,2.8155e+07,-430.29,0,1.7205e+08,-15.268,12117,10867,1,10867,1,-0.00081655,-6.1995e-09,0,5.9779e-06,-0.00018067,-3.3212e+08,-2011,0,2.085e+06,-493.48,10866,11508,1,11508,1,-0.00040526,-3.054e-09,0,0.00021161,-0.00010364,-1.6483e+08,-988.03,0,8.1196e+07,-73.187,11507,12724,1,12724,1,0.0005543,3.0682e-11,0,0.00069138,7.6064e-05,1.9375e+08,8.947,0,2.5591e+08,32.804,12723,702.88,0,702.88,0,0.00053376,1.9758e-09,0,0.00027219,9.9971e-05,1.9712e+08,643.08,0,9.6807e+07,103.36,702.88,1
2344,3.36,12116,1,12116,1,7.2184e-05,-6.7511e-10,0,0.00046607,-1.3348e-05,1.2361e+07,-222.13,0,1.7256e+08,-29.606,12115,13336,1,13336,1,0.00096879,4.0431e-09,0,0.00096879,0.00015359,3.1895e+08,1363.9,0,3.3305e+08,110.17,13335,12118,1,12118,1,7.497e-05,-4.7724e-10,0,0.00047505,-1.3883e-05,2.832e+07,-155.17,0,1.7253e+08,-20.96,12117,10867,1,10867,1,-0.00081883,-4.9222e-09,0,6.2169e-06,-0.00018126,-3.3305e+08,-1610.2,0,2.1776e+06,-330.78,10866,11508,1,11508,1,-0.00040629,-2.3737e-09,0,0.00021248,-0.000104,-1.6525e+08,-757.22,0,8.1356e+07,-71.239,11507,12724,1,12724,1,0.00055623,6.7711e-10,0,0.00069373,7.6257e-05,1.9427e+08,208.09,0,2.5649e+08,28.029,12723,702.88,0,702.88,0,0.0005354,2.1671e-09,0,0.00027305,0.00010028,1.9762e+08,704.65,0,9.7032e+07,77.918,702.88,1
2344,3.37,12116,1,12116,1,7.2635e-05,-1.9265e-09,0,0.00046753,-1.3431e-05,1.2396e+07,-622.94,0,1.7301e+08,-44.975,12115,13336,1,13336,1,0.00097201,1.4767e-09,0,0.00097201,0.00015402,3.1961e+08,505.6,0,3.3399e+08,106.55,13335,12118,1,12118,1,7.5429e-05,-1.8188e-09,0,0.00047629,-1.3969e-05,2.8488e+07,-574.14,0,1.7302e+08,-25.531,12117,10867,1,10867,1,-0.00082114,-5.7711e-09,0,6.4642e-06,-0.00018186,-3.3399e+08,-1886,0,2.2733e+06,-368.97,10866,11508,1,11508,1,-0.00040732,-3.4854e-09,0,0.00021336,-0.00010436,-1.6567e+08,-1116.7,0,8.1516e+07,-85.458,11507,12724,1,12724,1,0.00055817,-2.6274e-10,0,0.0006961,7.645e-05,1.9478e+08,-76.454,0,2.5707e+08,8.8919,12723,702.88,0,702.88,0,0.00053706,1.8453e-09,0,0.00027391,0.00010059,1.9812e+08,602.47,0,9.7257e+07,78.085,702.88,1
2344,3.38,12116,1,12116,1,7.3089e-05,-2.5033e-10,0,0.00046899,-1.3514e-05,1.2431e+07,-85.45,0,1.7345e+08,-24.397,12115,13336,1,13336,1,0.0009752,1.9352e-09,0,0.0009752,0.00015445,3.2024e+08,662.42,0,3.3491e+08,48.073,13335,12118,1,12118,1,7.5891e-05,-1.0641e-10,0,0.00047751,-1.4054e-05,2.8656e+07,-32.999,0,1.735e+08,-9.232,12117,10867,1,10867,1,-0.00082341,-2.0609e-09,0,6.7148e-06,-0.00018246,-3.3491e+08,-697.01,0,2.3702e+06,-314.12,10866,11508,1,11508,1,-0.00040834,-9.2555e-10,0,0.00021425,-0.00010473,-1.6608e+08,-300.16,0,8.1671e+07,-41.044,11507,12724,1,12724,1,0.00056012,3.2992e-10,0,0.00069847,7.6641e-05,1.9529e+08,97.02,0,2.5765e+08,9.1665,12723,702.88,0,702.88,0,0.0005387,9.3875e-10,0,0.00027477,0.00010089,1.9861e+08,308.2,0,9.7478e+07,54.969,702.88,1
2344,3.39,12116,1,12116,1,7.3544e-05,8.9282e-11,0,0.00047045,-1.3598e-05,1.2467e+07,26.151,0,1.739e+08,-28.558,12115,13336,1,13336,1,0.00097841,1.4418e-09,0,0.00097841,0.00015488,3.2088e+08,493.66,0,3.3584e+08,30.655,13335,12118,1,12118,1,7.6356e-05,9.9617e-11,0,0.00047875,-1.414e-05,2.8826e+07,30.797,0,1.7398e+08,-13.597,12117,10867,1,10867,1,-0.00082569,-5.5678e-10,0,6.9677e-06,-0.00018305,-3.3584e+08,-190.66,0,2.468e+06,-320.7,10866,11508,1,11508,1,-0.00040936,-1.0235e-10,0,0.00021513,-0.00010509,-1.665e+08,-33.304,0,8.1827e+07,-30.322,11507,12724,1,12724,1,0.00056207,2.5059e-10,0,0.00070085,7.6833e-05,1.958e+08,72.376,0,2.5822e+08,-3.026,12723,702.88,0,702.88,0,0.00054035,3.1281e-10,0,0.00027563,0.0001012,1.9911e+08,102.85,0,9.7701e+07,50.461,702.88,1
2344,3.4,12116,1,12116,1,7.4001e-05,4.0378e-10,0,0.00047191,-1.3683e-05,1.2502e+07,130.19,0,1.7434e+08,-5.1563,12115,13336,1,13336,1,0.00098162,2.75e-09,0,0.00098162,0.00015531,3.2152e+08,888.26,0,3.3677e+08,128.08,13335,12118,1,12118,1,7.6822e-05,2.0863e-10,0,0.00047997,-1.4227e-05,2.8996e+07,67.469,0,1.7445e+08,9.7336,12117,10867,1,10867,1,-0.00082798,-2.4383e-09,0,7.2226e-06,-0.00018365,-3.3677e+08,-834.62,0,2.5665e+06,-382.54,10866,11508,1,11508,1,-0.00041037,-3.5646e-10,0,0.00021602,-0.00010545,-1.6691e+08,-111.07,0,8.1981e+07,-20.422,11507,12724,1,12724,1,0.00056401,1.3019e-09,0,0.00070321,7.7022e-05,1.9631e+08,413.5,0,2.5879e+08,38.26,12723,702.88,0,702.88,0,0.00054199,1.1079e-09,0,0.00027649,0.00010151,1.996e+08,359.55,0,9.792e+07,73.831,702.88,1
2344,3.41,12116,1,12116,1,7.446e-05,-1.982e-09,0,0.00047336,-1.3767e-05,1.2537e+07,-636.07,0,1.7478e+08,-39.319,12115,13336,1,13336,1,0.00098485,1.0258e-09,0,0.00098485,0.00015574,3.2217e+08,351.25,0,3.377e+08,102.36,13335,12118,1,12118,1,7.7289e-05,-1.9383e-09,0,0.00048119,-1.4313e-05,2.9166e+07,-609.46,0,1.7493e+08,-21.027,12117,10867,1,10867,1,-0.00083027,-5.4674e-09,0,7.4782e-06,-0.00018425,-3.377e+08,-1758.2,0,2.6653e+06,-458.17,10866,11508,1,11508,1,-0.00041138,-3.2987e-09,0,0.00021691,-0.00010581,-1.6732e+08,-1058.3,0,8.2136e+07,-70.248,11507,12724,1,12724,1,0.00056595,-6.5482e-10,0,0.00070557,7.7212e-05,1.9681e+08,-200.6,0,2.5935e+08,16.026,12723,702.88,0,702.88,0,0.00054364,1.5883e-09,0,0.00027735,0.00010182,2.0009e+08,511.32,0,9.8141e+07,88.101,702.88,1
2344,3.42,12116,1,12116,1,7.492e-05,6.5996e-10,0,0.00047481,-1.3852e-05,1.2572e+07,208.2,0,1.7522e+08,-15.928,12115,13336,1,13336,1,0.00098803,3.903e-09,0,0.00098803,0.00015616,3.2279e+08,1264.2,0,3.3862e+08,144.91,13335,12118,1,12118,1,7.7757e-05,5.3512e-10,0,0.0004824,-1.44e-05,2.9337e+07,168.8,0,1.7541e+08,-16.437,12117,10867,1,10867,1,-0.00083252,-2.8812e-09,0,7.7364e-06,-0.00018485,-3.3862e+08,-986.2,0,2.7651e+06,-319.8,10866,11508,1,11508,1,-0.00041238,-6.0931e-10,0,0.0002178,-0.00010617,-1.6773e+08,-195.69,0,8.2286e+07,-54.524,11507,12724,1,12724,1,0.0005679,2.2957e-09,0,0.00070794,7.74e-05,1.9732e+08,718.55,0,2.5992e+08,29.846,12723,702.88,0,702.88,0,0.00054527,1.8245e-09,0,0.0002782,0.00010212,2.0058e+08,590.22,0,9.8358e+07,71.933,702.88,1
2344,3.43,12116,1,12116,1,7.5382e-05,-1.0523e-09,0,0.00047628,-1.3937e-05,1.2607e+07,-336.67,0,1.7566e+08,-21.218,12115,13336,1,13336,1,0.00099126,4.9284e-10,0,0.00099126,0.00015659,3.2342e+08,168.79,0,3.3955e+08,97.36,13335,12118,1,12118,1,7.8228e-05,-6.9528e-10,0,0.00048363,-1.4488e-05,2.9508e+07,-215.12,0,1.7588e+08,-12.006,12117,10867,1,10867,1,-0.0008348,-3.4313e-09,0,7.9957e-06,-0.00018545,-3.3955e+08,-1111.3,0,2.8653e+06,-355.28,10866,11508,1,11508,1,-0.0004134,-1.6835e-09,0,0.00021869,-0.00010654,-1.6814e+08,-527.93,0,8.2439e+07,-49.798,11507,12724,1,12724,1,0.00056985,-3.4313e-10,0,0.00071032,7.7591e-05,1.9782e+08,-107.41,0,2.6049e+08,19.372,12723,702.88,0,702.88,0,0.00054693,9.4459e-10,0,0.00027906,0.00010243,2.0107e+08,309.29,0,9.8579e+07,67.519,702.88,1
2344,3.44,12116,1,12116,1,7.5849e-05,-1.2676e-09,0,0.00047774,-1.4023e-05,1.2642e+07,-407.85,0,1.761e+08,-29.094,12115,13336,1,13336,1,0.0009945,6.2389e-10,0,0.0009945,0.00015701,3.2405e+08,213.64,0,3.4047e+08,118.59,13335,12118,1,12118,1,7.8704e-05,-1.2359e-09,0,0.00048485,-1.4576e-05,2.9681e+07,-386.85,0,1.7636e+08,-17.991,12117,10867,1,10867,1,-0.00083709,-3.2568e-09,0,8.2594e-06,-0.00018605,-3.4047e+08,-1063.8,0,2.9672e+06,-333.26,10866,11508,1,11508,1,-0.0004144,-2.1703e-09,0,0.00021959,-0.0001069,-1.6855e+08,-700.7,0,8.2591e+07,-42.888,11507,12724,1,12724,1,0.00057181,-3.0426e-10,0,0.0007127,7.778e-05,1.9833e+08,-97.688,0,2.6105e+08,3.2394,12723,702.88,0,702.88,0,0.00054858,1.0172e-09,0,0.00027993,0.00010274,2.0156e+08,332.41,0,9.8798e+07,58.991,702.88,1
2344,3.45,12116,1,12116,1,7.6317e-05,-1.2334e-09,0,0.00047919,-1.4109e-05,1.2677e+07,-398.56,0,1.7654e+08,-26.109,12115,13336,1,13336,1,0.00099772,1.5763e-09,0,0.00099772,0.00015744,3.2467e+08,539.68,0,3.414e+08,83.996,13335,12118,1,12118,1,7.918e-05,-1.1586e-09,0,0.00048606,-1.4664e-05,2.9855e+07,-367.72,0,1.7684e+08,-10.915,12117,10867,1,10867,1,-0.00083935,-4.0155e-09,0,8.5246e-06,-0.00018665,-3.414e+08,-1305.9,0,3.0696e+06,-368.25,10866,11508,1,11508,1,-0.0004154,-2.3298e-09,0,0.00022049,-0.00010727,-1.6895e+08,-753,0,8.274e+07,-46.834,11507,12724,1,12724,1,0.00057376,-6.0366e-11,0,0.00071507,7.7967e-05,1.9883e+08,-19.633,0,2.6161e+08,12.908,12723,702.88,0,702.88,0,0.00055022,1.3086e-09,0,0.00028079,0.00010305,2.0205e+08,425.88,0,9.9015e+07,64.86,702.88,1
2344,3.46,12116,1,12116,1,7.6786e-05,-6.933e-10,0,0.00048065,-1.4196e-05,1.2712e+07,-226.4,0,1.7698e+08,-25.982,12115,13336,1,13336,1,0.0010009,2.8316e-09,0,0.0010009,0.00015786,3.2529e+08,969.22,0,3.4232e+08,77.636,13335,12118,1,12118,1,7.9657e-05,-4.4728e-10,0,0.00048727,-1.4753e-05,3.0028e+07,-144.52,0,1.7731e+08,-16.494,12117,10867,1,10867,1,-0.00084162,-3.9751e-09,0,8.7911e-06,-0.00018725,-3.4232e+08,-1292.4,0,3.1725e+06,-362.99,10866,11508,1,11508,1,-0.0004164,-1.8199e-09,0,0.00022139,-0.00010763,-1.6936e+08,-594.25,0,8.2888e+07,-51.893,11507,12724,1,12724,1,0.00057571,3.4781e-10,0,0.00071744,7.8155e-05,1.9933e+08,100.14,0,2.6216e+08,18.86,12723,702.88,0,702.88,0,0.00055186,1.5576e-09,0,0.00028165,0.00010335,2.0253e+08,505.91,0,9.9232e+07,67.635,702.88,1
2344,3.47,12116,1,12116,1,7.7258e-05,-1.0067e-09,0,0.00048211,-1.4283e-05,1.2747e+07,-325.47,0,1.7741e+08,-23.016,12115,13336,1,13336,1,0.0010042,2.8211e-09,0,0.0010042,0.00015829,3.2591e+08,965.65,0,3.4324e+08,103.34,13335,12118,1,12118,1,8.0137e-05,-6.5162e-10,0,0.00048848,-1.4842e-05,3.0203e+07,-204.06,0,1.7778e+08,-17.515,12117,10867,1,10867,1,-0.00084389,-5.2365e-09,0,9.0602e-06,-0.00018785,-3.4324e+08,-1693.9,0,3.2764e+06,-369.13,10866,11508,1,11508,1,-0.0004174,-2.5214e-09,0,0.0002223,-0.00010799,-1.6977e+08,-809.41,0,8.3037e+07,-57.594,11507,12724,1,12724,1,0.00057767,4.1643e-10,0,0.00071982,7.8342e-05,1.9983e+08,127.9,0,2.6272e+08,26.02,12723,702.88,0,702.88,0,0.0005535,2.0316e-09,0,0.00028251,0.00010366,2.0302e+08,658.64,0,9.9448e+07,73.117,702.88,1
2344,3.48,12116,1,12116,1,7.7734e-05,-1.0911e-10,0,0.00048358,-1.4371e-05,1.2782e+07,-38.867,0,1.7785e+08,-32.417,12115,13336,1,13336,1,0.0010074,2.1193e-09,0,0.0010074,0.00015871,3.2652e+08,725.61,0,3.4416e+08,57.983,13335,12118,1,12118,1,8.0622e-05,2.8825e-11,0,0.00048969,-1.4932e-05,3.0379e+07,9.4023,0,1.7826e+08,-20.132,12117,10867,1,10867,1,-0.00084615,-2.0756e-09,0,9.3322e-06,-0.00018846,-3.4416e+08,-700.37,0,3.3814e+06,-350.85,10866,11508,1,11508,1,-0.0004184,-7.3823e-10,0,0.0002232,-0.00010836,-1.7018e+08,-237.18,0,8.3185e+07,-45.153,11507,12724,1,12724,1,0.00057965,3.9886e-10,0,0.00072223,7.8531e-05,2.0034e+08,118.29,0,2.6328e+08,5.9576,12723,702.88,0,702.88,0,0.00055516,9.0789e-10,0,0.00028337,0.00010397,2.035e+08,298.2,0,9.9666e+07,63.884,702.88,1
2344,3.49,12116,1,12116,1,7.8213e-05,-9.8664e-10,0,0.00048504,-1.4459e-05,1.2817e+07,-317.41,0,1.7829e+08,-24.399,12115,13336,1,13336,1,0.0010107,1.4018e-09,0,0.0010107,0.00015914,3.2714e+08,479.96,0,3.4509e+08,72.887,13335,12118,1,12118,1,8.111e-05,-7.0511e-10,0,0.0004909,-1.5022e-05,3.0556e+07,-226.61,0,1.7874e+08,-16.477,12117,10867,1,10867,1,-0.00084843,-4.0281e-09,0,9.6082e-06,-0.00018906,-3.4509e+08,-1307.5,0,3.4879e+06,-356.19,10866,11508,1,11508,1,-0.0004194,-2.0175e-09,0,0.00022412,-0.00010873,-1.7058e+08,-650.56,0,8.3332e+07,-45.404,11507,12724,1,12724,1,0.00058162,2.7876e-11,0,0.00072462,7.8718e-05,2.0084e+08,8.2541,0,2.6383e+08,15.742,12723,702.88,0,702.88,0,0.00055681,1.3488e-09,0,0.00028424,0.00010428,2.0399e+08,438.61,0,9.9882e+07,63.534,702.88,1
2344,3.5,12116,1,12116,1,7.8693e-05,1.1859e-09,0,0.0004865,-1.4547e-05,1.2852e+07,377.84,0,1.7872e+08,-14.576,12115,13336,1,13336,1,0.0010139,2.6666e-09,0,0.0010139,0.00015957,3.2775e+08,842.07,0,3.4601e+08,118.67,13335,12118,1,12118,1,8.1599e-05,1.2804e-09,0,0.00049211,-1.5113e-05,3.0734e+07,403.54,0,1.7921e+08,-9.8263,12117,10867,1,10867,1,-0.00085069,-1.2018e-09,0,9.8857e-06,-0.00018966,-3.4601e+08,-411.58,0,3.595e+06,-337.34,10866,11508,1,11508,1,-0.00042039,4.0055e-10,0,0.00022503,-0.00010909,-1.7098e+08,124.26,0,8.3478e+07,-27.983,11507,12724,1,12724,1,0.00058359,2.0526e-09,0,0.00072701,7.8904e-05,2.0133e+08,662.83,0,2.6438e+08,8.8884,12723,702.88,0,702.88,0,0.00055846,9.5865e-10,0,0.0002851,0.00010458,2.0447e+08,306.3,0,1.001e+08,56.402,702.88,1
2344,3.51,12116,1,12116,1,7.9173e-05,1.0691e-09,0,0.00048796,-1.4636e-05,1.2887e+07,346.25,0,1.7915e+08,-4.8648,12115,13336,1,13336,1,0.0010171,5.4271e-09,0,0.0010171,0.00015999,3.2835e+08,1761.9,0,3.4692e+08,167.62,13335,12118,1,12118,1,8.2088e-05,7.1284e-10,0,0.0004933,-1.5204e-05,3.0911e+07,225.15,0,1.7968e+08,3.8383,12117,10867,1,10867,1,-0.00085294,-2.0553e-09,0,1.0164e-05,-0.00019027,-3.4692e+08,-703.52,0,3.7023e+06,-367.26,10866,11508,1,11508,1,-0.00042137,-1.8602e-10,0,0.00022594,-0.00010946,-1.7138e+08,-54.083,0,8.362e+07,-30.771,11507,12724,1,12724,1,0.00058555,2.3006e-09,0,0.00072939,7.9088e-05,2.0183e+08,729.03,0,2.6492e+08,31.485,12723,702.88,0,702.88,0,0.00056009,1.6341e-09,0,0.00028596,0.00010489,2.0495e+08,530.87,0,1.0031e+08,64.939,702.88,1
2344,3.52,12116,1,12116,1,7.9678e-05,-3.188e-10,0,0.00048941,-1.4729e-05,1.2921e+07,-97.011,0,1.7957e+08,-27.234,12115,13336,1,13336,1,0.0010204,8.7104e-09,0,0.0010204,0.0001604,3.2893e+08,2831.7,0,3.4782e+08,221.08,13335,12118,1,12118,1,8.2601e-05,-2.5504e-10,0,0.00049446,-1.5298e-05,3.1092e+07,-73.639,0,1.8013e+08,-36.153,12117,10867,1,10867,1,-0.00085515,-7.3637e-09,0,1.0467e-05,-0.00019087,-3.4782e+08,-2370.7,0,3.8179e+06,-454.77,10866,11508,1,11508,1,-0.00042233,-3.3254e-09,0,0.00022687,-0.00010983,-1.7177e+08,-1039.7,0,8.3753e+07,-99.627,11507,12724,1,12724,1,0.00058753,2.1421e-09,0,0.00073179,7.9268e-05,2.0231e+08,685.89,0,2.6545e+08,59.255,12723,702.88,0,702.88,0,0.00056173,3.9712e-09,0,0.00028682,0.0001052,2.0542e+08,1279,0,1.0052e+08,114.54,702.88,1
2344,3.53,12116,1,12116,1,8.0199e-05,-3.975e-09,0,0.0004909,-1.4824e-05,1.2956e+07,-1269,0,1.8e+08,-67.109,12115,13336,1,13336,1,0.0010237,2.7323e-09,0,0.0010237,0.00016084,3.2954e+08,935.67,0,3.4876e+08,293.28,13335,12118,1,12118,1,8.3129e-05,-3.8664e-09,0,0.00049565,-1.5396e-05,3.1276e+07,-1215.7,0,1.806e+08,-48.861,12117,10867,1,10867,1,-0.00085746,-1.254e-08,0,1.0778e-05,-0.0001915,-3.4876e+08,-4007.4,0,3.9365e+06,-766.2,10866,11508,1,11508,1,-0.00042329,-6.172e-09,0,0.00022784,-0.0001102,-1.7217e+08,-1976.1,0,8.3968e+07,-156.76,11507,12724,1,12724,1,0.00058954,-1.2201e-09,0,0.00073424,7.9449e-05,2.0279e+08,-379.96,0,2.6598e+08,32.884,12723,702.88,0,702.88,0,0.0005634,3.3992e-09,0,0.0002877,0.00010551,2.0589e+08,1096.6,0,1.0073e+08,177.37,702.88,1
2344,3.54,12116,1,12116,1,8.0731e-05,-1.8887e-09,0,0.0004924,-1.4922e-05,1.2992e+07,-616.76,0,1.8043e+08,-56.83,12115,13336,1,13336,1,0.0010271,1.2124e-09,0,0.0010271,0.00016126,3.3011e+08,415.23,0,3.4967e+08,203.86,13335,12118,1,12118,1,8.3669e-05,-1.9231e-09,0,0.00049685,-1.5496e-05,3.1464e+07,-605.58,0,1.8107e+08,-17.032,12117,10867,1,10867,1,-0.0008597,-5.5676e-09,0,1.1097e-05,-0.00019212,-3.4967e+08,-1779.3,0,4.0583e+06,-582.43,10866,11508,1,11508,1,-0.00042428,-3.2447e-09,0,0.00022881,-0.00011059,-1.7257e+08,-1048.4,0,8.4275e+07,-127.22,11507,12724,1,12724,1,0.0005916,-5.5286e-10,0,0.00073673,7.9634e-05,2.0329e+08,-169.35,0,2.6653e+08,41.1,12723,702.88,0,702.88,0,0.00056509,1.6071e-09,0,0.00028859,0.00010582,2.0637e+08,528.1,0,1.0094e+08,145.14,702.88,1
2344,3.55,12116,1,12116,1,8.1269e-05,-2.0232e-09,0,0.00049389,-1.5021e-05,1.3026e+07,-656.04,0,1.8085e+08,-37.22,12115,13336,1,13336,1,0.0010304,2.4107e-09,0,0.0010304,0.00016168,3.3069e+08,825.54,0,3.5058e+08,184.18,13335,12118,1,12118,1,8.4217e-05,-1.9584e-09,0,0.00049801,-1.5597e-05,3.1654e+07,-605.45,0,1.8153e+08,-13.402,12117,10867,1,10867,1,-0.00086195,-5.7811e-09,0,1.143e-05,-0.00019274,-3.5058e+08,-1978.7,0,4.1847e+06,-445.14,10866,11508,1,11508,1,-0.00042523,-3.6356e-09,0,0.00022979,-0.00011096,-1.7295e+08,-1152.5,0,8.458e+07,-113.16,11507,12724,1,12724,1,0.00059364,-3.3298e-10,0,0.0007392,7.9813e-05,2.0377e+08,-100.98,0,2.6705e+08,45.022,12723,702.88,0,702.88,0,0.00056676,1.9529e-09,0,0.00028947,0.00010613,2.0684e+08,644.61,0,1.0115e+08,119.14,702.88,1
2344,3.56,12116,1,12116,1,8.1808e-05,-1.931e-09,0,0.00049537,-1.512e-05,1.3061e+07,-626.17,0,1.8127e+08,-39.843,12115,13336,1,13336,1,0.0010337,6.6854e-10,0,0.0010337,0.0001621,3.3125e+08,193.96,0,3.5149e+08,122.1,13335,12118,1,12118,1,8.4765e-05,-2.0129e-09,0,0.00049918,-1.5698e-05,3.1843e+07,-638.24,0,1.8198e+08,-3.5499,12117,10867,1,10867,1,-0.00086417,-4.1956e-09,0,1.177e-05,-0.00019336,-3.5149e+08,-1420.5,0,4.3131e+06,-367.1,10866,11508,1,11508,1,-0.00042618,-3.0455e-09,0,0.00023076,-0.00011135,-1.7334e+08,-986.09,0,8.4884e+07,-100,11507,12724,1,12724,1,0.0005957,-8.5944e-10,0,0.00074168,7.9993e-05,2.0425e+08,-264.46,0,2.6757e+08,44.357,12723,702.88,0,702.88,0,0.00056842,1.3056e-09,0,0.00029035,0.00010645,2.073e+08,433.27,0,1.0136e+08,113.79,702.88,1
2344,3.57,12116,1,12116,1,8.2349e-05,1.9781e-09,0,0.00049686,-1.5219e-05,1.3096e+07,622.89,0,1.8169e+08,-7.211,12115,13336,1,13336,1,0.001037,6.0063e-09,0,0.001037,0.00016252,3.3183e+08,1907.1,0,3.524e+08,154.69,13335,12118,1,12118,1,8.5316e-05,1.78e-09,0,0.00050034,-1.5799e-05,3.2034e+07,558.53,0,1.8244e+08,2.8419,12117,10867,1,10867,1,-0.0008664,-7.6281e-10,0,1.2106e-05,-0.00019397,-3.524e+08,-261.24,0,4.4408e+06,-502.61,10866,11508,1,11508,1,-0.00042713,5.7324e-10,0,0.00023173,-0.00011173,-1.7373e+08,183.99,0,8.5187e+07,-23.541,11507,12724,1,12724,1,0.00059777,3.2637e-09,0,0.00074418,8.0172e-05,2.0473e+08,1015.4,0,2.6809e+08,43.973,12723,702.88,0,702.88,0,0.00057009,1.6374e-09,0,0.00029124,0.00010676,2.0777e+08,519.43,0,1.0156e+08,94.437,702.88,1
2344,3.58,12116,1,12116,1,8.2889e-05,-8.432e-10,0,0.00049833,-1.5318e-05,1.313e+07,-264.46,0,1.821e+08,-21.001,12115,13336,1,13336,1,0.0010403,4.8406e-09,0,0.0010403,0.00016293,3.3237e+08,1573.8,0,3.5329e+08,175.29,13335,12118,1,12118,1,8.5864e-05,-7.8669e-10,0,0.00050149,-1.59e-05,3.2223e+07,-247.2,0,1.8289e+08,-22.985,12117,10867,1,10867,1,-0.0008686,-4.9561e-09,0,1.2445e-05,-0.00019459,-3.5329e+08,-1572.9,0,4.5692e+06,-403.1,10866,11508,1,11508,1,-0.00042806,-2.7313e-09,0,0.0002327,-0.00011211,-1.7411e+08,-854.3,0,8.549e+07,-61.465,11507,12724,1,12724,1,0.00059979,4.8899e-10,0,0.00074663,8.0348e-05,2.052e+08,138.34,0,2.686e+08,35.707,12723,702.88,0,702.88,0,0.00057174,2.3857e-09,0,0.00029211,0.00010707,2.0823e+08,764.65,0,1.0177e+08,86.716,702.88,1
2344,3.59,12116,1,12116,1,8.3431e-05,-8.6171e-10,0,0.00049981,-1.5418e-05,1.3164e+07,-275.12,0,1.8252e+08,-29.767,12115,13336,1,13336,1,0.0010437,3.5734e-09,0,0.0010437,0.00016335,3.3294e+08,1218.8,0,3.542e+08,94.842,13335,12118,1,12118,1,8.6414e-05,-6.2272e-10,0,0.00050265,-1.6002e-05,3.2414e+07,-199.36,0,1.8335e+08,-26.069,12117,10867,1,10867,1,-0.00087084,-4.5813e-09,0,1.2781e-05,-0.00019521,-3.542e+08,-1462.7,0,4.6966e+06,-420.73,10866,11508,1,11508,1,-0.00042901,-2.3392e-09,0,0.00023368,-0.00011249,-1.7449e+08,-748.44,0,8.5795e+07,-60.523,11507,12724,1,12724,1,0.00060184,2.9519e-10,0,0.00074911,8.0527e-05,2.0568e+08,92.76,0,2.6912e+08,18.041,12723,702.88,0,702.88,0,0.00057341,1.8791e-09,0,0.00029299,0.00010738,2.0869e+08,607.07,0,1.0197e+08,71.955,702.88,1
2344,3.6,12116,1,12116,1,8.3979e-05,-1.4303e-09,0,0.0005013,-1.5518e-05,1.3199e+07,-458.73,0,1.8294e+08,-46.488,12115,13336,1,13336,1,0.001047,3.1339e-09,0,0.001047,0.00016377,3.335e+08,1072.6,0,3.5512e+08,193.95,13335,12118,1,12118,1,8.6971e-05,-1.2761e-09,0,0.00050381,-1.6105e-05,3.2606e+07,-419.59,0,1.8381e+08,-35.89,12117,10867,1,10867,1,-0.00087309,-5.584e-09,0,1.3122e-05,-0.00019584,-3.5512e+08,-1798.5,0,4.8258e+06,-442.33,10866,11508,1,11508,1,-0.00042996,-2.9156e-09,0,0.00023467,-0.00011287,-1.7488e+08,-932.22,0,8.6103e+07,-87.199,11507,12724,1,12724,1,0.0006039,1.6802e-10,0,0.00075159,8.0705e-05,2.0616e+08,49.984,0,2.6963e+08,5.5058,12723,702.88,0,702.88,0,0.00057508,1.9307e-09,0,0.00029388,0.00010769,2.0916e+08,622.6,0,1.0218e+08,91.406,702.88,1
2344,3.61,12116,1,12116,1,8.4532e-05,-3.7442e-09,0,0.00050279,-1.562e-05,1.3234e+07,-1198,0,1.8335e+08,-22.644,12115,13336,1,13336,1,0.0010504,1.9637e-09,0,0.0010504,0.00016419,3.3406e+08,526.5,0,3.5603e+08,244.5,13335,12118,1,12118,1,8.7531e-05,-3.5429e-09,0,0.00050496,-1.6208e-05,3.2799e+07,-1126.8,0,1.8426e+08,6.1588,12117,10867,1,10867,1,-0.00087533,-9.3497e-09,0,1.3468e-05,-0.00019647,-3.5603e+08,-3003.7,0,4.9567e+06,-504.94,10866,11508,1,11508,1,-0.00043089,-6.4182e-09,0,0.00023567,-0.00011325,-1.7525e+08,-2051.8,0,8.6411e+07,-109.78,11507,12724,1,12724,1,0.00060594,-1.0969e-09,0,0.00075406,8.088e-05,2.0663e+08,-339.4,0,2.7014e+08,71.685,12723,702.88,0,702.88,0,0.00057675,3.0274e-09,0,0.00029476,0.000108,2.0962e+08,978.35,0,1.0238e+08,134.87,702.88,1
2344,3.62,12116,1,12116,1,8.5087e-05,8.0201e-10,0,0.00050429,-1.5722e-05,1.3269e+07,240.66,0,1.8377e+08,-15.06,12115,13336,1,13336,1,0.0010537,2.3877e-09,0,0.0010537,0.0001646,3.346e+08,696.81,0,3.5692e+08,141.67,13335,12118,1,12118,1,8.8096e-05,7.7229e-10,0,0.00050613,-1.6312e-05,3.2994e+07,236.02,0,1.8472e+08,-15.206,12117,10867,1,10867,1,-0.00087752,-3.2891e-10,0,1.3815e-05,-0.00019708,-3.5692e+08,-112.63,0,5.0879e+06,-275.59,10866,11508,1,11508,1,-0.00043185,1.5584e-10,0,0.00023666,-0.00011364,-1.7564e+08,49.837,0,8.6718e+07,-49.246,11507,12724,1,12724,1,0.00060804,1.3291e-09,0,0.00075659,8.106e-05,2.0712e+08,394.7,0,2.7066e+08,15.939,12723,702.88,0,702.88,0,0.00057843,7.2515e-10,0,0.00029565,0.00010831,2.1008e+08,215.26,0,1.0259e+08,61.908,702.88,1
2344,3.63,12116,1,12116,1,8.5644e-05,-2.0112e-09,0,0.00050576,-1.5824e-05,1.3303e+07,-641.85,0,1.8418e+08,-30.354,12115,13336,1,13336,1,0.0010571,2.3935e-09,0,0.0010571,0.00016502,3.3514e+08,797.13,0,3.5782e+08,180,13335,12118,1,12118,1,8.8662e-05,-2.0672e-09,0,0.00050726,-1.6416e-05,3.3189e+07,-643.27,0,1.8517e+08,-22.467,12117,10867,1,10867,1,-0.00087974,-5.8129e-09,0,1.4171e-05,-0.00019771,-3.5782e+08,-1856.4,0,5.2222e+06,-416.47,10866,11508,1,11508,1,-0.00043276,-3.514e-09,0,0.00023765,-0.00011402,-1.7602e+08,-1121.7,0,8.7024e+07,-68.528,11507,12724,1,12724,1,0.00061008,-4.7901e-10,0,0.00075906,8.1233e-05,2.0758e+08,-148.16,0,2.7115e+08,18.695,12723,702.88,0,702.88,0,0.00058008,1.8486e-09,0,0.00029653,0.00010862,2.1053e+08,593.75,0,1.0279e+08,82.581,702.88,1
2344,3.64,12116,1,12116,1,8.62e-05,-1.9928e-09,0,0.00050725,-1.5926e-05,1.3337e+07,-639.24,0,1.8459e+08,-51.123,12115,13336,1,13336,1,0.0010604,3.8815e-09,0,0.0010604,0.00016544,3.3569e+08,1283.3,0,3.5873e+08,207,13335,12118,1,12118,1,8.9227e-05,-1.9308e-09,0,0.0005084,-1.6521e-05,3.3383e+07,-618.2,0,1.8562e+08,-42.778,12117,10867,1,10867,1,-0.00088197,-7.0915e-09,0,1.4521e-05,-0.00019833,-3.5873e+08,-2277,0,5.3544e+06,-434.26,10866,11508,1,11508,1,-0.00043369,-3.9857e-09,0,0.00023864,-0.0001144,-1.7639e+08,-1274.7,0,8.7332e+07,-99.194,11507,12724,1,12724,1,0.00061214,1.3101e-10,0,0.00076154,8.1408e-05,2.0805e+08,43.848,0,2.7166e+08,0.89044,12723,702.88,0,702.88,0,0.00058175,2.5105e-09,0,0.00029741,0.00010893,2.1099e+08,806.55,0,1.0299e+08,93.238,702.88,1
2344,3.65,12116,1,12116,1,8.6764e-05,6.3346e-10,0,0.00050875,-1.603e-05,1.3372e+07,191.1,0,1.85e+08,-21.812,12115,13336,1,13336,1,0.0010638,2.0194e-09,0,0.0010638,0.00016585,3.3623e+08,599.12,0,3.5962e+08,122.49,13335,12118,1,12118,1,8.98e-05,6.1199e-10,0,0.00050956,-1.6626e-05,3.358e+07,188.61,0,1.8608e+08,-18.08,12117,10867,1,10867,1,-0.00088416,-5.0289e-10,0,1.4877e-05,-0.00019895,-3.5962e+08,-172.23,0,5.4889e+06,-298.27,10866,11508,1,11508,1,-0.00043464,1.186e-10,0,0.00023964,-0.00011479,-1.7678e+08,38.472,0,8.764e+07,-55.233,11507,12724,1,12724,1,0.00061424,1.0813e-09,0,0.00076408,8.1586e-05,2.0853e+08,327.52,0,2.7217e+08,21.094,12723,702.88,0,702.88,0,0.00058343,6.1647e-10,0,0.00029831,0.00010925,2.1145e+08,185.19,0,1.0319e+08,61.724,702.88,1
2344,3.66,12116,1,12116,1,8.733e-05,-1.3913e-09,0,0.00051023,-1.6133e-05,1.3406e+07,-443.61,0,1.8541e+08,-23.885,12115,13336,1,13336,1,0.0010671,3.4149e-09,0,0.0010671,0.00016627,3.3676e+08,1168.7,0,3.6052e+08,146.94,13335,12118,1,12118,1,9.0374e-05,-1.4823e-09,0,0.00051069,-1.6732e-05,3.3777e+07,-466.57,0,1.8652e+08,-22.06,12117,10867,1,10867,1,-0.00088638,-5.0701e-09,0,1.5239e-05,-0.00019958,-3.6052e+08,-1628.5,0,5.6255e+06,-361.55,10866,11508,1,11508,1,-0.00043555,-2.8973e-09,0,0.00024064,-0.00011517,-1.7715e+08,-916.03,0,8.7948e+07,-58.905,11507,12724,1,12724,1,0.00061629,2.6576e-11,0,0.00076656,8.1758e-05,2.0899e+08,7.8464,0,2.7266e+08,27.185,12723,702.88,0,702.88,0,0.00058509,1.877e-09,0,0.00029919,0.00010956,2.119e+08,603.99,0,1.0339e+08,73.139,702.88,1
2344,3.67,12116,1,12116,1,8.7898e-05,-2.0555e-09,0,0.00051172,-1.6238e-05,1.344e+07,-657.07,0,1.8582e+08,-39.98,12115,13336,1,13336,1,0.0010705,1.0708e-09,0,0.0010705,0.00016668,3.373e+08,284.57,0,3.6143e+08,176.8,13335,12118,1,12118,1,9.0951e-05,-2.1161e-09,0,0.00051183,-1.6839e-05,3.3975e+07,-682.37,0,1.8698e+08,-25.671,12117,10867,1,10867,1,-0.0008886,-5.0789e-09,0,1.5602e-05,-0.00020021,-3.6143e+08,-1639.8,0,5.7617e+06,-400.95,10866,11508,1,11508,1,-0.00043648,-3.3698e-09,0,0.00024165,-0.00011556,-1.7753e+08,-1071.2,0,8.8259e+07,-94.567,11507,12724,1,12724,1,0.00061837,-8.2156e-10,0,0.00076907,8.1932e-05,2.0946e+08,-246.3,0,2.7316e+08,30.94,12723,702.88,0,702.88,0,0.00058676,1.5388e-09,0,0.00030008,0.00010987,2.1236e+08,496.52,0,1.0359e+08,89.611,702.88,1
2344,3.68,12116,1,12116,1,8.8471e-05,5.7366e-10,0,0.00051322,-1.6343e-05,1.3475e+07,173.24,0,1.8623e+08,-12.786,12115,13336,1,13336,1,0.0010739,2.7855e-09,0,0.0010739,0.00016709,3.3783e+08,868.42,0,3.6232e+08,113.95,13335,12118,1,12118,1,9.1533e-05,4.1483e-10,0,0.00051297,-1.6946e-05,3.4175e+07,120.03,0,1.8743e+08,-8.671,12117,10867,1,10867,1,-0.00089079,-1.3693e-09,0,1.5968e-05,-0.00020083,-3.6232e+08,-443.4,0,5.8994e+06,-323.37,10866,11508,1,11508,1,-0.00043741,-2.5292e-10,0,0.00024266,-0.00011595,-1.779e+08,-83.315,0,8.8568e+07,-40.617,11507,12724,1,12724,1,0.00062047,1.4753e-09,0,0.0007716,8.2107e-05,2.0994e+08,451.52,0,2.7366e+08,28.626,12723,702.88,0,702.88,0,0.00058844,1.0951e-09,0,0.00030097,0.00011018,2.1281e+08,345.96,0,1.0379e+08,62.588,702.88,1
2344,3.69,12116,1,12116,1,8.9049e-05,-2.4135e-09,0,0.00051472,-1.6449e-05,1.3509e+07,-767.35,0,1.8664e+08,-46.531,12115,13336,1,13336,1,0.0010773,9.2941e-10,0,0.0010773,0.00016751,3.3836e+08,246.05,0,3.6323e+08,136.36,13335,12118,1,12118,1,9.2119e-05,-2.3639e-09,0,0.00051411,-1.7054e-05,3.4375e+07,-738.23,0,1.8788e+08,-30.295,12117,10867,1,10867,1,-0.00089303,-5.6976e-09,0,1.634e-05,-0.00020147,-3.6323e+08,-1811.8,0,6.0393e+06,-377.39,10866,11508,1,11508,1,-0.00043832,-3.9945e-09,0,0.00024368,-0.00011634,-1.7828e+08,-1270.5,0,8.8881e+07,-92.198,11507,12724,1,12724,1,0.00062256,-8.2367e-10,0,0.00077411,8.228e-05,2.104e+08,-257.11,0,2.7415e+08,5.5444,12723,702.88,0,702.88,0,0.00059012,1.797e-09,0,0.00030187,0.0001105,2.1326e+08,575.94,0,1.0399e+08,74.384,702.88,1
2344,3.7,12116,1,12116,1,8.9626e-05,2.8369e-09,0,0.0005162,-1.6555e-05,1.3543e+07,892.13,0,1.8704e+08,27.264,12115,13336,1,13336,1,0.0010806,1.1494e-08,0,0.0010806,0.00016793,3.3888e+08,3625.4,0,3.6412e+08,473.57,13335,12118,1,12118,1,9.2705e-05,2.1491e-09,0,0.00051522,-1.7162e-05,3.4576e+07,671.45,0,1.8832e+08,36.058,12117,10867,1,10867,1,-0.00089522,-2.2084e-09,0,1.6712e-05,-0.00020209,-3.6412e+08,-756.07,0,6.1791e+06,-654.34,10866,11508,1,11508,1,-0.00043922,7.9175e-11,0,0.00024469,-0.00011672,-1.7864e+08,24.018,0,8.9188e+07,-25.657,11507,12724,1,12724,1,0.00062464,5.2361e-09,0,0.00077662,8.245e-05,2.1086e+08,1651.9,0,2.7463e+08,103.17,12723,702.88,0,702.88,0,0.00059177,3.2144e-09,0,0.00030275,0.0001108,2.1371e+08,1019.1,0,1.0419e+08,158.72,702.88,1
2344,3.71,12116,1,12116,1,9.0204e-05,3.4427e-10,0,0.00051769,-1.6661e-05,1.3578e+07,116.25,0,1.8745e+08,-20.947,12115,13336,1,13336,1,0.001084,2.9562e-09,0,0.001084,0.00016833,3.3939e+08,1012.1,0,3.65e+08,77.082,13335,12118,1,12118,1,9.3292e-05,1.2512e-10,0,0.00051635,-1.727e-05,3.4776e+07,38.514,0,1.8877e+08,-15.869,12117,10867,1,10867,1,-0.00089739,-9.7645e-10,0,1.7085e-05,-0.00020271,-3.65e+08,-325.35,0,6.3191e+06,-336.45,10866,11508,1,11508,1,-0.00044015,-1.531e-10,0,0.0002457,-0.00011711,-1.7902e+08,-44.044,0,8.9499e+07,-37.001,11507,12724,1,12724,1,0.00062673,7.2782e-10,0,0.00077914,8.2624e-05,2.1133e+08,239.76,0,2.7512e+08,2.6724,12723,702.88,0,702.88,0,0.00059344,7.6135e-10,0,0.00030364,0.00011112,2.1416e+08,251.68,0,1.0439e+08,46.191,702.88,1
2344,3.72,12116,1,12116,1,9.079e-05,4.345e-10,0,0.0005192,-1.6769e-05,1.3612e+07,139.72,0,1.8786e+08,-27.384,12115,13336,1,13336,1,0.0010874,1.2018e-09,0,0.0010874,0.00016875,3.3991e+08,380.93,0,3.659e+08,59.247,13335,12118,1,12118,1,9.3887e-05,4.524e-10,0,0.00051749,-1.738e-05,3.498e+07,144.79,0,1.8922e+08,-20.784,12117,10867,1,10867,1,-0.00089961,-5.2237e-10,0,1.7465e-05,-0.00020335,-3.659e+08,-150.89,0,6.4613e+06,-340.39,10866,11508,1,11508,1,-0.00044107,1.5391e-10,0,0.00024673,-0.00011751,-1.7939e+08,45.869,0,8.9812e+07,-45.063,11507,12724,1,12724,1,0.00062884,7.1285e-10,0,0.00078168,8.2797e-05,2.118e+08,226.7,0,2.7562e+08,3.4326,12723,702.88,0,702.88,0,0.00059513,3.7091e-10,0,0.00030454,0.00011143,2.1461e+08,118.36,0,1.0459e+08,51.353,702.88,1
2344,3.73,12116,1,12116,1,9.1377e-05,1.8113e-09,0,0.00052067,-1.6876e-05,1.3646e+07,578.02,0,1.8825e+08,11.006,12115,13336,1,13336,1,0.0010908,1.2467e-08,0,0.0010908,0.00016916,3.4042e+08,3944,0,3.6679e+08,562.87,13335,12118,1,12118,1,9.4481e-05,6.4296e-10,0,0.00051858,-1.7489e-05,3.5182e+07,203.69,0,1.8966e+08,15.39,12117,10867,1,10867,1,-0.0009018,-4.3548e-09,0,1.7848e-05,-0.00020398,-3.6679e+08,-1384.3,0,6.6047e+06,-716.4,10866,11508,1,11508,1,-0.00044195,-8.6995e-10,0,0.00024775,-0.00011789,-1.7975e+08,-260.06,0,9.0122e+07,-69.601,11507,12724,1,12724,1,0.00063091,4.2718e-09,0,0.00078417,8.2963e-05,2.1225e+08,1350.1,0,2.7608e+08,91.913,12723,702.88,0,702.88,0,0.00059677,3.7515e-09,0,0.00030542,0.00011174,2.1505e+08,1193.7,0,1.0478e+08,183.57,702.88,1
2344,3.74,12116,1,12116,1,9.1964e-05,-2.266e-09,0,0.00052217,-1.6984e-05,1.368e+07,-707.28,0,1.8866e+08,-24.359,12115,13336,1,13336,1,0.0010942,5.6334e-10,0,0.0010942,0.00016957,3.4093e+08,156.14,0,3.6769e+08,104.06,13335,12118,1,12118,1,9.5078e-05,-2.1104e-09,0,0.00051972,-1.7599e-05,3.5386e+07,-639.2,0,1.9011e+08,-14.511,12117,10867,1,10867,1,-0.000904,-5.8359e-09,0,1.8227e-05,-0.00020461,-3.6769e+08,-1839.5,0,6.7463e+06,-406.25,10866,11508,1,11508,1,-0.00044287,-3.6015e-09,0,0.00024878,-0.00011828,-1.8012e+08,-1126.4,0,9.0434e+07,-55.03,11507,12724,1,12724,1,0.00063302,-8.8612e-10,0,0.00078672,8.3136e-05,2.1272e+08,-272.61,0,2.7657e+08,21.785,12723,702.88,0,702.88,0,0.00059846,1.6435e-09,0,0.00030632,0.00011205,2.155e+08,521.57,0,1.0498e+08,66.734,702.88,1
2344,3.75,12116,1,12116,1,9.2559e-05,1.7308e-09,0,0.00052367,-1.7093e-05,1.3714e+07,544.17,0,1.8906e+08,4.6473,12115,13336,1,13336,1,0.0010976,7.2406e-09,0,0.0010976,0.00016999,3.4144e+08,2289.8,0,3.6858e+08,224.44,13335,12118,1,12118,1,9.5682e-05,9.5302e-10,0,0.00052084,-1.7711e-05,3.5591e+07,294.58,0,1.9055e+08,2.725,12117,10867,1,10867,1,-0.00090619,-1.1023e-09,0,1.8616e-05,-0.00020524,-3.6858e+08,-362.82,0,6.8917e+06,-337.28,10866,11508,1,11508,1,-0.00044377,-8.3459e-11,0,0.00024982,-0.00011868,-1.8049e+08,-25.383,0,9.0748e+07,-47.134,11507,12724,1,12724,1,0.00063513,3.5297e-09,0,0.00078926,8.3306e-05,2.1318e+08,1104.1,0,2.7705e+08,64.898,12723,702.88,0,702.88,0,0.00060014,2.2408e-09,0,0.00030722,0.00011237,2.1594e+08,717.61,0,1.0517e+08,88.898,702.88,1
2344,3.76,12116,1,12116,1,9.3159e-05,9.0722e-10,0,0.00052518,-1.7203e-05,1.3749e+07,290.79,0,1.8946e+08,-18.103,12115,13336,1,13336,1,0.001101,3.7948e-09,0,0.001101,0.0001704,3.4194e+08,1224.1,0,3.6947e+08,117.62,13335,12118,1,12118,1,9.6291e-05,5.8125e-10,0,0.00052196,-1.7823e-05,3.5798e+07,178.53,0,1.91e+08,-11.546,12117,10867,1,10867,1,-0.00090839,-5.9537e-10,0,1.9009e-05,-0.00020588,-3.6947e+08,-177.7,0,7.0382e+06,-283.42,10866,11508,1,11508,1,-0.00044468,1.6456e-10,0,0.00025086,-0.00011907,-1.8086e+08,46.991,0,9.1064e+07,-39.669,11507,12724,1,12724,1,0.00063726,1.5175e-09,0,0.00079182,8.3478e-05,2.1364e+08,482.86,0,2.7754e+08,11.175,12723,702.88,0,702.88,0,0.00060182,9.8966e-10,0,0.00030813,0.00011268,2.1639e+08,324.14,0,1.0537e+08,51.688,702.88,1
2344,3.77,12116,1,12116,1,9.3757e-05,-3.191e-09,0,0.00052665,-1.7313e-05,1.3782e+07,-1002.7,0,1.8985e+08,-15.138,12115,13336,1,13336,1,0.0011044,3.4248e-09,0,0.0011044,0.00017081,3.4244e+08,1136.5,0,3.7036e+08,361.56,13335,12118,1,12118,1,9.6897e-05,-3.1326e-09,0,0.00052304,-1.7935e-05,3.6004e+07,-963.94,0,1.9144e+08,-12.019,12117,10867,1,10867,1,-0.00091056,-9.4966e-09,0,1.9403e-05,-0.00020651,-3.7036e+08,-2984,0,7.1851e+06,-431.64,10866,11508,1,11508,1,-0.00044554,-5.8476e-09,0,0.00025189,-0.00011946,-1.8121e+08,-1825,0,9.1375e+07,-90.564,11507,12724,1,12724,1,0.00063934,-2.8012e-10,0,0.00079432,8.3641e-05,2.1408e+08,-87.209,0,2.7799e+08,49.207,12723,702.88,0,702.88,0,0.00060347,3.1773e-09,0,0.00030901,0.00011299,2.1682e+08,1005.2,0,1.0556e+08,119.3,702.88,1
2344,3.78,12116,1,12116,1,9.4359e-05,6.0266e-10,0,0.00052817,-1.7424e-05,1.3817e+07,179.28,0,1.9026e+08,-25.866,12115,13336,1,13336,1,0.0011078,2.4608e-09,0,0.0011078,0.00017122,3.4294e+08,832.2,0,3.7125e+08,108.08,13335,12118,1,12118,1,9.7507e-05,6.4071e-10,0,0.00052418,-1.8048e-05,3.6211e+07,178.95,0,1.9189e+08,-13.04,12117,10867,1,10867,1,-0.00091274,-7.6436e-10,0,1.9794e-05,-0.00020714,-3.7125e+08,-261.72,0,7.3308e+06,-334.27,10866,11508,1,11508,1,-0.00044647,-1.0818e-10,0,0.00025293,-0.00011985,-1.8159e+08,-34.84,0,9.1692e+07,-60.813,11507,12724,1,12724,1,0.00064148,1.1248e-09,0,0.0007969,8.3815e-05,2.1456e+08,326.11,0,2.7848e+08,18.68,12723,702.88,0,702.88,0,0.00060517,7.9049e-10,0,0.00030992,0.00011331,2.1727e+08,252.08,0,1.0575e+08,63.93,702.88,1
2344,3.79,12116,1,12116,1,9.4969e-05,1.356e-09,0,0.00052967,-1.7535e-05,1.3851e+07,426.2,0,1.9066e+08,-3.4374,12115,13336,1,13336,1,0.0011112,4.4185e-09,0,0.0011112,0.00017163,3.4342e+08,1403.7,0,3.7214e+08,137.59,13335,12118,1,12118,1,9.8127e-05,1.1235e-09,0,0.00052528,-1.8162e-05,3.6421e+07,345.7,0,1.9233e+08,7.453,12117,10867,1,10867,1,-0.00091494,-5.042e-10,0,2.02e-05,-0.00020778,-3.7214e+08,-172.67,0,7.4817e+06,-358.7,10866,11508,1,11508,1,-0.00044735,3.0619e-10,0,0.00025398,-0.00012025,-1.8195e+08,94.408,0,9.2007e+07,-35.966,11507,12724,1,12724,1,0.00064361,2.2986e-09,0,0.00079946,8.3982e-05,2.1501e+08,721.13,0,2.7894e+08,40.801,12723,702.88,0,702.88,0,0.00060684,1.2155e-09,0,0.00031082,0.00011362,2.1771e+08,389.14,0,1.0594e+08,70.707,702.88,1
2344,3.8,12116,1,12116,1,9.5579e-05,2.5014e-09,0,0.00053116,-1.7647e-05,1.3885e+07,795.08,0,1.9105e+08,-4.8664,12115,13336,1,13336,1,0.0011146,7.8592e-09,0,0.0011146,0.00017204,3.4391e+08,2496.9,0,3.7303e+08,223.77,13335,12118,1,12118,1,9.8745e-05,2.0814e-09,0,0.00052637,-1.8276e-05,3.663e+07,646.76,0,1.9277e+08,-1.4344,12117,10867,1,10867,1,-0.00091712,-1.75e-09,0,2.0604e-05,-0.00020841,-3.7303e+08,-554.9,0,7.6321e+06,-331.88,10866,11508,1,11508,1,-0.00044823,1.7056e-10,0,0.00025503,-0.00012064,-1.8231e+08,51.813,0,9.2323e+07,-59.959,11507,12724,1,12724,1,0.00064572,4.7012e-09,0,0.00080199,8.4147e-05,2.1546e+08,1492.3,0,2.794e+08,58.004,12723,702.88,0,702.88,0,0.00060851,2.5584e-09,0,0.00031172,0.00011393,2.1814e+08,819.38,0,1.0613e+08,87.561,702.88,1
2344,3.81,12116,1,12116,1,9.6188e-05,-1.8392e-09,0,0.00053266,-1.7759e-05,1.3919e+07,-567.43,0,1.9144e+08,-0.51537,12115,13336,1,13336,1,0.001118,3.5272e-09,0,0.001118,0.00017244,3.444e+08,1207.5,0,3.739e+08,243.94,13335,12118,1,12118,1,9.9363e-05,-1.5604e-09,0,0.00052747,-1.8389e-05,3.6839e+07,-474.21,0,1.932e+08,-0.21901,12117,10867,1,10867,1,-0.00091928,-7.2272e-09,0,2.1007e-05,-0.00020904,-3.739e+08,-2266.1,0,7.7813e+06,-452.59,10866,11508,1,11508,1,-0.00044911,-3.5675e-09,0,0.00025607,-0.00012104,-1.8267e+08,-1111.9,0,9.2636e+07,-52.849,11507,12724,1,12724,1,0.00064784,1.94e-11,0,0.00080455,8.4313e-05,2.1591e+08,4.6193,0,2.7987e+08,54.738,12723,702.88,0,702.88,0,0.00061018,2.356e-09,0,0.00031262,0.00011424,2.1858e+08,741.15,0,1.0632e+08,92.332,702.88,1
2344,3.82,12116,1,12116,1,9.6804e-05,-1.0992e-12,0,0.00053417,-1.7872e-05,1.3953e+07,-4.4979,0,1.9184e+08,-23.087,12115,13336,1,13336,1,0.0011214,4.3867e-09,0,0.0011214,0.00017285,3.4487e+08,1445.9,0,3.7479e+08,138.95,13335,12118,1,12118,1,9.9988e-05,-1.0526e-10,0,0.00052858,-1.8505e-05,3.7051e+07,-30.585,0,1.9365e+08,-8.4153,12117,10867,1,10867,1,-0.00092145,-2.5426e-09,0,2.1416e-05,-0.00020968,-3.7479e+08,-818.58,0,7.9331e+06,-312.4,10866,11508,1,11508,1,-0.00045001,-1.1439e-09,0,0.00025713,-0.00012143,-1.8303e+08,-362.91,0,9.2953e+07,-62.261,11507,12724,1,12724,1,0.00064998,6.7438e-10,0,0.00080712,8.4482e-05,2.1637e+08,213.69,0,2.8034e+08,20.648,12723,702.88,0,702.88,0,0.00061186,1.4827e-09,0,0.00031352,0.00011455,2.1902e+08,478.74,0,1.0652e+08,61.406,702.88,1
2344,3.83,12116,1,12116,1,9.7426e-05,-1.6054e-09,0,0.00053567,-1.7986e-05,1.3987e+07,-507.09,0,1.9223e+08,-28.408,12115,13336,1,13336,1,0.0011249,3.8495e-09,0,0.0011249,0.00017326,3.4536e+08,1299.2,0,3.7568e+08,170.3,13335,12118,1,12118,1,0.00010062,-1.4388e-09,0,0.00052968,-1.8621e-05,3.7263e+07,-432.98,0,1.9409e+08,-16.468,12117,10867,1,10867,1,-0.00092365,-7.1595e-09,0,2.1831e-05,-0.00021033,-3.7568e+08,-2273.6,0,8.0864e+06,-386.62,10866,11508,1,11508,1,-0.00045089,-3.5952e-09,0,0.0002582,-0.00012183,-1.8339e+08,-1133.5,0,9.3272e+07,-93.155,11507,12724,1,12724,1,0.00065212,2.0905e-10,0,0.00080969,8.4647e-05,2.1682e+08,58.798,0,2.808e+08,35.642,12723,702.88,0,702.88,0,0.00061355,2.566e-09,0,0.00031443,0.00011487,2.1945e+08,818.77,0,1.0671e+08,90.884,702.88,1
2344,3.84,12116,1,12116,1,9.805e-05,1.1494e-09,0,0.00053719,-1.8101e-05,1.4021e+07,354.6,0,1.9263e+08,5.8968,12115,13336,1,13336,1,0.0011283,5.4529e-09,0,0.0011283,0.00017367,3.4583e+08,1725.3,0,3.7656e+08,194.57,13335,12118,1,12118,1,0.00010125,6.7475e-10,0,0.00053078,-1.8738e-05,3.7477e+07,201.43,0,1.9453e+08,13.339,12117,10867,1,10867,1,-0.00092582,-1.2817e-09,0,2.2246e-05,-0.00021096,-3.7656e+08,-438.78,0,8.2401e+06,-327.92,10866,11508,1,11508,1,-0.00045177,-1.7072e-10,0,0.00025926,-0.00012223,-1.8375e+08,-52.562,0,9.359e+07,-33.468,11507,12724,1,12724,1,0.00065428,2.3709e-09,0,0.00081228,8.4815e-05,2.1727e+08,736.06,0,2.8126e+08,51.215,12723,702.88,0,702.88,0,0.00061523,1.6453e-09,0,0.00031534,0.00011518,2.1989e+08,526.14,0,1.069e+08,75.773,702.88,1
2344,3.85,12116,1,12116,1,9.8674e-05,-4.8097e-10,0,0.00053866,-1.8215e-05,1.4054e+07,-148.64,0,1.9301e+08,11.553,12115,13336,1,13336,1,0.0011317,8.1075e-09,0,0.0011317,0.00017407,3.4629e+08,2606.8,0,3.7743e+08,263.57,13335,12118,1,12118,1,0.00010188,-3.8538e-10,0,0.00053184,-1.8854e-05,3.769e+07,-110.65,0,1.9495e+08,13.096,12117,10867,1,10867,1,-0.00092794,-6.4025e-09,0,2.2668e-05,-0.00021159,-3.7743e+08,-2002.9,0,8.3958e+06,-305.39,10866,11508,1,11508,1,-0.00045262,-3.1317e-09,0,0.00026032,-0.00012262,-1.8409e+08,-989.27,0,9.3904e+07,-57.358,11507,12724,1,12724,1,0.00065639,1.5856e-09,0,0.00081482,8.4975e-05,2.1771e+08,477.59,0,2.817e+08,76.807,12723,702.88,0,702.88,0,0.00061688,3.4647e-09,0,0.00031623,0.00011549,2.2031e+08,1100.6,0,1.0708e+08,95.583,702.88,1
2344,3.86,12116,1,12116,1,9.9301e-05,4.1408e-09,0,0.00054018,-1.8331e-05,1.4089e+07,1301.2,0,1.934e+08,-42.266,12115,13336,1,13336,1,0.0011352,1.1507e-08,0,0.0011352,0.00017449,3.4678e+08,3647.9,0,3.7833e+08,323.92,13335,12118,1,12118,1,0.00010252,4.038e-09,0,0.00053293,-1.8972e-05,3.7904e+07,1258.8,0,1.9539e+08,-44.979,12117,10867,1,10867,1,-0.00093016,-3.3928e-09,0,2.3087e-05,-0.00021224,-3.7833e+08,-1161.5,0,8.5503e+06,-528.25,10866,11508,1,11508,1,-0.00045349,8.2034e-10,0,0.00026139,-0.00012302,-1.8445e+08,247.69,0,9.4225e+07,-129.71,11507,12724,1,12724,1,0.00065853,7.2733e-09,0,0.00081739,8.5139e-05,2.1815e+08,2293.9,0,2.8215e+08,52.578,12723,702.88,0,702.88,0,0.00061857,3.7178e-09,0,0.00031714,0.00011581,2.2075e+08,1187.6,0,1.0727e+08,141.71,702.88,1
2344,3.87,12116,1,12116,1,9.9939e-05,-4.7514e-10,0,0.00054171,-1.8448e-05,1.4123e+07,-133.65,0,1.938e+08,-34.703,12115,13336,1,13336,1,0.0011387,2.0478e-09,0,0.0011387,0.00017489,3.4724e+08,701.14,0,3.7921e+08,86.095,13335,12118,1,12118,1,0.00010317,-4.882e-10,0,0.00053405,-1.9091e-05,3.8121e+07,-151.06,0,1.9584e+08,-24.638,12117,10867,1,10867,1,-0.00093231,-2.3182e-09,0,2.3513e-05,-0.00021288,-3.7921e+08,-660.81,0,8.7071e+06,-412.45,10866,11508,1,11508,1,-0.00045439,-1.2309e-09,0,0.00026247,-0.00012343,-1.8481e+08,-374.09,0,9.4547e+07,-60.275,11507,12724,1,12724,1,0.00066073,2.4328e-10,0,0.00082003,8.5308e-05,2.1862e+08,73.02,0,2.8262e+08,4.0271,12723,702.88,0,702.88,0,0.00062028,9.9505e-10,0,0.00031807,0.00011613,2.2119e+08,307.39,0,1.0746e+08,63.396,702.88,1
2344,3.88,12116,1,12116,1,0.00010058,-1.2647e-09,0,0.00054321,-1.8565e-05,1.4156e+07,-394.16,0,1.9418e+08,-0.59477,12115,13336,1,13336,1,0.0011421,3.207e-09,0,0.0011421,0.0001753,3.4769e+08,1097.9,0,3.8009e+08,258.95,13335,12118,1,12118,1,0.00010381,-1.165e-09,0,0.00053512,-1.921e-05,3.8339e+07,-345.7,0,1.9627e+08,-2.5366,12117,10867,1,10867,1,-0.00093448,-5.4131e-09,0,2.3941e-05,-0.00021353,-3.8009e+08,-1697.6,0,8.8658e+06,-348.01,10866,11508,1,11508,1,-0.00045525,-2.7523e-09,0,0.00026355,-0.00012382,-1.8516e+08,-868.8,0,9.4866e+07,-53.853,11507,12724,1,12724,1,0.00066287,1.4531e-10,0,0.0008226,8.5469e-05,2.1906e+08,40.286,0,2.8306e+08,46.709,12723,702.88,0,702.88,0,0.00062195,1.9073e-09,0,0.00031897,0.00011644,2.2161e+08,605.72,0,1.0765e+08,98.924,702.88,1
2344,3.89,12116,1,12116,1,0.00010122,1.6921e-09,0,0.00054471,-1.8682e-05,1.419e+07,524.98,0,1.9457e+08,12.812,12115,13336,1,13336,1,0.0011455,7.6202e-09,0,0.0011455,0.0001757,3.4814e+08,2438.8,0,3.8096e+08,278.67,13335,12118,1,12118,1,0.00010446,1.1104e-09,0,0.00053619,-1.9329e-05,3.8556e+07,338.92,0,1.967e+08,10.801,12117,10867,1,10867,1,-0.00093662,-1.9995e-09,0,2.4377e-05,-0.00021417,-3.8096e+08,-663.04,0,9.0251e+06,-280.08,10866,11508,1,11508,1,-0.00045611,-1.245e-10,0,0.00026463,-0.00012423,-1.8551e+08,-35.738,0,9.5184e+07,-44.083,11507,12724,1,12724,1,0.00066503,3.4067e-09,0,0.00082519,8.5632e-05,2.195e+08,1045.6,0,2.835e+08,63.338,12723,702.88,0,702.88,0,0.00062363,2.2996e-09,0,0.00031988,0.00011675,2.2204e+08,733.01,0,1.0783e+08,85.449,702.88,1
2344,3.9,12116,1,12116,1,0.00010186,-1.925e-09,0,0.00054623,-1.88e-05,1.4224e+07,-600.79,0,1.9496e+08,-10.554,12115,13336,1,13336,1,0.001149,2.3445e-09,0,0.001149,0.00017611,3.4861e+08,802.61,0,3.8184e+08,283.47,13335,12118,1,12118,1,0.00010512,-1.7235e-09,0,0.00053727,-1.945e-05,3.8775e+07,-526.39,0,1.9714e+08,-9.2897,12117,10867,1,10867,1,-0.0009388,-6.7962e-09,0,2.4816e-05,-0.00021482,-3.8184e+08,-2141.1,0,9.1859e+06,-347.35,10866,11508,1,11508,1,-0.00045697,-3.6921e-09,0,0.00026572,-0.00012463,-1.8586e+08,-1155.8,0,9.5507e+07,-81.157,11507,12724,1,12724,1,0.0006672,-5.7777e-11,0,0.00082779,8.5794e-05,2.1994e+08,-16.111,0,2.8395e+08,53.762,12723,702.88,0,702.88,0,0.00062532,2.2245e-09,0,0.0003208,0.00011707,2.2247e+08,706.13,0,1.0802e+08,103.2,702.88,1
2344,3.91,12116,1,12116,1,0.00010251,1.1903e-10,0,0.00054774,-1.8919e-05,1.4258e+07,30.083,0,1.9534e+08,-5.6753,12115,13336,1,13336,1,0.0011525,4.9004e-09,0,0.0011525,0.00017651,3.4905e+08,1556,0,3.8272e+08,170.65,13335,12118,1,12118,1,0.00010577,5.5261e-11,0,0.00053835,-1.9571e-05,3.8995e+07,18.395,0,1.9757e+08,4.2528,12117,10867,1,10867,1,-0.00094095,-3.6003e-09,0,2.5256e-05,-0.00021546,-3.8272e+08,-1155.6,0,9.3472e+06,-342.12,10866,11508,1,11508,1,-0.00045783,-1.1818e-09,0,0.00026681,-0.00012503,-1.8621e+08,-375.27,0,9.5829e+07,-61.209,11507,12724,1,12724,1,0.00066938,1.085e-09,0,0.00083041,8.5958e-05,2.2039e+08,329.36,0,2.8446e+08,52.82,12723,702.88,0,702.88,0,0.00062701,1.9017e-09,0,0.00032171,0.00011738,2.2289e+08,607.82,0,1.082e+08,85.871,702.88,1
2344,3.92,12116,1,12116,1,0.00010316,2.7137e-09,0,0.00054923,-1.9038e-05,1.4291e+07,848.33,0,1.9572e+08,-12.411,12115,13336,1,13336,1,0.0011559,1.1728e-08,0,0.0011559,0.00017691,3.4949e+08,3710,0,3.8358e+08,287.79,13335,12118,1,12118,1,0.00010643,1.7881e-09,0,0.00053939,-1.9692e-05,3.9215e+07,543.02,0,1.98e+08,-4.1556,12117,10867,1,10867,1,-0.00094308,-3.5759e-09,0,2.57e-05,-0.0002161,-3.8358e+08,-1129.3,0,9.5098e+06,-343.94,10866,11508,1,11508,1,-0.00045866,-8.5053e-12,0,0.00026789,-0.00012543,-1.8655e+08,-2.0482,0,9.6146e+07,-67.028,11507,12724,1,12724,1,0.00067152,5.342e-09,0,0.00083298,8.6114e-05,2.2082e+08,1660.7,0,2.8506e+08,50.871,12723,702.88,0,702.88,0,0.00062866,3.5061e-09,0,0.00032262,0.00011769,2.233e+08,1113.4,0,1.0838e+08,88.105,702.88,1
2344,3.93,12116,1,12116,1,0.00010381,4.3019e-10,0,0.00055076,-1.9158e-05,1.4325e+07,143.66,0,1.9611e+08,-33.136,12115,13336,1,13336,1,0.0011594,3.6547e-09,0,0.0011594,0.00017732,3.4994e+08,1240.9,0,3.8446e+08,131.42,13335,12118,1,12118,1,0.00010709,7.5801e-11,0,0.00054049,-1.9814e-05,3.9436e+07,20.66,0,1.9844e+08,-20.644,12117,10867,1,10867,1,-0.00094524,-1.5639e-09,0,2.6142e-05,-0.00021675,-3.8446e+08,-494.33,0,9.6714e+06,-342.43,10866,11508,1,11508,1,-0.00045954,-5.3476e-10,0,0.00026899,-0.00012584,-1.8691e+08,-159.53,0,9.6471e+07,-61.464,11507,12724,1,12724,1,0.00067372,1.3329e-09,0,0.00083562,8.6279e-05,2.2127e+08,428.27,0,2.8568e+08,4.9302,12723,702.88,0,702.88,0,0.00063037,1.3186e-09,0,0.00032354,0.00011801,2.2374e+08,430.37,0,1.0857e+08,61.521,702.88,1
2344,3.94,12116,1,12116,1,0.00010447,-2.7491e-09,0,0.00055226,-1.9279e-05,1.4359e+07,-854.59,0,1.9649e+08,10.727,12115,13336,1,13336,1,0.0011629,6.0818e-09,0,0.0011629,0.00017772,3.5038e+08,1980.3,0,3.8534e+08,416.49,13335,12118,1,12118,1,0.00010776,-2.4556e-09,0,0.00054153,-1.9937e-05,3.9658e+07,-772.26,0,1.9886e+08,7.5439,12117,10867,1,10867,1,-0.0009474,-1.1322e-08,0,2.6595e-05,-0.0002174,-3.8534e+08,-3538.7,0,9.8368e+06,-479.57,10866,11508,1,11508,1,-0.00046036,-6.1483e-09,0,0.00027009,-0.00012624,-1.8724e+08,-1904.7,0,9.6793e+07,-89.303,11507,12724,1,12724,1,0.00067588,3.2162e-10,0,0.0008382,8.6435e-05,2.2169e+08,99.572,0,2.8628e+08,104.83,12723,702.88,0,702.88,0,0.00063204,4.1153e-09,0,0.00032445,0.00011832,2.2415e+08,1294.8,0,1.0875e+08,149.31,702.88,1
2344,3.95,12116,1,12116,1,0.00010513,-9.432e-10,0,0.00055379,-1.94e-05,1.4393e+07,-306.07,0,1.9687e+08,-16.768,12115,13336,1,13336,1,0.0011664,3.6383e-09,0,0.0011664,0.00017813,3.5081e+08,1231.8,0,3.8621e+08,140.76,13335,12118,1,12118,1,0.00010842,-6.8292e-10,0,0.00054261,-2.006e-05,3.9881e+07,-210.53,0,1.9929e+08,1.8182,12117,10867,1,10867,1,-0.00094954,-5.1198e-09,0,2.7044e-05,-0.00021804,-3.8621e+08,-1658.1,0,1e+07,-319.04,10866,11508,1,11508,1,-0.00046123,-2.6886e-09,0,0.00027119,-0.00012665,-1.8759e+08,-852.4,0,9.7117e+07,-75.075,11507,12724,1,12724,1,0.00067807,4.1699e-10,0,0.00084083,8.6598e-05,2.2214e+08,115.37,0,2.8689e+08,45.237,12723,702.88,0,702.88,0,0.00063374,2.116e-09,0,0.00032538,0.00011864,2.2458e+08,683.86,0,1.0894e+08,83.271,702.88,1
2344,3.96,12116,1,12116,1,0.0001058,-1.293e-09,0,0.00055531,-1.9523e-05,1.4427e+07,-414.23,0,1.9725e+08,-42.115,12115,13336,1,13336,1,0.0011699,1.0343e-09,0,0.0011699,0.00017853,3.5124e+08,354.18,0,3.8709e+08,144.75,13335,12118,1,12118,1,0.0001091,-1.3084e-09,0,0.00054368,-2.0185e-05,4.0107e+07,-406.8,0,1.9973e+08,-29.362,12117,10867,1,10867,1,-0.00095169,-3.5534e-09,0,2.7505e-05,-0.0002187,-3.8709e+08,-1145.5,0,1.0168e+07,-333.11,10866,11508,1,11508,1,-0.00046208,-2.1732e-09,0,0.00027231,-0.00012706,-1.8794e+08,-697.21,0,9.7443e+07,-89.025,11507,12724,1,12724,1,0.00068028,-3.5785e-10,0,0.00084347,8.6757e-05,2.2258e+08,-113.67,0,2.8751e+08,23.696,12723,702.88,0,702.88,0,0.00063544,1.0967e-09,0,0.0003263,0.00011895,2.25e+08,358.23,0,1.0912e+08,84.351,702.88,1
2344,3.97,12116,1,12116,1,0.00010647,1.7388e-09,0,0.00055683,-1.9645e-05,1.446e+07,532.67,0,1.9763e+08,-4.5225,12115,13336,1,13336,1,0.0011734,5.3803e-09,0,0.0011734,0.00017893,3.5167e+08,1772.7,0,3.8796e+08,230.96,13335,12118,1,12118,1,0.00010978,1.3575e-09,0,0.00054473,-2.0311e-05,4.0333e+07,395.43,0,2.0015e+08,4.0932,12117,10867,1,10867,1,-0.00095383,-5.8479e-10,0,2.7961e-05,-0.00021934,-3.8796e+08,-200.26,0,1.0335e+07,-340.14,10866,11508,1,11508,1,-0.00046292,3.953e-10,0,0.00027342,-0.00012747,-1.8828e+08,119.92,0,9.7768e+07,-43.455,11507,12724,1,12724,1,0.00068248,2.9803e-09,0,0.00084611,8.6916e-05,2.2301e+08,905.17,0,2.8811e+08,41.772,12723,702.88,0,702.88,0,0.00063712,1.6207e-09,0,0.00032723,0.00011927,2.2542e+08,509.85,0,1.093e+08,80.689,702.88,1
2344,3.98,12116,1,12116,1,0.00010714,-7.6817e-10,0,0.00055836,-1.9769e-05,1.4494e+07,-238.26,0,1.9801e+08,-30.579,12115,13336,1,13336,1,0.0011769,3.6742e-10,0,0.0011769,0.00017933,3.521e+08,125.83,0,3.8883e+08,88.122,13335,12118,1,12118,1,0.00011047,-7.6692e-10,0,0.0005458,-2.0437e-05,4.056e+07,-238.13,0,2.0058e+08,-16.965,12117,10867,1,10867,1,-0.00095597,-2.3244e-09,0,2.8434e-05,-0.00022,-3.8883e+08,-652.37,0,1.0506e+07,-248.65,10866,11508,1,11508,1,-0.00046376,-1.2667e-09,0,0.00027454,-0.00012788,-1.8862e+08,-402.19,0,9.8094e+07,-74.085,11507,12724,1,12724,1,0.0006847,-2.4397e-10,0,0.00084876,8.7075e-05,2.2345e+08,-71.424,0,2.8872e+08,17.736,12723,702.88,0,702.88,0,0.00063882,5.9685e-10,0,0.00032816,0.00011958,2.2584e+08,183.21,0,1.0948e+08,62.84,702.88,1
2344,3.99,12116,1,12116,1,0.00010781,-3.0201e-10,0,0.00055985,-1.9892e-05,1.4527e+07,-96.598,0,1.9838e+08,8.8619,12115,13336,1,13336,1,0.0011804,4.9284e-09,0,0.0011804,0.00017973,3.525e+08,1651.9,0,3.8968e+08,178.23,13335,12118,1,12118,1,0.00011115,-3.8968e-10,0,0.00054683,-2.0562e-05,4.0786e+07,-120.66,0,2.01e+08,8.1017,12117,10867,1,10867,1,-0.00095808,-4.2745e-09,0,2.8893e-05,-0.00022064,-3.8968e+08,-1324.9,0,1.0673e+07,-281.8,10866,11508,1,11508,1,-0.00046458,-2.1075e-09,0,0.00027565,-0.00012828,-1.8895e+08,-668.61,0,9.8416e+07,-33.467,11507,12724,1,12724,1,0.00068686,1.3353e-09,0,0.00085136,8.723e-05,2.2387e+08,410.23,0,2.8931e+08,64.669,12723,702.88,0,702.88,0,0.00064049,2.3173e-09,0,0.00032907,0.00011989,2.2624e+08,729.94,0,1.0966e+08,83.534,702.88,1
2344,4,12116,1,12116,1,0.00010849,7.7746e-10,0,0.00056139,-2.0017e-05,1.4561e+07,238.35,0,1.9876e+08,-37.019,12115,13336,1,13336,1,0.0011839,2.5096e-09,0,0.0011839,0.00018013,3.5294e+08,736.86,0,3.9056e+08,105.58,13335,12118,1,12118,1,0.00011184,6.9341e-10,0,0.0005479,-2.0689e-05,4.1014e+07,221.6,0,2.0144e+08,-31.38,12117,10867,1,10867,1,-0.00096024,-1.2567e-09,0,2.9368e-05,-0.0002213,-3.9056e+08,-351.95,0,1.0844e+07,-218.93,10866,11508,1,11508,1,-0.00046543,1.6299e-10,0,0.00027677,-0.00012869,-1.893e+08,52.933,0,9.8743e+07,-84.024,11507,12724,1,12724,1,0.0006891,1.3802e-09,0,0.00085404,8.739e-05,2.2431e+08,423.11,0,2.8993e+08,9.9429,12723,702.88,0,702.88,0,0.0006422,8.5034e-10,0,0.00033,0.00012021,2.2667e+08,252.05,0,1.0984e+08,68.583,702.88,1
2344,4.01,12116,1,12116,1,0.00010918,-7.0461e-10,0,0.00056291,-2.0143e-05,1.4594e+07,-217.14,0,1.9914e+08,-0.2874,12115,13336,1,13336,1,0.0011874,1.7634e-09,0,0.0011874,0.00018053,3.5334e+08,572.82,0,3.9143e+08,97.233,13335,12118,1,12118,1,0.00011253,-6.5151e-10,0,0.00054894,-2.0817e-05,4.1244e+07,-202.57,0,2.0186e+08,3.3821,12117,10867,1,10867,1,-0.00096237,-2.7561e-09,0,2.9848e-05,-0.00022195,-3.9143e+08,-854.28,0,1.1018e+07,-254.37,10866,11508,1,11508,1,-0.00046625,-1.5842e-09,0,0.0002779,-0.0001291,-1.8963e+08,-493.64,0,9.9071e+07,-23.201,11507,12724,1,12724,1,0.00069131,2.0539e-11,0,0.00085668,8.7545e-05,2.2474e+08,6.3877,0,2.9053e+08,28.713,12723,702.88,0,702.88,0,0.00064389,1.0664e-09,0,0.00033093,0.00012053,2.2708e+08,333.38,0,1.1002e+08,48.04,702.88,1
2344,4.02,12116,1,12116,1,0.00010987,5.6718e-10,0,0.00056443,-2.0269e-05,1.4628e+07,174.28,0,1.9951e+08,-10.105,12115,13336,1,13336,1,0.0011909,2.6531e-09,0,0.0011909,0.00018093,3.5375e+08,833.65,0,3.9229e+08,95.324,13335,12118,1,12118,1,0.00011323,4.3407e-10,0,0.00054998,-2.0945e-05,4.1474e+07,125.82,0,2.0228e+08,-5.709,12117,10867,1,10867,1,-0.00096449,-8.7863e-10,0,3.0326e-05,-0.0002226,-3.9229e+08,-300.83,0,1.1191e+07,-220.4,10866,11508,1,11508,1,-0.00046708,-5.9332e-11,0,0.00027903,-0.00012952,-1.8997e+08,-18.442,0,9.9397e+07,-39.437,11507,12724,1,12724,1,0.00069353,1.1602e-09,0,0.00085933,8.77e-05,2.2517e+08,356.55,0,2.9113e+08,22.466,12723,702.88,0,702.88,0,0.00064558,8.2536e-10,0,0.00033186,0.00012084,2.2749e+08,260.7,0,1.102e+08,49.427,702.88,1
2344,4.03,12116,1,12116,1,0.00011055,-1.0232e-09,0,0.00056594,-2.0395e-05,1.4661e+07,-316.48,0,1.9988e+08,15.019,12115,13336,1,13336,1,0.0011945,4.8838e-09,0,0.0011945,0.00018133,3.5416e+08,1535.4,0,3.9316e+08,222.05,13335,12118,1,12118,1,0.00011392,-9.1272e-10,0,0.000551,-2.1073e-05,4.1704e+07,-259.62,0,2.027e+08,15.98,12117,10867,1,10867,1,-0.00096661,-5.9015e-09,0,3.0806e-05,-0.00022326,-3.9316e+08,-1828,0,1.1364e+07,-309.77,10866,11508,1,11508,1,-0.00046789,-3.0969e-09,0,0.00028016,-0.00012992,-1.903e+08,-949.3,0,9.9723e+07,-40.465,11507,12724,1,12724,1,0.00069573,5.5413e-10,0,0.00086196,8.7854e-05,2.2559e+08,164.98,0,2.9172e+08,69.64,12723,702.88,0,702.88,0,0.00064726,2.5145e-09,0,0.00033278,0.00012116,2.2789e+08,785.07,0,1.1037e+08,85.293,702.88,1
2344,4.04,12116,1,12116,1,0.00011125,-1.3224e-09,0,0.00056747,-2.0522e-05,1.4694e+07,-415.71,0,2.0025e+08,-5.5127,12115,13336,1,13336,1,0.001198,4.1291e-09,0,0.001198,0.00018173,3.5456e+08,1325.5,0,3.9402e+08,186.1,13335,12118,1,12118,1,0.00011462,-1.1112e-09,0,0.00055204,-2.1203e-05,4.1935e+07,-334,0,2.0312e+08,2.5865,12117,10867,1,10867,1,-0.00096875,-6.1885e-09,0,3.1289e-05,-0.00022392,-3.9402e+08,-1949.6,0,1.1538e+07,-333.69,10866,11508,1,11508,1,-0.00046871,-3.2005e-09,0,0.0002813,-0.00013034,-1.9063e+08,-1002.8,0,1.0005e+08,-59.487,11507,12724,1,12724,1,0.00069795,2.3324e-10,0,0.00086462,8.8009e-05,2.2602e+08,64.917,0,2.9232e+08,44.778,12723,702.88,0,702.88,0,0.00064895,2.3278e-09,0,0.00033371,0.00012147,2.283e+08,736.81,0,1.1055e+08,83.002,702.88,1
2344,4.05,12116,1,12116,1,0.00011194,-1.4506e-10,0,0.00056898,-2.065e-05,1.4728e+07,-52.819,0,2.0062e+08,-4.8554,12115,13336,1,13336,1,0.0012015,6.7858e-09,0,0.0012015,0.00018213,3.5495e+08,2126.2,0,3.9488e+08,156.27,13335,12118,1,12118,1,0.00011533,-1.8988e-10,0,0.00055307,-2.1332e-05,4.2167e+07,-56.37,0,2.0354e+08,-1.1858,12117,10867,1,10867,1,-0.00097085,-5.0637e-09,0,3.1776e-05,-0.00022457,-3.9488e+08,-1606.6,0,1.1713e+07,-301.62,10866,11508,1,11508,1,-0.00046952,-2.4508e-09,0,0.00028243,-0.00013075,-1.9096e+08,-762.24,0,1.0038e+08,-54.41,11507,12724,1,12724,1,0.00070017,1.6328e-09,0,0.00086727,8.8162e-05,2.2644e+08,499.99,0,2.9291e+08,42.576,12723,702.88,0,702.88,0,0.00065064,2.8968e-09,0,0.00033464,0.00012179,2.2871e+08,915.58,0,1.1072e+08,76.941,702.88,1
2344,4.06,12116,1,12116,1,0.00011264,3.2382e-11,0,0.00057052,-2.0778e-05,1.4761e+07,4.5275,0,2.0099e+08,-19.216,12115,13336,1,13336,1,0.0012051,2.0833e-09,0,0.0012051,0.00018253,3.5535e+08,713.15,0,3.9574e+08,147.88,13335,12118,1,12118,1,0.00011604,1.8968e-10,0,0.00055412,-2.1463e-05,4.2401e+07,53.175,0,2.0397e+08,-13.803,12117,10867,1,10867,1,-0.00097297,-1.9424e-09,0,3.2266e-05,-0.00022523,-3.9574e+08,-664.88,0,1.189e+07,-281.84,10866,11508,1,11508,1,-0.00047035,-5.7162e-10,0,0.00028358,-0.00013116,-1.913e+08,-184.83,0,1.0071e+08,-61.772,11507,12724,1,12724,1,0.00070242,6.0512e-10,0,0.00086996,8.8318e-05,2.2687e+08,184.18,0,2.9352e+08,29.102,12723,702.88,0,702.88,0,0.00065234,8.5064e-10,0,0.00033558,0.00012211,2.2912e+08,279.09,0,1.109e+08,64.454,702.88,1
2344,4.07,12116,1,12116,1,0.00011335,1.7833e-09,0,0.00057205,-2.0908e-05,1.4794e+07,552.47,0,2.0136e+08,-12.494,12115,13336,1,13336,1,0.0012086,5.5461e-09,0,0.0012086,0.00018293,3.5575e+08,1746.9,0,3.9661e+08,198.61,13335,12118,1,12118,1,0.00011675,1.2868e-09,0,0.00055514,-2.1596e-05,4.2637e+07,386.91,0,2.0439e+08,-7.3786,12117,10867,1,10867,1,-0.0009751,-6.892e-10,0,3.2767e-05,-0.00022589,-3.9661e+08,-229.39,0,1.2069e+07,-263.58,10866,11508,1,11508,1,-0.00047115,1.0506e-10,0,0.00028473,-0.00013158,-1.9163e+08,29.867,0,1.0104e+08,-56.947,11507,12724,1,12724,1,0.00070466,3.4957e-09,0,0.00087263,8.847e-05,2.2729e+08,1079.3,0,2.9411e+08,45.316,12723,702.88,0,702.88,0,0.00065404,1.8808e-09,0,0.00033652,0.00012242,2.2952e+08,596.51,0,1.1108e+08,79.792,702.88,1
2344,4.08,12116,1,12116,1,0.00011406,-2.6038e-09,0,0.00057359,-2.1039e-05,1.4828e+07,-802.15,0,2.0173e+08,-5.3754,12115,13336,1,13336,1,0.0012122,7.009e-10,0,0.0012122,0.00018333,3.5614e+08,173.58,0,3.9748e+08,179.06,13335,12118,1,12118,1,0.00011748,-2.7961e-09,0,0.00055618,-2.1728e-05,4.2874e+07,-857.75,0,2.0481e+08,8.1732,12117,10867,1,10867,1,-0.00097724,-5.2631e-09,0,3.3268e-05,-0.00022655,-3.9748e+08,-1632.2,0,1.2249e+07,-309.11,10866,11508,1,11508,1,-0.00047197,-3.9416e-09,0,0.00028589,-0.000132,-1.9196e+08,-1230.6,0,1.0137e+08,-54.021,11507,12724,1,12724,1,0.00070691,-1.3672e-09,0,0.00087533,8.8623e-05,2.2771e+08,-415,0,2.9471e+08,41.044,12723,702.88,0,702.88,0,0.00065575,1.5444e-09,0,0.00033746,0.00012274,2.2993e+08,478.11,0,1.1125e+08,68.989,702.88,1
2344,4.09,12116,1,12116,1,0.00011478,-1.2585e-09,0,0.00057512,-2.117e-05,1.4862e+07,-400.67,0,2.0209e+08,-22.691,12115,13336,1,13336,1,0.0012158,7.8329e-10,0,0.0012158,0.00018372,3.5652e+08,193.92,0,3.9834e+08,215.9,13335,12118,1,12118,1,0.0001182,-1.2325e-09,0,0.0005572,-2.1862e-05,4.3111e+07,-375.06,0,2.0523e+08,-3.9141,12117,10867,1,10867,1,-0.00097935,-4.7939e-09,0,3.3765e-05,-0.00022722,-3.9834e+08,-1486,0,1.2428e+07,-493.75,10866,11508,1,11508,1,-0.00047277,-1.9954e-09,0,0.00028706,-0.00013241,-1.9229e+08,-654.32,0,1.017e+08,-77.21,11507,12724,1,12724,1,0.00070916,-4.0791e-10,0,0.000878,8.8776e-05,2.2814e+08,-118.48,0,2.9531e+08,57.212,12723,702.88,0,702.88,0,0.00065745,1.0726e-09,0,0.0003384,0.00012306,2.3033e+08,343.48,0,1.1143e+08,117.42,702.88,1
2344,4.1,12116,1,12116,1,0.0001155,-1.0817e-09,0,0.00057665,-2.1302e-05,1.4894e+07,-348.47,0,2.0246e+08,17.481,12115,13336,1,13336,1,0.0012193,2.9736e-09,0,0.0012193,0.00018412,3.569e+08,938.82,0,3.9919e+08,265.34,13335,12118,1,12118,1,0.00011893,-8.1789e-10,0,0.00055822,-2.1995e-05,4.3349e+07,-253.65,0,2.0564e+08,24.184,12117,10867,1,10867,1,-0.00098146,-4.8871e-09,0,3.428e-05,-0.00022788,-3.9919e+08,-1548.4,0,1.2611e+07,-233.68,10866,11508,1,11508,1,-0.00047357,-2.4978e-09,0,0.00028822,-0.00013283,-1.9261e+08,-789.41,0,1.0203e+08,-55.058,11507,12724,1,12724,1,0.00071141,2.4436e-10,0,0.0008807,8.8927e-05,2.2855e+08,71.405,0,2.9589e+08,87.125,12723,702.88,0,702.88,0,0.00065915,1.8287e-09,0,0.00033934,0.00012337,2.3073e+08,583.11,0,1.116e+08,100.67,702.88,1
2344,4.11,12116,1,12116,1,0.00011622,9.0006e-10,0,0.00057817,-2.1434e-05,1.4928e+07,268.06,0,2.0281e+08,-1.8842,12115,13336,1,13336,1,0.0012228,6.0922e-09,0,0.0012228,0.00018451,3.5726e+08,1900.6,0,4.0003e+08,213.85,13335,12118,1,12118,1,0.00011965,4.0641e-10,0,0.00055922,-2.213e-05,4.3587e+07,105.35,0,2.0606e+08,4.0608,12117,10867,1,10867,1,-0.00098353,-1.5359e-09,0,3.4792e-05,-0.00022853,-4.0003e+08,-517.15,0,1.2794e+07,-297.76,10866,11508,1,11508,1,-0.00047436,-5.4253e-10,0,0.00028938,-0.00013325,-1.9293e+08,-170.67,0,1.0236e+08,-61.978,11507,12724,1,12724,1,0.00071366,2.0288e-09,0,0.00088338,8.9076e-05,2.2897e+08,595.34,0,2.9648e+08,53.272,12723,702.88,0,702.88,0,0.00066083,1.8775e-09,0,0.00034027,0.00012369,2.3113e+08,585.32,0,1.1177e+08,87.383,702.88,1
2344,4.12,12116,1,12116,1,0.00011694,-2.1507e-09,0,0.00057971,-2.1567e-05,1.4962e+07,-667.88,0,2.0318e+08,-20.589,12115,13336,1,13336,1,0.0012265,3.813e-09,0,0.0012265,0.00018491,3.5765e+08,1236.3,0,4.0091e+08,260.48,13335,12118,1,12118,1,0.00012039,-1.9139e-09,0,0.00056024,-2.2265e-05,4.3827e+07,-557.57,0,2.0647e+08,-2.9139,12117,10867,1,10867,1,-0.00098567,-7.7888e-09,0,3.5307e-05,-0.0002292,-4.0091e+08,-2421.1,0,1.2978e+07,-412.94,10866,11508,1,11508,1,-0.00047515,-4.3365e-09,0,0.00029055,-0.00013367,-1.9325e+08,-1319.4,0,1.027e+08,-108.42,11507,12724,1,12724,1,0.00071592,8.6331e-11,0,0.00088608,8.9226e-05,2.2938e+08,23.51,0,2.9707e+08,68.847,12723,702.88,0,702.88,0,0.00066254,2.7427e-09,0,0.00034122,0.00012401,2.3153e+08,862.38,0,1.1194e+08,123.4,702.88,1
2344,4.13,12116,1,12116,1,0.00011766,-1.6864e-09,0,0.00058121,-2.1699e-05,1.4993e+07,-533.09,0,2.0353e+08,44.777,12115,13336,1,13336,1,0.00123,1.2682e-08,0,0.00123,0.0001853,3.5799e+08,3953.1,0,4.0174e+08,395.76,13335,12118,1,12118,1,0.00012111,-1.8025e-09,0,0.00056121,-2.2399e-05,4.4064e+07,-562.96,0,2.0687e+08,58.115,12117,10867,1,10867,1,-0.00098772,-1.0485e-08,0,3.5821e-05,-0.00022986,-4.0174e+08,-3283.9,0,1.3161e+07,-345.96,10866,11508,1,11508,1,-0.00047592,-5.9317e-09,0,0.00029171,-0.00013408,-1.9356e+08,-1839.5,0,1.0302e+08,-43.235,11507,12724,1,12724,1,0.00071814,1.0867e-09,0,0.00088872,8.937e-05,2.2978e+08,304.69,0,2.9764e+08,135.16,12723,702.88,0,702.88,0,0.0006642,5.1962e-09,0,0.00034214,0.00012432,2.3191e+08,1625.3,0,1.121e+08,147.33,702.88,1
2344,4.14,12116,1,12116,1,0.00011839,4.658e-10,0,0.00058278,-2.1833e-05,1.5027e+07,127.82,0,2.039e+08,-50.497,12115,13336,1,13336,1,0.0012336,2.5922e-09,0,0.0012336,0.0001857,3.5838e+08,709.86,0,4.0261e+08,213.54,13335,12118,1,12118,1,0.00012185,4.6323e-10,0,0.00056227,-2.2536e-05,4.4306e+07,145.09,0,2.0731e+08,-51.512,12117,10867,1,10867,1,-0.00098985,-1.6133e-09,0,3.6337e-05,-0.00023053,-4.0261e+08,-552.4,0,1.3345e+07,-316.78,10866,11508,1,11508,1,-0.00047675,-2.6958e-10,0,0.00029289,-0.00013451,-1.939e+08,-80.457,0,1.0336e+08,-140.37,11507,12724,1,12724,1,0.00072046,1.1394e-09,0,0.00089149,8.9527e-05,2.3022e+08,334.28,0,2.9826e+08,28.324,12723,702.88,0,702.88,0,0.00066594,9.9261e-10,0,0.00034311,0.00012464,2.3233e+08,294.14,0,1.1228e+08,112.69,702.88,1
2344,4.15,12116,1,12116,1,0.00011913,-6.4537e-10,0,0.0005843,-2.1969e-05,1.506e+07,-202.29,0,2.0426e+08,12.256,12115,13336,1,13336,1,0.0012372,7.2232e-09,0,0.0012372,0.00018609,3.5873e+08,2263,0,4.0346e+08,230.03,13335,12118,1,12118,1,0.0001226,-6.8596e-10,0,0.00056325,-2.2674e-05,4.4551e+07,-198.95,0,2.0771e+08,22.617,12117,10867,1,10867,1,-0.00099194,-6.2211e-09,0,3.6872e-05,-0.00023119,-4.0346e+08,-1942.7,0,1.3535e+07,-351.09,10866,11508,1,11508,1,-0.00047752,-2.883e-09,0,0.00029407,-0.00013493,-1.9422e+08,-878.65,0,1.0369e+08,-53.208,11507,12724,1,12724,1,0.00072272,9.1601e-10,0,0.00089419,8.9672e-05,2.3062e+08,246.45,0,2.9883e+08,77.423,12723,702.88,0,702.88,0,0.00066763,2.9371e-09,0,0.00034405,0.00012496,2.3272e+08,919.18,0,1.1245e+08,99.596,702.88,1
2344,4.16,12116,1,12116,1,0.00011987,1.4027e-09,0,0.00058586,-2.2105e-05,1.5094e+07,428.2,0,2.0462e+08,-9.5892,12115,13336,1,13336,1,0.0012408,5.8467e-09,0,0.0012408,0.00018649,3.591e+08,1846.4,0,4.0432e+08,245.95,13335,12118,1,12118,1,0.00012336,1.1819e-09,0,0.00056427,-2.2812e-05,4.4795e+07,336.25,0,2.0813e+08,-3.6012,12117,10867,1,10867,1,-0.00099406,-8.8248e-10,0,3.7402e-05,-0.00023186,-4.0432e+08,-302.17,0,1.3723e+07,-307.87,10866,11508,1,11508,1,-0.00047831,1.1271e-10,0,0.00029527,-0.00013536,-1.9454e+08,34.647,0,1.0403e+08,-60.966,11507,12724,1,12724,1,0.00072502,2.4324e-09,0,0.00089693,8.9822e-05,2.3104e+08,738.76,0,2.9942e+08,50.851,12723,702.88,0,702.88,0,0.00066935,1.5144e-09,0,0.00034501,0.00012528,2.3311e+08,479.82,0,1.1262e+08,82.318,702.88,1
2344,4.17,12116,1,12116,1,0.00012062,-1.7499e-09,0,0.00058738,-2.2242e-05,1.5126e+07,-533.77,0,2.0497e+08,9.0882,12115,13336,1,13336,1,0.0012444,4.3974e-09,0,0.0012444,0.00018688,3.5944e+08,1396.9,0,4.0516e+08,259.01,13335,12118,1,12118,1,0.00012411,-1.5988e-09,0,0.00056525,-2.2951e-05,4.504e+07,-491.51,0,2.0853e+08,9.9425,12117,10867,1,10867,1,-0.00099614,-7.5365e-09,0,3.7938e-05,-0.00023253,-4.0516e+08,-2328.4,0,1.3913e+07,-258.22,10866,11508,1,11508,1,-0.00047908,-4.1231e-09,0,0.00029645,-0.00013578,-1.9485e+08,-1261.9,0,1.0436e+08,-56.085,11507,12724,1,12724,1,0.00072729,2.3666e-10,0,0.00089963,8.9966e-05,2.3144e+08,74.447,0,3e+08,67.429,12723,702.88,0,702.88,0,0.00067104,2.8624e-09,0,0.00034595,0.00012559,2.335e+08,891.59,0,1.1279e+08,96.617,702.88,1
2344,4.18,12116,1,12116,1,0.00012137,-2.266e-09,0,0.00058894,-2.2379e-05,1.516e+07,-708.5,0,2.0533e+08,-35.135,12115,13336,1,13336,1,0.001248,1.1083e-09,0,0.001248,0.00018728,3.598e+08,269.62,0,4.0603e+08,130.88,13335,12118,1,12118,1,0.00012487,-2.3386e-09,0,0.00056627,-2.3091e-05,4.5286e+07,-707.7,0,2.0895e+08,-29.72,12117,10867,1,10867,1,-0.00099826,-5.2189e-09,0,3.8475e-05,-0.00023321,-4.0603e+08,-1654.3,0,1.4103e+07,-276.6,10866,11508,1,11508,1,-0.00047987,-3.6763e-09,0,0.00029766,-0.0001362,-1.9517e+08,-1131.9,0,1.047e+08,-91.311,11507,12724,1,12724,1,0.0007296,-8.315e-10,0,0.00090238,9.0116e-05,2.3185e+08,-256.74,0,3.0059e+08,34.945,12723,702.88,0,702.88,0,0.00067277,1.6451e-09,0,0.00034692,0.00012591,2.339e+08,521.86,0,1.1296e+08,84.945,702.88,1
2344,4.19,12116,1,12116,1,0.00012212,-1.6106e-09,0,0.00059049,-2.2518e-05,1.5193e+07,-513.55,0,2.0569e+08,1.8937,12115,13336,1,13336,1,0.0012516,8.0469e-10,0,0.0012516,0.00018767,3.6014e+08,195.61,0,4.0687e+08,185.48,13335,12118,1,12118,1,0.00012563,-1.6404e-09,0,0.00056726,-2.3232e-05,4.5534e+07,-514.37,0,2.0936e+08,4.6436,12117,10867,1,10867,1,-0.0010003,-3.5628e-09,0,3.9017e-05,-0.00023388,-4.0687e+08,-1170.7,0,1.4295e+07,-183.61,10866,11508,1,11508,1,-0.00048064,-2.5704e-09,0,0.00029886,-0.00013663,-1.9549e+08,-826.96,0,1.0504e+08,-50.666,11507,12724,1,12724,1,0.0007319,-7.042e-10,0,0.00090512,9.0262e-05,2.3226e+08,-205.65,0,3.0117e+08,53.782,12723,702.88,0,702.88,0,0.00067448,1.1097e-09,0,0.00034787,0.00012623,2.3429e+08,364.35,0,1.1313e+08,73.442,702.88,1
2344,4.2,12116,1,12116,1,0.00012288,4.1659e-11,0,0.00059203,-2.2657e-05,1.5226e+07,-2.6573,0,2.0604e+08,15.81,12115,13336,1,13336,1,0.0012552,2.3539e-09,0,0.0012552,0.00018806,3.6048e+08,657.44,0,4.0772e+08,164.9,13335,12118,1,12118,1,0.0001264,3.9697e-11,0,0.00056825,-2.3373e-05,4.5782e+07,11.286,0,2.0977e+08,15.256,12117,10867,1,10867,1,-0.0010024,-2.1399e-09,0,3.9565e-05,-0.00023455,-4.0772e+08,-690.71,0,1.4488e+07,-207.15,10866,11508,1,11508,1,-0.00048142,-6.8586e-10,0,0.00030007,-0.00013706,-1.958e+08,-217.03,0,1.0537e+08,-24.929,11507,12724,1,12724,1,0.00073421,6.8018e-10,0,0.00090787,9.0408e-05,2.3267e+08,201.11,0,3.0176e+08,61.974,12723,702.88,0,702.88,0,0.00067619,1.0439e-09,0,0.00034883,0.00012655,2.3468e+08,320.05,0,1.1329e+08,60.664,702.88,1
2344,4.21,12116,1,12116,1,0.00012364,-3.7362e-10,0,0.00059356,-2.2796e-05,1.5259e+07,-121.75,0,2.0639e+08,14.766,12115,13336,1,13336,1,0.0012588,4.6935e-09,0,0.0012588,0.00018845,3.6081e+08,1440,0,4.0856e+08,153.21,13335,12118,1,12118,1,0.00012717,-3.5165e-10,0,0.00056922,-2.3514e-05,4.603e+07,-103.64,0,2.1017e+08,18.285,12117,10867,1,10867,1,-0.0010045,-3.8288e-09,0,4.0117e-05,-0.00023521,-4.0856e+08,-1203.9,0,1.4683e+07,-211.84,10866,11508,1,11508,1,-0.00048217,-1.6929e-09,0,0.00030127,-0.00013748,-1.9611e+08,-516.31,0,1.0571e+08,-31.746,11507,12724,1,12724,1,0.0007365,5.5677e-10,0,0.0009106,9.0551e-05,2.3307e+08,155.93,0,3.0233e+08,66.719,12723,702.88,0,702.88,0,0.00067788,1.7493e-09,0,0.00034978,0.00012687,2.3506e+08,540.6,0,1.1346e+08,65.064,702.88,1
2344,4.22,12116,1,12116,1,0.0001244,-2.7933e-09,0,0.00059511,-2.2936e-05,1.5291e+07,-867.29,0,2.0674e+08,15.038,12115,13336,1,13336,1,0.0012625,2.9526e-09,0,0.0012625,0.00018884,3.6116e+08,932.17,0,4.0942e+08,357.81,13335,12118,1,12118,1,0.00012794,-2.4435e-09,0,0.0005702,-2.3656e-05,4.6279e+07,-751.02,0,2.1058e+08,22.382,12117,10867,1,10867,1,-0.0010066,-9.284e-09,0,4.0667e-05,-0.00023589,-4.0942e+08,-2890,0,1.4877e+07,-318.73,10866,11508,1,11508,1,-0.00048293,-5.0718e-09,0,0.00030248,-0.00013791,-1.9642e+08,-1565.8,0,1.0605e+08,-70.449,11507,12724,1,12724,1,0.00073879,-1.7182e-10,0,0.00091333,9.0694e-05,2.3347e+08,-54.985,0,3.029e+08,95.884,12723,702.88,0,702.88,0,0.00067959,2.9204e-09,0,0.00035074,0.00012718,2.3545e+08,915.09,0,1.1362e+08,125.57,702.88,1
2344,4.23,12116,1,12116,1,0.00012517,8.1241e-10,0,0.00059666,-2.3077e-05,1.5325e+07,228.71,0,2.0709e+08,-0.30655,12115,13336,1,13336,1,0.0012661,4.6325e-09,0,0.0012661,0.00018923,3.6148e+08,1434.7,0,4.1025e+08,192.94,13335,12118,1,12118,1,0.00012871,7.0708e-10,0,0.0005712,-2.38e-05,4.653e+07,201.37,0,2.1099e+08,0.95828,12117,10867,1,10867,1,-0.0010086,-1.3181e-09,0,4.1223e-05,-0.00023656,-4.1025e+08,-451.24,0,1.5073e+07,-215.93,10866,11508,1,11508,1,-0.00048371,-1.0034e-10,0,0.0003037,-0.00013834,-1.9673e+08,-33.197,0,1.0639e+08,-53.417,11507,12724,1,12724,1,0.00074113,1.5119e-09,0,0.00091611,9.0841e-05,2.3388e+08,411.79,0,3.0349e+08,51.674,12723,702.88,0,702.88,0,0.00068131,1.2469e-09,0,0.00035171,0.00012751,2.3583e+08,383.6,0,1.1379e+08,75.752,702.88,1
2344,4.24,12116,1,12116,1,0.00012595,-3.582e-10,0,0.00059821,-2.3219e-05,1.5358e+07,-117.18,0,2.0744e+08,4.6899,12115,13336,1,13336,1,0.0012697,3.1153e-09,0,0.0012697,0.00018962,3.6181e+08,980.52,0,4.111e+08,140.46,13335,12118,1,12118,1,0.0001295,-3.23e-10,0,0.00057217,-2.3944e-05,4.6783e+07,-95.927,0,2.1139e+08,12.282,12117,10867,1,10867,1,-0.0010107,-2.7101e-09,0,4.179e-05,-0.00023724,-4.111e+08,-853.65,0,1.5272e+07,-157.08,10866,11508,1,11508,1,-0.00048446,-1.2772e-09,0,0.00030492,-0.00013877,-1.9704e+08,-401.2,0,1.0673e+08,-34.535,11507,12724,1,12724,1,0.00074345,3.6696e-10,0,0.00091887,9.0983e-05,2.3428e+08,101.91,0,3.0406e+08,51.982,12723,702.88,0,702.88,0,0.00068302,1.2558e-09,0,0.00035267,0.00012782,2.3622e+08,397.37,0,1.1395e+08,62.833,702.88,1
2344,4.25,12116,1,12116,1,0.00012672,-2.4958e-10,0,0.00059976,-2.3362e-05,1.5391e+07,-82.527,0,2.0779e+08,-4.6395,12115,13336,1,13336,1,0.0012734,1.986e-09,0,0.0012734,0.00019001,3.6213e+08,625.43,0,4.1194e+08,157.59,13335,12118,1,12118,1,0.00013029,-5.9409e-11,0,0.00057314,-2.4089e-05,4.7036e+07,-18.415,0,2.118e+08,-10.853,12117,10867,1,10867,1,-0.0010128,-2.6096e-09,0,4.2356e-05,-0.00023792,-4.1194e+08,-816.68,0,1.5471e+07,-254.52,10866,11508,1,11508,1,-0.00048521,-9.2226e-10,0,0.00030615,-0.0001392,-1.9735e+08,-284.8,0,1.0706e+08,-54.24,11507,12724,1,12724,1,0.00074578,3.7557e-10,0,0.00092164,9.1126e-05,2.3468e+08,107.17,0,3.0464e+08,46.427,12723,702.88,0,702.88,0,0.00068474,9.7092e-10,0,0.00035364,0.00012814,2.366e+08,304.5,0,1.1412e+08,68.577,702.88,1
2344,4.26,12116,1,12116,1,0.00012751,-8.3304e-10,0,0.00060132,-2.3505e-05,1.5424e+07,-261.4,0,2.0813e+08,-3.782,12115,13336,1,13336,1,0.001277,6.3615e-10,0,0.001277,0.0001904,3.6245e+08,199.84,0,4.1278e+08,132.8,13335,12118,1,12118,1,0.00013108,-7.8536e-10,0,0.00057412,-2.4235e-05,4.7291e+07,-230.45,0,2.122e+08,-2.6464,12117,10867,1,10867,1,-0.0010149,-2.3346e-09,0,4.2928e-05,-0.0002386,-4.1278e+08,-748.13,0,1.5672e+07,-135.72,10866,11508,1,11508,1,-0.00048596,-1.5141e-09,0,0.00030738,-0.00013964,-1.9765e+08,-471.53,0,1.0741e+08,-37.512,11507,12724,1,12724,1,0.00074812,-1.3501e-10,0,0.00092441,9.1268e-05,2.3507e+08,-40.393,0,3.0521e+08,25.35,12723,702.88,0,702.88,0,0.00068645,7.8029e-10,0,0.00035461,0.00012846,2.3698e+08,249.11,0,1.1428e+08,49.793,702.88,1
2344,4.27,12116,1,12116,1,0.00012829,8.5278e-10,0,0.00060287,-2.3649e-05,1.5456e+07,253.78,0,2.0848e+08,11.179,12115,13336,1,13336,1,0.0012807,3.8088e-09,0,0.0012807,0.00019078,3.6276e+08,1156.6,0,4.1362e+08,130.22,13335,12118,1,12118,1,0.00013187,5.5168e-10,0,0.00057508,-2.4382e-05,4.7546e+07,153.35,0,2.126e+08,14.245,12117,10867,1,10867,1,-0.0010169,-3.3913e-10,0,4.3502e-05,-0.00023927,-4.1362e+08,-116.11,0,1.5873e+07,-105.2,10866,11508,1,11508,1,-0.00048671,2.087e-10,0,0.00030861,-0.00014007,-1.9795e+08,62.188,0,1.0774e+08,-17.378,11507,12724,1,12724,1,0.00075046,1.237e-09,0,0.0009272,9.1409e-05,2.3547e+08,372.51,0,3.0579e+08,37.571,12723,702.88,0,702.88,0,0.00068817,9.308e-10,0,0.00035558,0.00012878,2.3736e+08,282.1,0,1.1444e+08,41.302,702.88,1
2344,4.28,12116,1,12116,1,0.00012908,3.7546e-10,0,0.00060442,-2.3794e-05,1.549e+07,116.49,0,2.0882e+08,-17.643,12115,13336,1,13336,1,0.0012843,2.5841e-09,0,0.0012843,0.00019117,3.6307e+08,801.42,0,4.1446e+08,165.71,13335,12118,1,12118,1,0.00013267,3.2712e-10,0,0.00057604,-2.4529e-05,4.7802e+07,98.271,0,2.13e+08,-24.524,12117,10867,1,10867,1,-0.001019,-1.2238e-09,0,4.4083e-05,-0.00023995,-4.1446e+08,-344.56,0,1.6076e+07,-174.21,10866,11508,1,11508,1,-0.00048745,-1.5308e-11,0,0.00030985,-0.0001405,-1.9826e+08,-4.4001,0,1.0809e+08,-57.113,11507,12724,1,12724,1,0.0007528,7.7467e-10,0,0.00092998,9.1549e-05,2.3586e+08,239.4,0,3.0636e+08,14.788,12723,702.88,0,702.88,0,0.00068988,6.828e-10,0,0.00035655,0.0001291,2.3773e+08,207.43,0,1.146e+08,55.03,702.88,1
2344,4.29,12116,1,12116,1,0.00012987,2.3235e-09,0,0.00060595,-2.3939e-05,1.5521e+07,715.62,0,2.0915e+08,33.414,12115,13336,1,13336,1,0.001288,1.0699e-08,0,0.001288,0.00019156,3.6337e+08,3289.8,0,4.153e+08,419.29,13335,12118,1,12118,1,0.00013347,1.6998e-09,0,0.0005775,-2.4676e-05,4.8057e+07,514.93,0,2.134e+08,24.885,12117,10867,1,10867,1,-0.0010211,-2.8811e-09,0,4.4144e-05,-0.00024063,-4.153e+08,-844.82,0,1.6278e+07,-309.26,10866,11508,1,11508,1,-0.00048817,-3.6953e-11,0,0.00031057,-0.00014093,-1.9855e+08,-10.893,0,1.0842e+08,-43.916,11507,12724,1,12724,1,0.00075511,4.2604e-09,0,0.0009322,9.1686e-05,2.3625e+08,1303.7,0,3.0691e+08,110.52,12723,702.88,0,702.88,0,0.00069157,2.8914e-09,0,0.00035751,0.00012942,2.381e+08,891.93,0,1.1476e+08,116.21,702.88,1
2344,4.3,12116,1,12116,1,0.00013067,9.6085e-10,0,0.00060752,-2.4085e-05,1.5554e+07,309.81,0,2.095e+08,-17.452,12115,13336,1,13336,1,0.0012917,3.011e-09,0,0.0012917,0.00019195,3.6368e+08,968.68,0,4.1614e+08,164.62,13335,12118,1,12118,1,0.00013427,9.3094e-10,0,0.00057942,-2.4824e-05,4.8314e+07,286.25,0,2.138e+08,-14.829,12117,10867,1,10867,1,-0.0010231,-4.5659e-10,0,4.378e-05,-0.00024131,-4.1614e+08,-123.96,0,1.6481e+07,-152.49,10866,11508,1,11508,1,-0.00048893,1.8295e-10,0,0.00031087,-0.00014137,-1.9886e+08,50.923,0,1.0877e+08,-52.097,11507,12724,1,12724,1,0.00075747,1.7117e-09,0,0.00093407,9.1828e-05,2.3665e+08,547.74,0,3.0749e+08,12.848,12723,702.88,0,702.88,0,0.0006933,8.6231e-10,0,0.00035849,0.00012974,2.3849e+08,281,0,1.1493e+08,52.39,702.88,1
2344,4.31,12116,1,12116,1,0.00013147,-8.9784e-10,0,0.00060907,-2.4232e-05,1.5587e+07,-261.43,0,2.0984e+08,-0.93269,12115,13336,1,13336,1,0.0012953,5.1916e-09,0,0.0012953,0.00019233,3.6398e+08,1617.6,0,4.1697e+08,221.21,13335,12118,1,12118,1,0.00013508,-8.9986e-10,0,0.00058132,-2.4973e-05,4.8573e+07,-265.24,0,2.1419e+08,-4.6362,12117,10867,1,10867,1,-0.0010252,-5.3342e-09,0,4.341e-05,-0.00024199,-4.1697e+08,-1614.6,0,1.6687e+07,-307.22,10866,11508,1,11508,1,-0.00048965,-2.7194e-09,0,0.00031116,-0.0001418,-1.9915e+08,-818.38,0,1.0911e+08,-58.526,11507,12724,1,12724,1,0.00075982,5.6537e-10,0,0.00093589,9.1965e-05,2.3703e+08,176.47,0,3.0805e+08,55.391,12723,702.88,0,702.88,0,0.00069501,2.3568e-09,0,0.00035946,0.00013006,2.3885e+08,719.38,0,1.1508e+08,85.589,702.88,1
2344,4.32,12116,1,12116,1,0.00013227,-3.097e-10,0,0.00061063,-2.4379e-05,1.5619e+07,-95.299,0,2.1018e+08,15.495,12115,13336,1,13336,1,0.001299,5.2501e-09,0,0.001299,0.00019272,3.6427e+08,1664.1,0,4.1781e+08,226.38,13335,12118,1,12118,1,0.00013589,-1.6377e-10,0,0.00058324,-2.5123e-05,4.8832e+07,-48.145,0,2.1459e+08,21.976,12117,10867,1,10867,1,-0.0010272,-6.0081e-09,0,4.3041e-05,-0.00024268,-4.1781e+08,-1862.7,0,1.6893e+07,-365.39,10866,11508,1,11508,1,-0.00049039,-2.2964e-09,0,0.00031145,-0.00014224,-1.9945e+08,-703.61,0,1.0945e+08,-41.652,11507,12724,1,12724,1,0.00076217,1.5776e-09,0,0.00093773,9.2104e-05,2.3742e+08,475.76,0,3.0862e+08,75.489,12723,702.88,0,702.88,0,0.00069673,2.6973e-09,0,0.00036044,0.00013038,2.3923e+08,837.71,0,1.1524e+08,99.647,702.88,1
2344,4.33,12116,1,12116,1,0.00013308,2.0789e-09,0,0.00061219,-2.4528e-05,1.5653e+07,632.34,0,2.1052e+08,-7.6086,12115,13336,1,13336,1,0.0013027,8.4282e-09,0,0.0013027,0.00019311,3.6457e+08,2577,0,4.1865e+08,298.96,13335,12118,1,12118,1,0.00013672,1.7646e-09,0,0.00058517,-2.5275e-05,4.9095e+07,515.71,0,2.1499e+08,-9.367,12117,10867,1,10867,1,-0.0010293,-2.6512e-09,0,4.2659e-05,-0.00024337,-4.1865e+08,-799.98,0,1.7103e+07,-413.23,10866,11508,1,11508,1,-0.00049111,-2.2335e-10,0,0.00031174,-0.00014268,-1.9974e+08,-57.633,0,1.098e+08,-82.506,11507,12724,1,12724,1,0.00076455,4.2383e-09,0,0.00093956,9.2241e-05,2.3781e+08,1282,0,3.0919e+08,75.272,12723,702.88,0,702.88,0,0.00069846,2.6019e-09,0,0.00036142,0.0001307,2.396e+08,807.6,0,1.154e+08,121.51,702.88,1
2344,4.34,12116,1,12116,1,0.0001339,2.3298e-09,0,0.00061375,-2.4678e-05,1.5685e+07,726.98,0,2.1085e+08,7.9291,12115,13336,1,13336,1,0.0013065,8.886e-09,0,0.0013065,0.00019349,3.6485e+08,2771.4,0,4.1949e+08,280.47,13335,12118,1,12118,1,0.00013754,1.8172e-09,0,0.0005871,-2.5427e-05,4.9356e+07,532.85,0,2.1539e+08,7.5661,12117,10867,1,10867,1,-0.0010314,-1.1029e-09,0,4.2276e-05,-0.00024406,-4.1949e+08,-324.03,0,1.7193e+07,-253.72,10866,11508,1,11508,1,-0.00049183,1.5271e-10,0,0.00031202,-0.00014312,-2.0004e+08,45.615,0,1.1014e+08,-58.451,11507,12724,1,12724,1,0.00076691,4.2152e-09,0,0.00094138,9.2378e-05,2.3819e+08,1310.7,0,3.0975e+08,75.32,12723,702.88,0,702.88,0,0.00070018,2.428e-09,0,0.0003624,0.00013102,2.3997e+08,768.59,0,1.1556e+08,98.963,702.88,1
2344,4.35,12116,1,12116,1,0.00013472,-5.5117e-10,0,0.00061532,-2.4828e-05,1.5718e+07,-145.28,0,2.1119e+08,-4.8532,12115,13336,1,13336,1,0.0013101,3.1561e-09,0,0.0013101,0.00019387,3.6513e+08,1028.4,0,4.2031e+08,177.82,13335,12118,1,12118,1,0.00013837,-5.7298e-10,0,0.00058904,-2.5579e-05,4.962e+07,-166.78,0,2.1578e+08,-5.6058,12117,10867,1,10867,1,-0.0010334,-3.1745e-09,0,4.1889e-05,-0.00024474,-4.2031e+08,-936.91,0,1.7036e+07,-158.39,10866,11508,1,11508,1,-0.00049256,-1.7258e-09,0,0.0003123,-0.00014356,-2.0033e+08,-503.24,0,1.1048e+08,-48.986,11507,12724,1,12724,1,0.00076931,4.508e-10,0,0.00094323,9.2516e-05,2.3858e+08,142.87,0,3.1032e+08,22.641,12723,702.88,0,702.88,0,0.00070191,1.5163e-09,0,0.00036339,0.00013134,2.4034e+08,462.06,0,1.1572e+08,60.581,702.88,1
2344,4.36,12116,1,12116,1,0.00013555,1.0555e-09,0,0.00061689,-2.498e-05,1.575e+07,328.54,0,2.1152e+08,4.6903,12115,13336,1,13336,1,0.0013139,3.3385e-09,0,0.0013139,0.00019426,3.6541e+08,1119.7,0,4.2114e+08,177.68,13335,12118,1,12118,1,0.00013921,1.0332e-09,0,0.00059098,-2.5733e-05,4.9885e+07,296.87,0,2.1617e+08,4.0064,12117,10867,1,10867,1,-0.0010354,-1.4009e-09,0,4.1502e-05,-0.00024543,-4.2114e+08,-394.4,0,1.6879e+07,-186.95,10866,11508,1,11508,1,-0.00049328,1.4525e-11,0,0.00031257,-0.000144,-2.0062e+08,3.3602,0,1.1083e+08,-38.886,11507,12724,1,12724,1,0.00077169,2.0178e-09,0,0.00094505,9.2651e-05,2.3896e+08,624.01,0,3.1088e+08,49.864,12723,702.88,0,702.88,0,0.00070363,1.1615e-09,0,0.00036437,0.00013166,2.4071e+08,362.83,0,1.1588e+08,68.863,702.88,1
2344,4.37,12116,1,12116,1,0.00013637,1.9311e-09,0,0.00061844,-2.5131e-05,1.5782e+07,602.58,0,2.1185e+08,64.909,12115,13336,1,13336,1,0.0013176,9.4193e-09,0,0.0013176,0.00019464,3.6568e+08,2887.3,0,4.2198e+08,379.02,13335,12118,1,12118,1,0.00014004,1.1149e-09,0,0.00059291,-2.5886e-05,5.0149e+07,337.18,0,2.1656e+08,55.938,12117,10867,1,10867,1,-0.0010375,-2.6531e-09,0,4.1108e-05,-0.00024612,-4.2198e+08,-768.32,0,1.672e+07,-192.01,10866,11508,1,11508,1,-0.00049398,-3.4248e-10,0,0.00031284,-0.00014444,-2.0091e+08,-95.402,0,1.1117e+08,-8.3483,11507,12724,1,12724,1,0.00077406,4.1488e-09,0,0.00094685,9.2784e-05,2.3934e+08,1280.5,0,3.1143e+08,120.12,12723,702.88,0,702.88,0,0.00070535,2.8999e-09,0,0.00036535,0.00013198,2.4107e+08,896.15,0,1.1603e+08,104.31,702.88,1
2344,4.38,12116,1,12116,1,0.0001372,-2.1543e-09,0,0.00062,-2.5283e-05,1.5815e+07,-635.18,0,2.1218e+08,15.669,12115,13336,1,13336,1,0.0013213,4.7869e-09,0,0.0013213,0.00019503,3.6595e+08,1492.3,0,4.228e+08,223.61,13335,12118,1,12118,1,0.00014088,-1.9012e-09,0,0.00059486,-2.6041e-05,5.0415e+07,-532.74,0,2.1695e+08,12.112,12117,10867,1,10867,1,-0.0010395,-8.7602e-09,0,4.0707e-05,-0.0002468,-4.228e+08,-2651.4,0,1.6558e+07,-225.32,10866,11508,1,11508,1,-0.00049469,-4.9814e-09,0,0.0003131,-0.00014488,-2.012e+08,-1496,0,1.1152e+08,-47.033,11507,12724,1,12724,1,0.00077644,3.894e-10,0,0.00094866,9.2918e-05,2.3972e+08,118.64,0,3.1199e+08,78.328,12723,702.88,0,702.88,0,0.00070706,3.376e-09,0,0.00036634,0.0001323,2.4143e+08,1029.3,0,1.1619e+08,88.162,702.88,1
2344,4.39,12116,1,12116,1,0.00013804,1.0865e-09,0,0.00062157,-2.5437e-05,1.5847e+07,326.35,0,2.1251e+08,-29.457,12115,13336,1,13336,1,0.001325,5.3719e-09,0,0.001325,0.00019541,3.6622e+08,1670.9,0,4.2362e+08,141.02,13335,12118,1,12118,1,0.00014172,6.6668e-10,0,0.00059682,-2.6197e-05,5.0682e+07,173.57,0,2.1735e+08,-21.795,12117,10867,1,10867,1,-0.0010415,-2.1486e-09,0,4.0309e-05,-0.00024749,-4.2362e+08,-692.64,0,1.6398e+07,-232.1,10866,11508,1,11508,1,-0.0004954,-4.4276e-10,0,0.00031337,-0.00014533,-2.0149e+08,-133.7,0,1.1186e+08,-78.262,11507,12724,1,12724,1,0.00077885,2.6477e-09,0,0.00095049,9.3053e-05,2.401e+08,801.53,0,3.1255e+08,20.676,12723,702.88,0,702.88,0,0.00070879,1.9524e-09,0,0.00036733,0.00013263,2.4179e+08,616.58,0,1.1634e+08,68.234,702.88,1
2344,4.4,12116,1,12116,1,0.00013888,-1.4117e-09,0,0.00062315,-2.5591e-05,1.588e+07,-425.32,0,2.1284e+08,-0.74322,12115,13336,1,13336,1,0.0013288,3.3576e-09,0,0.0013288,0.00019579,3.6649e+08,1044.9,0,4.2446e+08,162.46,13335,12118,1,12118,1,0.00014258,-1.0317e-09,0,0.00059878,-2.6354e-05,5.0951e+07,-318.37,0,2.1774e+08,4.7339,12117,10867,1,10867,1,-0.0010436,-6.8847e-09,0,3.9903e-05,-0.00024819,-4.2446e+08,-2119.5,0,1.6234e+07,-171.15,10866,11508,1,11508,1,-0.0004961,-3.4265e-09,0,0.00031363,-0.00014578,-2.0177e+08,-1029.9,0,1.1221e+08,-54.1,11507,12724,1,12724,1,0.00078125,3.8926e-10,0,0.0009523,9.3186e-05,2.4048e+08,121.79,0,3.1311e+08,51.217,12723,702.88,0,702.88,0,0.00071053,2.4892e-09,0,0.00036833,0.00013295,2.4216e+08,769.18,0,1.165e+08,69.793,702.88,1
2344,4.41,12116,1,12116,1,0.00013972,-1.6107e-09,0,0.00062471,-2.5746e-05,1.5912e+07,-498.22,0,2.1316e+08,6.6453,12115,13336,1,13336,1,0.0013325,5.7267e-09,0,0.0013325,0.00019617,3.6673e+08,1753.3,0,4.2528e+08,204.81,13335,12118,1,12118,1,0.00014343,-1.3953e-09,0,0.00060073,-2.6511e-05,5.122e+07,-389.74,0,2.1812e+08,11.68,12117,10867,1,10867,1,-0.0010456,-8.335e-09,0,3.9488e-05,-0.00024889,-4.2528e+08,-2591.6,0,1.6067e+07,-180.14,10866,11508,1,11508,1,-0.00049679,-4.3754e-09,0,0.00031388,-0.00014622,-2.0205e+08,-1339.9,0,1.1256e+08,-54.371,11507,12724,1,12724,1,0.00078364,6.1433e-10,0,0.00095409,9.3316e-05,2.4085e+08,170.61,0,3.1366e+08,67.694,12723,702.88,0,702.88,0,0.00071224,3.3581e-09,0,0.00036932,0.00013327,2.4251e+08,1041.2,0,1.1665e+08,82.55,702.88,1
2344,4.42,12116,1,12116,1,0.00014058,6.4161e-10,0,0.0006263,-2.5902e-05,1.5945e+07,175.96,0,2.135e+08,-9.0402,12115,13336,1,13336,1,0.0013362,5.5888e-09,0,0.0013362,0.00019656,3.67e+08,1718.6,0,4.2611e+08,171.48,13335,12118,1,12118,1,0.00014429,5.8839e-10,0,0.00060272,-2.667e-05,5.1491e+07,161.14,0,2.1851e+08,-2.2139,12117,10867,1,10867,1,-0.0010476,-3.0047e-09,0,3.9075e-05,-0.00024958,-4.2611e+08,-1028.3,0,1.59e+07,-212.81,10866,11508,1,11508,1,-0.00049751,-5.8941e-10,0,0.00031414,-0.00014667,-2.0235e+08,-188.78,0,1.1291e+08,-65.012,11507,12724,1,12724,1,0.00078609,1.5789e-09,0,0.00095594,9.3452e-05,2.4124e+08,458.62,0,3.1423e+08,45.15,12723,702.88,0,702.88,0,0.000714,1.9064e-09,0,0.00037033,0.00013359,2.4288e+08,599.83,0,1.1681e+08,75.875,702.88,1
2344,4.43,12116,1,12116,1,0.00014143,2.0803e-09,0,0.00062786,-2.606e-05,1.5977e+07,625.75,0,2.1382e+08,28.801,12115,13336,1,13336,1,0.00134,9.5181e-09,0,0.00134,0.00019694,3.6724e+08,2913.9,0,4.2694e+08,316.25,13335,12118,1,12118,1,0.00014516,1.1772e-09,0,0.0006047,-2.683e-05,5.1764e+07,340.58,0,2.189e+08,29.819,12117,10867,1,10867,1,-0.0010497,-1.2588e-09,0,3.8652e-05,-0.00025028,-4.2694e+08,-430.95,0,1.573e+07,-249.93,10866,11508,1,11508,1,-0.00049819,-2.5154e-10,0,0.00031438,-0.00014712,-2.0262e+08,-77.982,0,1.1326e+08,-29.691,11507,12724,1,12724,1,0.0007885,4.1144e-09,0,0.00095772,9.3581e-05,2.416e+08,1229.6,0,3.1477e+08,86.496,12723,702.88,0,702.88,0,0.00071572,2.7522e-09,0,0.00037132,0.00013392,2.4323e+08,852.08,0,1.1696e+08,94.172,702.88,1
2344,4.44,12116,1,12116,1,0.00014229,-4.1794e-10,0,0.00062945,-2.6217e-05,1.6009e+07,-115.51,0,2.1414e+08,5.0278,12115,13336,1,13336,1,0.0013437,2.8012e-09,0,0.0013437,0.00019731,3.6749e+08,869.16,0,4.2775e+08,159.41,13335,12118,1,12118,1,0.00014603,-5.5735e-10,0,0.00060668,-2.699e-05,5.2037e+07,-154.8,0,2.1928e+08,6.4614,12117,10867,1,10867,1,-0.0010517,-2.4866e-09,0,3.823e-05,-0.00025097,-4.2775e+08,-771.37,0,1.556e+07,-150.94,10866,11508,1,11508,1,-0.00049889,-1.3754e-09,0,0.00031463,-0.00014757,-2.029e+08,-391.37,0,1.1361e+08,-30.098,11507,12724,1,12724,1,0.00079094,2.5058e-10,0,0.00095954,9.3713e-05,2.4198e+08,79.067,0,3.1533e+08,41.137,12723,702.88,0,702.88,0,0.00071746,1.1788e-09,0,0.00037233,0.00013424,2.4359e+08,368.56,0,1.1711e+08,66.06,702.88,1
2344,4.45,12116,1,12116,1,0.00014316,1.8412e-09,0,0.00063103,-2.6376e-05,1.6042e+07,562.04,0,2.1447e+08,18.147,12115,13336,1,13336,1,0.0013475,7.8162e-09,0,0.0013475,0.0001977,3.6773e+08,2381,0,4.2859e+08,255.56,13335,12118,1,12118,1,0.0001469,1.4034e-09,0,0.00060867,-2.7151e-05,5.2311e+07,412.84,0,2.1967e+08,11.411,12117,10867,1,10867,1,-0.0010537,-2.3645e-09,0,3.7802e-05,-0.00025168,-4.2859e+08,-671.07,0,1.5388e+07,-262.39,10866,11508,1,11508,1,-0.00049957,8.0918e-12,0,0.00031487,-0.00014802,-2.0318e+08,2.7308,0,1.1396e+08,-40.73,11507,12724,1,12724,1,0.00079337,3.3556e-09,0,0.00096133,9.3842e-05,2.4235e+08,1029.3,0,3.1588e+08,79.786,12723,702.88,0,702.88,0,0.00071919,2.1771e-09,0,0.00037334,0.00013456,2.4394e+08,670.09,0,1.1726e+08,90.347,702.88,1
2344,4.46,12116,1,12116,1,0.00014403,3.1107e-09,0,0.00063259,-2.6535e-05,1.6074e+07,960.51,0,2.1478e+08,34.619,12115,13336,1,13336,1,0.0013513,1.2194e-08,0,0.0013513,0.00019808,3.6797e+08,3732.8,0,4.294e+08,365.46,13335,12118,1,12118,1,0.00014778,2.3383e-09,0,0.00061064,-2.7312e-05,5.2585e+07,683.41,0,2.2004e+08,33.362,12117,10867,1,10867,1,-0.0010557,-3.5917e-09,0,3.7366e-05,-0.00025238,-4.294e+08,-1043.7,0,1.5212e+07,-273.65,10866,11508,1,11508,1,-0.00050023,-4.8197e-11,0,0.0003151,-0.00014847,-2.0345e+08,-13.54,0,1.1431e+08,-46.076,11507,12724,1,12724,1,0.00079578,6.0931e-09,0,0.00096309,9.3968e-05,2.4271e+08,1853.6,0,3.1641e+08,110.39,12723,702.88,0,702.88,0,0.00072091,3.7157e-09,0,0.00037433,0.00013488,2.4429e+08,1152.6,0,1.1741e+08,108.85,702.88,1
2344,4.47,12116,1,12116,1,0.00014489,1.7505e-09,0,0.00063415,-2.6694e-05,1.6106e+07,566.15,0,2.151e+08,33.106,12115,13336,1,13336,1,0.0013551,1.505e-08,0,0.0013551,0.00019845,3.6819e+08,4653.6,0,4.3021e+08,529.72,13335,12118,1,12118,1,0.00014865,1.2482e-10,0,0.00061261,-2.7473e-05,5.2857e+07,38.68,0,2.2042e+08,6.4462,12117,10867,1,10867,1,-0.0010577,-6.1055e-09,0,3.6927e-05,-0.00025308,-4.3021e+08,-1798,0,1.5036e+07,-374.61,10866,11508,1,11508,1,-0.0005009,-1.6324e-09,0,0.00031532,-0.00014891,-2.0372e+08,-451.92,0,1.1465e+08,-69.378,11507,12724,1,12724,1,0.0007982,4.9482e-09,0,0.00096486,9.4095e-05,2.4307e+08,1508,0,3.1695e+08,110.73,12723,702.88,0,702.88,0,0.00072263,4.7448e-09,0,0.00037533,0.0001352,2.4464e+08,1467.4,0,1.1756e+08,145.81,702.88,1
2344,4.48,12116,1,12116,1,0.00014577,5.3656e-10,0,0.00063575,-2.6855e-05,1.6138e+07,196.65,0,2.1543e+08,-14.749,12115,13336,1,13336,1,0.0013589,4.2903e-09,0,0.0013589,0.00019883,3.6843e+08,1468.3,0,4.3104e+08,240.39,13335,12118,1,12118,1,0.00014954,-7.3155e-11,0,0.00061464,-2.7637e-05,5.3135e+07,-20.675,0,2.2081e+08,-11.903,12117,10867,1,10867,1,-0.0010598,-1.7595e-09,0,3.6491e-05,-0.00025378,-4.3104e+08,-428.21,0,1.4861e+07,-239.27,10866,11508,1,11508,1,-0.00050161,-7.2488e-10,0,0.00031556,-0.00014937,-2.0401e+08,-197.37,0,1.1501e+08,-53.119,11507,12724,1,12724,1,0.00080068,1.6717e-09,0,0.00096671,9.4228e-05,2.4345e+08,545.2,0,3.1752e+08,22.863,12723,702.88,0,702.88,0,0.00072439,1.6297e-09,0,0.00037636,0.00013553,2.45e+08,522.5,0,1.1771e+08,80.187,702.88,1
2344,4.49,12116,1,12116,1,0.00014666,-1.8504e-10,0,0.00063735,-2.7019e-05,1.6171e+07,-34.455,0,2.1575e+08,-7.0679,12115,13336,1,13336,1,0.0013627,2.6505e-09,0,0.0013627,0.00019921,3.6866e+08,907.33,0,4.3186e+08,190.59,13335,12118,1,12118,1,0.00015044,-2.3415e-10,0,0.00061667,-2.7803e-05,5.3417e+07,-65.261,0,2.212e+08,-19.639,12117,10867,1,10867,1,-0.0010618,-2.1651e-09,0,3.6044e-05,-0.00025448,-4.3186e+08,-577.21,0,1.4681e+07,-138.57,10866,11508,1,11508,1,-0.00050228,-1.0241e-09,0,0.00031579,-0.00014983,-2.0429e+08,-294.56,0,1.1536e+08,-56.227,11507,12724,1,12724,1,0.00080316,4.3219e-10,0,0.00096851,9.4356e-05,2.4381e+08,141.74,0,3.1807e+08,25.71,12723,702.88,0,702.88,0,0.00072615,1.1277e-09,0,0.00037738,0.00013586,2.4535e+08,343.18,0,1.1787e+08,72.012,702.88,1
2344,4.5,12116,1,12116,1,0.00014755,3.5263e-09,0,0.00063892,-2.7181e-05,1.6203e+07,1077.3,0,2.1605e+08,49.958,12115,13336,1,13336,1,0.0013665,1.1432e-08,0,0.0013665,0.00019959,3.6887e+08,3478.3,0,4.3268e+08,386.63,13335,12118,1,12118,1,0.00015134,3.3928e-09,0,0.00061867,-2.7968e-05,5.3696e+07,1014.7,0,2.2156e+08,36.298,12117,10867,1,10867,1,-0.0010638,-3.3434e-09,0,3.5592e-05,-0.00025519,-4.3268e+08,-937.74,0,1.45e+07,-264.58,10866,11508,1,11508,1,-0.00050292,4.7443e-10,0,0.000316,-0.00015028,-2.0454e+08,133.15,0,1.1572e+08,-52.026,11507,12724,1,12724,1,0.00080559,6.3829e-09,0,0.00097024,9.4477e-05,2.4416e+08,1956.6,0,3.1859e+08,157.06,12723,702.88,0,702.88,0,0.00072786,3.3603e-09,0,0.00037838,0.00013618,2.4569e+08,1034.8,0,1.1801e+08,133.19,702.88,1
2344,4.51,12116,1,12116,1,0.00014844,2.7941e-09,0,0.00064051,-2.7345e-05,1.6235e+07,879.17,0,2.1637e+08,27.959,12115,13336,1,13336,1,0.0013703,1.0652e-08,0,0.0013703,0.00019997,3.6909e+08,3285,0,4.335e+08,455.16,13335,12118,1,12118,1,0.00015224,1.921e-09,0,0.00062069,-2.8134e-05,5.3975e+07,564.96,0,2.2195e+08,15.049,12117,10867,1,10867,1,-0.0010658,-1.6181e-09,0,3.5137e-05,-0.0002559,-4.335e+08,-434.09,0,1.4318e+07,-253.92,10866,11508,1,11508,1,-0.00050359,4.6506e-11,0,0.00031622,-0.00015074,-2.0482e+08,13.262,0,1.1607e+08,-50.069,11507,12724,1,12724,1,0.00080806,5.4555e-09,0,0.00097204,9.4605e-05,2.4453e+08,1683.7,0,3.1914e+08,81.712,12723,702.88,0,702.88,0,0.00072961,3.1504e-09,0,0.0003794,0.0001365,2.4604e+08,991.41,0,1.1816e+08,120.88,702.88,1
2344,4.52,12116,1,12116,1,0.00014934,3.5096e-09,0,0.00064209,-2.7509e-05,1.6266e+07,1099.8,0,2.1668e+08,56.382,12115,13336,1,13336,1,0.0013741,1.1908e-08,0,0.0013741,0.00020034,3.693e+08,3669.3,0,4.3431e+08,456.76,13335,12118,1,12118,1,0.00015314,2.8685e-09,0,0.0006227,-2.83e-05,5.4256e+07,831.66,0,2.2232e+08,50.312,12117,10867,1,10867,1,-0.0010678,-2.0191e-09,0,3.4676e-05,-0.00025661,-4.3431e+08,-538.13,0,1.4133e+07,-215.14,10866,11508,1,11508,1,-0.00050425,4.5866e-10,0,0.00031643,-0.00015119,-2.0508e+08,141.31,0,1.1642e+08,-38.976,11507,12724,1,12724,1,0.00081051,6.3485e-09,0,0.0009738,9.4728e-05,2.4488e+08,1982.2,0,3.1968e+08,123.79,12723,702.88,0,702.88,0,0.00073134,3.4446e-09,0,0.00038042,0.00013682,2.4638e+08,1090.8,0,1.1831e+08,132.17,702.88,1
2344,4.53,12116,1,12116,1,0.00015024,-1.3582e-09,0,0.00064369,-2.7675e-05,1.6299e+07,-360.37,0,2.17e+08,3.62,12115,13336,1,13336,1,0.0013779,4.0786e-09,0,0.0013779,0.00020072,3.6952e+08,1396.2,0,4.3511e+08,330.49,13335,12118,1,12118,1,0.00015405,-1.2857e-09,0,0.00062475,-2.8468e-05,5.4539e+07,-356.42,0,2.227e+08,-11.449,12117,10867,1,10867,1,-0.0010698,-6.2485e-09,0,3.4212e-05,-0.00025731,-4.3511e+08,-1816.4,0,1.3948e+07,-230.68,10866,11508,1,11508,1,-0.00050492,-3.4646e-09,0,0.00031665,-0.00015166,-2.0536e+08,-994.13,0,1.1678e+08,-66.962,11507,12724,1,12724,1,0.00081303,5.1157e-10,0,0.00097562,9.4856e-05,2.4525e+08,159.89,0,3.2023e+08,58.555,12723,702.88,0,702.88,0,0.0007331,2.651e-09,0,0.00038145,0.00013715,2.4673e+08,787.07,0,1.1846e+08,104.13,702.88,1
2344,4.54,12116,1,12116,1,0.00015115,1.5262e-09,0,0.00064529,-2.7842e-05,1.6331e+07,475.75,0,2.1731e+08,34.772,12115,13336,1,13336,1,0.0013818,5.7713e-09,0,0.0013818,0.00020109,3.6971e+08,1775.5,0,4.3593e+08,259.38,13335,12118,1,12118,1,0.00015497,1.0059e-09,0,0.00062679,-2.8638e-05,5.4825e+07,285.87,0,2.2307e+08,31.41,12117,10867,1,10867,1,-0.0010718,-1.1364e-09,0,3.3748e-05,-0.00025802,-4.3593e+08,-292.13,0,1.3762e+07,-186.01,10866,11508,1,11508,1,-0.00050557,2.1057e-10,0,0.00031685,-0.00015212,-2.0562e+08,63.917,0,1.1713e+08,-17.853,11507,12724,1,12724,1,0.00081552,2.7579e-09,0,0.00097739,9.4979e-05,2.456e+08,859.27,0,3.2077e+08,88.538,12723,702.88,0,702.88,0,0.00073485,1.6169e-09,0,0.00038248,0.00013748,2.4707e+08,512.05,0,1.186e+08,80.031,702.88,1
2344,4.55,12116,1,12116,1,0.00015207,1.3256e-09,0,0.00064688,-2.8009e-05,1.6363e+07,421.06,0,2.1761e+08,39.464,12115,13336,1,13336,1,0.0013856,6.7798e-09,0,0.0013856,0.00020147,3.6991e+08,2083.4,0,4.3674e+08,277.7,13335,12118,1,12118,1,0.0001559,9.4015e-10,0,0.00062883,-2.8808e-05,5.511e+07,265.5,0,2.2345e+08,30.632,12117,10867,1,10867,1,-0.0010738,-3.6456e-09,0,3.3272e-05,-0.00025874,-4.3674e+08,-1000.8,0,1.3573e+07,-217.16,10866,11508,1,11508,1,-0.00050621,-3.2218e-10,0,0.00031704,-0.00015258,-2.0588e+08,-90.091,0,1.1749e+08,-29.946,11507,12724,1,12724,1,0.000818,3.0671e-09,0,0.00097915,9.5101e-05,2.4596e+08,950.06,0,3.213e+08,116.04,12723,702.88,0,702.88,0,0.00073659,2.1733e-09,0,0.0003835,0.0001378,2.4741e+08,669.97,0,1.1875e+08,97.206,702.88,1
2344,4.56,12116,1,12116,1,0.00015298,2.9614e-09,0,0.00064847,-2.8177e-05,1.6395e+07,916.76,0,2.1792e+08,46.765,12115,13336,1,13336,1,0.0013895,9.02e-09,0,0.0013895,0.00020184,3.7011e+08,2864.1,0,4.3756e+08,406.29,13335,12118,1,12118,1,0.00015682,2.6324e-09,0,0.00063088,-2.8979e-05,5.5395e+07,772.37,0,2.2382e+08,39.624,12117,10867,1,10867,1,-0.0010758,-2.32e-09,0,3.2796e-05,-0.00025945,-4.3756e+08,-626.49,0,1.3383e+07,-213.26,10866,11508,1,11508,1,-0.00050685,3.0292e-10,0,0.00031724,-0.00015304,-2.0614e+08,88.54,0,1.1784e+08,-38.037,11507,12724,1,12724,1,0.00082049,5.407e-09,0,0.0009809,9.5223e-05,2.4631e+08,1660.7,0,3.2184e+08,128.69,12723,702.88,0,702.88,0,0.00073834,2.9114e-09,0,0.00038453,0.00013813,2.4774e+08,909.31,0,1.1889e+08,119.07,702.88,1
2344,4.57,12116,1,12116,1,0.00015391,4.2645e-10,0,0.00065008,-2.8347e-05,1.6427e+07,167.47,0,2.1823e+08,38.627,12115,13336,1,13336,1,0.0013933,4.7498e-09,0,0.0013933,0.00020222,3.7031e+08,1475.3,0,4.3836e+08,339.47,13335,12118,1,12118,1,0.00015776,2.2156e-10,0,0.00063295,-2.9151e-05,5.5684e+07,73.215,0,2.2419e+08,17.794,12117,10867,1,10867,1,-0.0010778,-1.9692e-09,0,3.2311e-05,-0.00026017,-4.3836e+08,-517.06,0,1.319e+07,-146.51,10866,11508,1,11508,1,-0.00050751,-1.0084e-09,0,0.00031744,-0.00015351,-2.0641e+08,-260.19,0,1.182e+08,-20.885,11507,12724,1,12724,1,0.00082302,1.5912e-09,0,0.0009827,9.5348e-05,2.4667e+08,503.51,0,3.2238e+08,79.073,12723,702.88,0,702.88,0,0.00074011,1.7062e-09,0,0.00038557,0.00013846,2.4809e+08,521.25,0,1.1904e+08,89.803,702.88,1
2344,4.58,12116,1,12116,1,0.00015483,2.6017e-09,0,0.00065165,-2.8516e-05,1.6459e+07,808.91,0,2.1853e+08,83.994,12115,13336,1,13336,1,0.0013971,1.487e-08,0,0.0013971,0.00020259,3.7048e+08,4529.2,0,4.3916e+08,513.23,13335,12118,1,12118,1,0.00015869,1.4342e-09,0,0.00063498,-2.9322e-05,5.597e+07,416.25,0,2.2455e+08,68.673,12117,10867,1,10867,1,-0.0010797,-6.1878e-09,0,3.1821e-05,-0.00026087,-4.3916e+08,-1745.6,0,1.2995e+07,-258.99,10866,11508,1,11508,1,-0.00050811,-7.8089e-10,0,0.00031761,-0.00015396,-2.0666e+08,-212.11,0,1.1855e+08,-30.336,11507,12724,1,12724,1,0.00082549,5.7631e-09,0,0.0009844,9.5462e-05,2.47e+08,1746.2,0,3.2289e+08,175.59,12723,702.88,0,702.88,0,0.00074182,4.6194e-09,0,0.00038659,0.00013877,2.4841e+08,1411.3,0,1.1918e+08,146.38,702.88,1
2344,4.59,12116,1,12116,1,0.00015576,-2.3672e-09,0,0.00065327,-2.8686e-05,1.6491e+07,-672.62,0,2.1884e+08,-7.6495,12115,13336,1,13336,1,0.001401,2.3177e-09,0,0.001401,0.00020296,3.7068e+08,738.3,0,4.3997e+08,367.76,13335,12118,1,12118,1,0.00015963,-2.2568e-09,0,0.00063706,-2.9495e-05,5.6259e+07,-639.63,0,2.2493e+08,-4.389,12117,10867,1,10867,1,-0.0010817,-7.2708e-09,0,3.1336e-05,-0.00026159,-4.3997e+08,-2150.2,0,1.2802e+07,-250.82,10866,11508,1,11508,1,-0.00050877,-4.4327e-09,0,0.00031781,-0.00015443,-2.0692e+08,-1276.5,0,1.1891e+08,-91.44,11507,12724,1,12724,1,0.00082803,-2.0962e-10,0,0.0009862,9.5587e-05,2.4736e+08,-56.167,0,3.2344e+08,46.328,12723,702.88,0,702.88,0,0.00074359,2.5172e-09,0,0.00038764,0.0001391,2.4875e+08,737.61,0,1.1933e+08,122.66,702.88,1
2344,4.6,12116,1,12116,1,0.0001567,-5.2224e-10,0,0.00065485,-2.8858e-05,1.6523e+07,-155.71,0,2.1914e+08,23.138,12115,13336,1,13336,1,0.0014048,7.2247e-09,0,0.0014048,0.00020333,3.7084e+08,2166.6,0,4.4077e+08,390.11,13335,12118,1,12118,1,0.00016058,-6.7636e-10,0,0.00063912,-2.967e-05,5.655e+07,-195.79,0,2.2529e+08,19.669,12117,10867,1,10867,1,-0.0010837,-5.4461e-09,0,3.0843e-05,-0.0002623,-4.4077e+08,-1667.6,0,1.2607e+07,-241.46,10866,11508,1,11508,1,-0.00050939,-2.7015e-09,0,0.00031798,-0.0001549,-2.0718e+08,-803.5,0,1.1927e+08,-53.242,11507,12724,1,12724,1,0.00083054,9.2313e-10,0,0.00098793,9.5704e-05,2.477e+08,244.83,0,3.2397e+08,86.92,12723,702.88,0,702.88,0,0.00074533,2.7615e-09,0,0.00038867,0.00013943,2.4908e+08,845.11,0,1.1947e+08,113.57,702.88,1
2344,4.61,12116,1,12116,1,0.00015764,-1.8721e-09,0,0.00065648,-2.9032e-05,1.6555e+07,-567.78,0,2.1944e+08,-20.082,12115,13336,1,13336,1,0.0014088,7.7625e-10,0,0.0014088,0.00020371,3.7103e+08,172.74,0,4.4158e+08,278.53,13335,12118,1,12118,1,0.00016153,-1.8547e-09,0,0.00064122,-2.9846e-05,5.6842e+07,-548.08,0,2.2567e+08,-16.53,12117,10867,1,10867,1,-0.0010857,-4.198e-09,0,3.0345e-05,-0.00026303,-4.4158e+08,-1330.9,0,1.241e+07,-342.24,10866,11508,1,11508,1,-0.00051003,-2.9485e-09,0,0.00031816,-0.00015537,-2.0744e+08,-891.12,0,1.1963e+08,-72.693,11507,12724,1,12724,1,0.00083308,-8.6976e-10,0,0.00098972,9.5826e-05,2.4805e+08,-238.17,0,3.245e+08,39.986,12723,702.88,0,702.88,0,0.00074711,1.2743e-09,0,0.00038973,0.00013976,2.4942e+08,399.41,0,1.1961e+08,116.38,702.88,1
2344,4.62,12116,1,12116,1,0.0001586,-2.384e-10,0,0.00065809,-2.9207e-05,1.6587e+07,-88.712,0,2.1974e+08,35.745,12115,13336,1,13336,1,0.0014127,2.7836e-09,0,0.0014127,0.00020408,3.7119e+08,754.61,0,4.4239e+08,291.92,13335,12118,1,12118,1,0.00016249,-1.3755e-10,0,0.00064331,-3.0023e-05,5.7137e+07,-44.45,0,2.2603e+08,22.195,12117,10867,1,10867,1,-0.0010877,-2.4618e-09,0,2.9832e-05,-0.00026375,-4.4239e+08,-788.77,0,1.2207e+07,-100.11,10866,11508,1,11508,1,-0.00051066,-1.132e-09,0,0.00031833,-0.00015584,-2.0769e+08,-353.41,0,1.1999e+08,-17.891,11507,12724,1,12724,1,0.00083564,5.3098e-10,0,0.00099148,9.5944e-05,2.484e+08,132.91,0,3.2504e+08,76.562,12723,702.88,0,702.88,0,0.00074887,1.1253e-09,0,0.00039078,0.00014009,2.4975e+08,338.19,0,1.1975e+08,77.65,702.88,1
2344,4.63,12116,1,12116,1,0.00015955,-1.0404e-10,0,0.0006597,-2.9382e-05,1.6619e+07,-43.262,0,2.2004e+08,49.831,12115,13336,1,13336,1,0.0014166,2.2735e-09,0,0.0014166,0.00020445,3.7135e+08,603.51,0,4.4319e+08,348.47,13335,12118,1,12118,1,0.00016346,-8.9502e-11,0,0.00064541,-3.02e-05,5.7432e+07,-28.563,0,2.264e+08,22.724,12117,10867,1,10867,1,-0.0010896,-2.1912e-09,0,2.9321e-05,-0.00026447,-4.4319e+08,-568.26,0,1.2005e+07,-64.019,10866,11508,1,11508,1,-0.00051127,-6.7448e-10,0,0.00031849,-0.00015631,-2.0794e+08,-211.67,0,1.2035e+08,-2.0201,11507,12724,1,12724,1,0.00083819,4.1957e-10,0,0.00099322,9.6062e-05,2.4874e+08,107.68,0,3.2556e+08,83.572,12723,702.88,0,702.88,0,0.00075063,7.5897e-10,0,0.00039182,0.00014041,2.5008e+08,221.09,0,1.1989e+08,82.503,702.88,1
2344,4.64,12116,1,12116,1,0.00016051,-2.8712e-10,0,0.00066131,-2.9558e-05,1.665e+07,-94.173,0,2.2034e+08,34.04,12115,13336,1,13336,1,0.0014205,2.2644e-09,0,0.0014205,0.00020482,3.7151e+08,582.3,0,4.4399e+08,318.17,13335,12118,1,12118,1,0.00016443,-3.4284e-10,0,0.00064751,-3.0379e-05,5.7728e+07,-103.43,0,2.2676e+08,14.147,12117,10867,1,10867,1,-0.0010916,-1.4241e-09,0,2.8805e-05,-0.0002652,-4.4399e+08,-462.38,0,1.1802e+07,-118.08,10866,11508,1,11508,1,-0.00051189,-7.5474e-10,0,0.00031866,-0.00015678,-2.0819e+08,-229.27,0,1.2071e+08,-20.171,11507,12724,1,12724,1,0.00084073,9.3394e-11,0,0.00099496,9.6178e-05,2.4908e+08,23.341,0,3.2609e+08,62.48,12723,702.88,0,702.88,0,0.00075239,6.4193e-10,0,0.00039288,0.00014074,2.504e+08,195.34,0,1.2004e+08,82.757,702.88,1
2344,4.65,12116,1,12116,1,0.00016147,1.2664e-09,0,0.00066291,-2.9734e-05,1.6682e+07,372.48,0,2.2063e+08,72.267,12115,13336,1,13336,1,0.0014243,4.245e-09,0,0.0014243,0.00020518,3.7167e+08,1202,0,4.4478e+08,364.2,13335,12118,1,12118,1,0.0001654,1.1763e-09,0,0.0006496,-3.0557e-05,5.8024e+07,347.59,0,2.2712e+08,43.828,12117,10867,1,10867,1,-0.0010936,-2.9542e-09,0,2.8284e-05,-0.00026592,-4.4478e+08,-756.97,0,1.1596e+07,-105.85,10866,11508,1,11508,1,-0.00051249,3.4605e-10,0,0.00031881,-0.00015726,-2.0844e+08,99.676,0,1.2107e+08,6.3614,11507,12724,1,12724,1,0.00084329,2.2842e-09,0,0.00099669,9.6292e-05,2.4941e+08,668.45,0,3.2661e+08,119.6,12723,702.88,0,702.88,0,0.00075414,1.335e-09,0,0.00039392,0.00014107,2.5072e+08,375.11,0,1.2017e+08,91.346,702.88,1
2344,4.66,12116,1,12116,1,0.00016244,-1.3915e-09,0,0.00066453,-2.9912e-05,1.6714e+07,-407.27,0,2.2093e+08,63.217,12115,13336,1,13336,1,0.0014283,3.2179e-09,0,0.0014283,0.00020556,3.7183e+08,852.96,0,4.4559e+08,308.71,13335,12118,1,12118,1,0.00016637,-1.1717e-09,0,0.00065172,-3.0737e-05,5.8321e+07,-335.91,0,2.2748e+08,55.612,12117,10867,1,10867,1,-0.0010955,-5.3738e-09,0,2.7762e-05,-0.00026665,-4.4559e+08,-1593.3,0,1.1391e+07,-100.56,10866,11508,1,11508,1,-0.0005131,-3.0404e-09,0,0.00031897,-0.00015773,-2.0868e+08,-862.61,0,1.2143e+08,-0.85973,11507,12724,1,12724,1,0.00084585,5.674e-11,0,0.00099844,9.6409e-05,2.4975e+08,17.57,0,3.2713e+08,113.26,12723,702.88,0,702.88,0,0.00075591,1.9426e-09,0,0.00039498,0.0001414,2.5105e+08,567.22,0,1.2032e+08,84.799,702.88,1
2344,4.67,12116,1,12116,1,0.00016342,8.2385e-10,0,0.00066615,-3.0091e-05,1.6745e+07,237.03,0,2.2122e+08,69.642,12115,13336,1,13336,1,0.0014322,4.0581e-09,0,0.0014322,0.00020592,3.7198e+08,1092,0,4.4638e+08,391.35,13335,12118,1,12118,1,0.00016736,6.0509e-10,0,0.00065384,-3.0919e-05,5.862e+07,164.73,0,2.2784e+08,51.394,12117,10867,1,10867,1,-0.0010975,-1.0853e-09,0,2.723e-05,-0.00026737,-4.4638e+08,-255.83,0,1.1183e+07,-121.54,10866,11508,1,11508,1,-0.00051371,5.3448e-11,0,0.00031912,-0.00015821,-2.0893e+08,15.968,0,1.218e+08,-9.3481,11507,12724,1,12724,1,0.00084843,1.3875e-09,0,0.0010002,9.6524e-05,2.5009e+08,415.22,0,3.2766e+08,127.64,12723,702.88,0,702.88,0,0.00075768,1.0383e-09,0,0.00039605,0.00014173,2.5137e+08,302.36,0,1.2045e+08,106.25,702.88,1
2344,4.68,12116,1,12116,1,0.0001644,3.2301e-10,0,0.00066776,-3.027e-05,1.6777e+07,98.817,0,2.2151e+08,80.204,12115,13336,1,13336,1,0.0014361,3.4291e-09,0,0.0014361,0.00020629,3.7211e+08,980.09,0,4.4718e+08,430.55,13335,12118,1,12118,1,0.00016835,1.8018e-10,0,0.00065596,-3.1101e-05,5.892e+07,47.278,0,2.282e+08,48.679,12117,10867,1,10867,1,-0.0010994,-3.0021e-09,0,2.6695e-05,-0.0002681,-4.4718e+08,-752.97,0,1.0973e+07,-81.42,10866,11508,1,11508,1,-0.0005143,-3.1783e-10,0,0.00031926,-0.00015868,-2.0917e+08,-93.565,0,1.2216e+08,9.903,11507,12724,1,12724,1,0.000851,8.7225e-10,0,0.0010019,9.6637e-05,2.5042e+08,260.14,0,3.2817e+08,129.66,12723,702.88,0,702.88,0,0.00075944,1.0874e-09,0,0.0003971,0.00014205,2.5169e+08,310.57,0,1.2059e+08,101.97,702.88,1
2344,4.69,12116,1,12116,1,0.00016538,3.685e-10,0,0.00066937,-3.0451e-05,1.6809e+07,115.92,0,2.218e+08,76.726,12115,13336,1,13336,1,0.0014401,3.3137e-09,0,0.0014401,0.00020666,3.7225e+08,881.54,0,4.4797e+08,426.09,13335,12118,1,12118,1,0.00016934,3.8144e-10,0,0.00065808,-3.1284e-05,5.9221e+07,109.09,0,2.2856e+08,44.428,12117,10867,1,10867,1,-0.0011014,-2.8749e-09,0,2.6155e-05,-0.00026883,-4.4797e+08,-721.42,0,1.0762e+07,-113.41,10866,11508,1,11508,1,-0.0005149,-6.1523e-11,0,0.0003194,-0.00015916,-2.0941e+08,-16.997,0,1.2252e+08,-9.602,11507,12724,1,12724,1,0.00085358,9.8253e-10,0,0.0010036,9.675e-05,2.5075e+08,303.84,0,3.2869e+08,140.58,12723,702.88,0,702.88,0,0.0007612,9.4721e-10,0,0.00039817,0.00014238,2.5201e+08,267.54,0,1.2073e+08,112.13,702.88,1
2344,4.7,12116,1,12116,1,0.00016637,7.665e-10,0,0.00067098,-3.0632e-05,1.684e+07,235.89,0,2.2209e+08,98.239,12115,13336,1,13336,1,0.001444,7.8737e-09,0,0.001444,0.00020702,3.7239e+08,2341.7,0,4.4876e+08,458.91,13335,12118,1,12118,1,0.00017034,7.6142e-11,0,0.0006602,-3.1467e-05,5.9522e+07,21.742,0,2.2891e+08,71.857,12117,10867,1,10867,1,-0.0011033,-3.8425e-09,0,2.561e-05,-0.00026956,-4.4876e+08,-986.28,0,1.055e+07,-149.52,10866,11508,1,11508,1,-0.00051548,-7.5761e-10,0,0.00031953,-0.00015963,-2.0965e+08,-217.82,0,1.2288e+08,17.455,11507,12724,1,12724,1,0.00085615,2.0141e-09,0,0.0010053,9.686e-05,2.5108e+08,593.63,0,3.292e+08,174.23,12723,702.88,0,702.88,0,0.00076296,2.3948e-09,0,0.00039923,0.00014271,2.5233e+08,698.49,0,1.2087e+08,119.49,702.88,1
2344,4.71,12116,1,12116,1,0.00016736,-3.1058e-10,0,0.00067262,-3.0814e-05,1.6872e+07,-76.999,0,2.2238e+08,78.35,12115,13336,1,13336,1,0.001448,2.982e-09,0,0.001448,0.00020739,3.7252e+08,896.37,0,4.4956e+08,468.19,13335,12118,1,12118,1,0.00017134,-3.4342e-10,0,0.00066235,-3.1652e-05,5.9825e+07,-94.502,0,2.2927e+08,50.119,12117,10867,1,10867,1,-0.0011053,-4.363e-09,0,2.5063e-05,-0.0002703,-4.4956e+08,-1133.8,0,1.0336e+07,-118.43,10866,11508,1,11508,1,-0.00051608,-1.0836e-09,0,0.00031967,-0.00016012,-2.0989e+08,-315.12,0,1.2325e+08,1.4242,11507,12724,1,12724,1,0.00085876,5.288e-10,0,0.0010071,9.6974e-05,2.5141e+08,164.85,0,3.2973e+08,138.4,12723,702.88,0,702.88,0,0.00076474,1.3408e-09,0,0.00040031,0.00014304,2.5265e+08,390.32,0,1.2101e+08,110.46,702.88,1
2344,4.72,12116,1,12116,1,0.00016837,-1.7222e-09,0,0.00067425,-3.0999e-05,1.6904e+07,-501.94,0,2.2266e+08,55.23,12115,13336,1,13336,1,0.001452,2.874e-09,0,0.001452,0.00020776,3.7266e+08,752.87,0,4.5036e+08,544.57,13335,12118,1,12118,1,0.00017236,-1.5493e-09,0,0.00066451,-3.1839e-05,6.0131e+07,-429.66,0,2.2962e+08,34.99,12117,10867,1,10867,1,-0.0011073,-6.0157e-09,0,2.4504e-05,-0.00027104,-4.5036e+08,-1799.4,0,1.0119e+07,-169.41,10866,11508,1,11508,1,-0.00051665,-3.3083e-09,0,0.0003198,-0.0001606,-2.1013e+08,-949.13,0,1.2362e+08,-33.43,11507,12724,1,12724,1,0.00086136,3.8899e-11,0,0.0010088,9.7084e-05,2.5174e+08,10.552,0,3.3024e+08,101.37,12723,702.88,0,702.88,0,0.00076652,2.0036e-09,0,0.00040138,0.00014337,2.5296e+08,590.53,0,1.2114e+08,125.17,702.88,1
2344,4.73,12116,1,12116,1,0.00016937,4.1848e-09,0,0.00067585,-3.1183e-05,1.6934e+07,1231.7,0,2.2294e+08,135.09,12115,13336,1,13336,1,0.0014559,1.4479e-08,0,0.0014559,0.00020813,3.7277e+08,4269.1,0,4.5115e+08,656.63,13335,12118,1,12118,1,0.00017337,3.6491e-09,0,0.00066664,-3.2025e-05,6.0435e+07,1051.8,0,2.2996e+08,98.283,12117,10867,1,10867,1,-0.0011092,-3.3858e-09,0,2.3939e-05,-0.00027177,-4.5115e+08,-869.32,0,9.9e+06,-231.89,10866,11508,1,11508,1,-0.00051721,6.6136e-10,0,0.00031992,-0.00016108,-2.1035e+08,191.38,0,1.2398e+08,1.3608,11507,12724,1,12724,1,0.00086394,7.1532e-09,0,0.0010105,9.7189e-05,2.5205e+08,2119,0,3.3057e+08,258.73,12723,702.88,0,702.88,0,0.00076826,3.9469e-09,0,0.00040245,0.00014369,2.5327e+08,1158.3,0,1.2127e+08,177.33,702.88,1
2344,4.74,12116,1,12116,1,0.00017037,1.7369e-09,0,0.00067748,-3.1367e-05,1.6966e+07,551.14,0,2.2323e+08,98.514,12115,13336,1,13336,1,0.0014599,7.8168e-09,0,0.0014599,0.00020849,3.7288e+08,2365.6,0,4.5193e+08,467.65,13335,12118,1,12118,1,0.00017438,1.0572e-09,0,0.00066879,-3.2212e-05,6.0739e+07,321.46,0,2.3032e+08,78.213,12117,10867,1,10867,1,-0.0011111,-3.0222e-09,0,2.3379e-05,-0.00027251,-4.5193e+08,-752.87,0,9.6832e+06,-186.93,10866,11508,1,11508,1,-0.0005178,1.1159e-10,0,0.00032004,-0.00016156,-2.1059e+08,35.743,0,1.2434e+08,-0.69337,11507,12724,1,12724,1,0.00086655,3.2955e-09,0,0.0010122,9.7302e-05,2.5238e+08,1022.4,0,3.3075e+08,189.16,12723,702.88,0,702.88,0,0.00077004,2.2158e-09,0,0.00040352,0.00014403,2.5358e+08,681.25,0,1.2141e+08,134.62,702.88,1
2344,4.75,12116,1,12116,1,0.00017139,2.0078e-09,0,0.00067911,-3.1554e-05,1.6997e+07,635.13,0,2.2351e+08,92.942,12115,13336,1,13336,1,0.0014639,7.8453e-09,0,0.0014639,0.00020885,3.73e+08,2372.3,0,4.5272e+08,489.88,13335,12118,1,12118,1,0.0001754,1.6802e-09,0,0.00067096,-3.2401e-05,6.1047e+07,489.78,0,2.3067e+08,69.553,12117,10867,1,10867,1,-0.0011131,-3.7051e-09,0,2.2808e-05,-0.00027325,-4.5272e+08,-932.47,0,9.4624e+06,-209.06,10866,11508,1,11508,1,-0.00051837,2.8255e-10,0,0.00032015,-0.00016204,-2.1082e+08,74.044,0,1.2471e+08,-26.592,11507,12724,1,12724,1,0.00086916,3.8031e-09,0,0.0010139,9.741e-05,2.527e+08,1179.6,0,3.3092e+08,204.01,12723,702.88,0,702.88,0,0.00077182,2.2746e-09,0,0.00040461,0.00014436,2.5389e+08,698.86,0,1.2155e+08,155.96,702.88,1
2344,4.76,12116,1,12116,1,0.00017241,1.9356e-09,0,0.00068073,-3.1741e-05,1.7029e+07,622.25,0,2.2378e+08,126.79,12115,13336,1,13336,1,0.0014679,1.0637e-08,0,0.0014679,0.00020922,3.731e+08,3204.6,0,4.5351e+08,576.2,13335,12118,1,12118,1,0.00017643,1.1851e-09,0,0.00067312,-3.2591e-05,6.1356e+07,357.67,0,2.3101e+08,91.752,12117,10867,1,10867,1,-0.001115,-5.5028e-09,0,2.2231e-05,-0.00027399,-4.5351e+08,-1426.7,0,9.24e+06,-206.14,10866,11508,1,11508,1,-0.00051892,-3.8372e-10,0,0.00032026,-0.00016252,-2.1105e+08,-92.051,0,1.2508e+08,-2.0128,11507,12724,1,12724,1,0.00087178,4.2567e-09,0,0.0010156,9.7516e-05,2.5301e+08,1312.1,0,3.3108e+08,255.56,12723,702.88,0,702.88,0,0.00077358,3.1775e-09,0,0.00040569,0.00014468,2.542e+08,956.55,0,1.2168e+08,159.46,702.88,1
2344,4.77,12116,1,12116,1,0.00017344,-1.0667e-09,0,0.00068238,-3.193e-05,1.706e+07,-263.52,0,2.2407e+08,62.486,12115,13336,1,13336,1,0.0014719,3.6286e-09,0,0.0014719,0.00020958,3.7322e+08,1107.5,0,4.5429e+08,659.98,13335,12118,1,12118,1,0.00017747,-9.4183e-10,0,0.00067531,-3.2782e-05,6.1667e+07,-260.48,0,2.3137e+08,20.603,12117,10867,1,10867,1,-0.0011169,-5.015e-09,0,2.1652e-05,-0.00027473,-4.5429e+08,-1407.4,0,9.0168e+06,-127.46,10866,11508,1,11508,1,-0.0005195,-3.0672e-09,0,0.00032037,-0.00016302,-2.1129e+08,-825.61,0,1.2544e+08,-13.891,11507,12724,1,12724,1,0.00087445,7.2499e-10,0,0.0010173,9.7626e-05,2.5334e+08,236.12,0,3.3124e+08,95.002,12723,702.88,0,702.88,0,0.00077538,2.3034e-09,0,0.00040678,0.00014502,2.5451e+08,660.66,0,1.2181e+08,134.9,702.88,1
2344,4.78,12116,1,12116,1,0.00017448,2.0769e-09,0,0.00068401,-3.212e-05,1.7092e+07,635.98,0,2.2434e+08,105.61,12115,13336,1,13336,1,0.0014759,9.5719e-09,0,0.0014759,0.00020994,3.7331e+08,2877,0,4.5508e+08,573.18,13335,12118,1,12118,1,0.00017852,1.6141e-09,0,0.0006775,-3.2975e-05,6.1979e+07,455.35,0,2.3171e+08,65.29,12117,10867,1,10867,1,-0.0011189,-3.6547e-09,0,2.1067e-05,-0.00027547,-4.5508e+08,-934.9,0,8.792e+06,-231.6,10866,11508,1,11508,1,-0.00052005,3.2741e-10,0,0.00032046,-0.00016351,-2.1151e+08,92.094,0,1.2581e+08,-24.536,11507,12724,1,12724,1,0.00087709,3.5345e-09,0,0.001019,9.773e-05,2.5365e+08,1100.4,0,3.3139e+08,233.98,12723,702.88,0,702.88,0,0.00077715,2.4471e-09,0,0.00040787,0.00014535,2.5481e+08,735.36,0,1.2195e+08,175.59,702.88,1
2344,4.79,12116,1,12116,1,0.00017552,2.1541e-09,0,0.00068566,-3.2312e-05,1.7123e+07,672.81,0,2.2462e+08,63.803,12115,13336,1,13336,1,0.00148,5.2162e-09,0,0.00148,0.00021031,3.7341e+08,1783.2,0,4.5587e+08,575.11,13335,12118,1,12118,1,0.00017957,2.1512e-09,0,0.0006797,-3.3169e-05,6.2293e+07,674.09,0,2.3206e+08,30.982,12117,10867,1,10867,1,-0.0011208,-2.3661e-09,0,2.0475e-05,-0.00027622,-4.5587e+08,-564.89,0,8.5648e+06,-249.56,10866,11508,1,11508,1,-0.00052061,7.7983e-10,0,0.00032056,-0.000164,-2.1174e+08,206.09,0,1.2618e+08,-41.522,11507,12724,1,12724,1,0.00087974,3.5455e-09,0,0.0010207,9.7837e-05,2.5397e+08,1099.6,0,3.3155e+08,139.29,12723,702.88,0,702.88,0,0.00077895,1.7153e-09,0,0.00040897,0.00014568,2.5512e+08,541.27,0,1.2208e+08,163.33,702.88,1
2344,4.8,12116,1,12116,1,0.00017656,2.229e-09,0,0.00068728,-3.2503e-05,1.7154e+07,705.52,0,2.2489e+08,97.217,12115,13336,1,13336,1,0.001484,1.0265e-08,0,0.001484,0.00021067,3.7349e+08,3057,0,4.5665e+08,646.65,13335,12118,1,12118,1,0.00018062,1.9406e-09,0,0.00068189,-3.3363e-05,6.2606e+07,553.52,0,2.324e+08,63.44,12117,10867,1,10867,1,-0.0011227,-7.4164e-09,0,1.9874e-05,-0.00027697,-4.5665e+08,-1924.9,0,8.3345e+06,-287.29,10866,11508,1,11508,1,-0.00052114,-2.6422e-10,0,0.00032064,-0.00016448,-2.1195e+08,-73.79,0,1.2655e+08,-47.009,11507,12724,1,12724,1,0.00088238,5.0779e-09,0,0.0010224,9.7938e-05,2.5427e+08,1550.6,0,3.3168e+08,228.15,12723,702.88,0,702.88,0,0.00078071,3.4292e-09,0,0.00041006,0.00014601,2.5541e+08,1022.7,0,1.2221e+08,187.27,702.88,1
2344,4.81,12116,1,12116,1,0.00017762,-3.7887e-10,0,0.00068894,-3.2696e-05,1.7186e+07,-54.445,0,2.2517e+08,67.389,12115,13336,1,13336,1,0.001488,3.4148e-09,0,0.001488,0.00021103,3.7359e+08,942.95,0,4.5742e+08,805.82,13335,12118,1,12118,1,0.00018169,-1.7561e-10,0,0.00068411,-3.3558e-05,6.2922e+07,-47.917,0,2.3275e+08,20.208,12117,10867,1,10867,1,-0.0011246,-3.634e-09,0,1.9274e-05,-0.00027772,-4.5742e+08,-963,0,8.1052e+06,-181.26,10866,11508,1,11508,1,-0.00052171,-2.1091e-09,0,0.00032074,-0.00016498,-2.1218e+08,-530.03,0,1.2692e+08,-29.28,11507,12724,1,12724,1,0.00088508,1.1126e-09,0,0.0010241,9.8046e-05,2.546e+08,368.08,0,3.3184e+08,107.07,12723,702.88,0,702.88,0,0.00078252,1.8502e-09,0,0.00041117,0.00014635,2.5572e+08,525.68,0,1.2235e+08,162.73,702.88,1
2344,4.82,12116,1,12116,1,0.00017868,1.8407e-09,0,0.00069059,-3.2891e-05,1.7217e+07,573.19,0,2.2544e+08,92.941,12115,13336,1,13336,1,0.0014921,6.0515e-09,0,0.0014921,0.00021139,3.7366e+08,1795.2,0,4.5821e+08,658.8,13335,12118,1,12118,1,0.00018276,1.6755e-09,0,0.00068634,-3.3756e-05,6.324e+07,516.66,0,2.3309e+08,45.953,12117,10867,1,10867,1,-0.0011266,-3.9152e-09,0,1.8666e-05,-0.00027847,-4.5821e+08,-957.64,0,7.8734e+06,-177.34,10866,11508,1,11508,1,-0.00052224,4.8147e-10,0,0.00032082,-0.00016548,-2.124e+08,137.35,0,1.2729e+08,-4.6105,11507,12724,1,12724,1,0.00088776,3.2963e-09,0,0.0010258,9.8148e-05,2.549e+08,999.29,0,3.3198e+08,148.64,12723,702.88,0,702.88,0,0.00078431,1.8626e-09,0,0.00041228,0.00014668,2.5602e+08,561.3,0,1.2248e+08,153.25,702.88,1
2344,4.83,12116,1,12116,1,0.00017975,-1.0269e-10,0,0.00069224,-3.3087e-05,1.7248e+07,10.805,0,2.2571e+08,109.75,12115,13336,1,13336,1,0.0014962,3.5194e-09,0,0.0014962,0.00021175,3.7374e+08,1033.3,0,4.5899e+08,696.71,13335,12118,1,12118,1,0.00018384,2.3516e-11,0,0.00068857,-3.3954e-05,6.3559e+07,6.199,0,2.3343e+08,49.068,12117,10867,1,10867,1,-0.0011285,-5.2004e-09,0,1.805e-05,-0.00027922,-4.5899e+08,-1297.7,0,7.6387e+06,-146.34,10866,11508,1,11508,1,-0.00052279,-1.2988e-09,0,0.0003209,-0.00016598,-2.1262e+08,-330.49,0,1.2766e+08,4.0537,11507,12724,1,12724,1,0.00089045,1.138e-09,0,0.0010275,9.8251e-05,2.5521e+08,365.17,0,3.3212e+08,179.44,12723,702.88,0,702.88,0,0.00078611,1.7228e-09,0,0.00041339,0.00014701,2.5632e+08,484.02,0,1.2261e+08,162.13,702.88,1
2344,4.84,12116,1,12116,1,0.00018082,3.4028e-10,0,0.00069388,-3.3284e-05,1.7279e+07,127.02,0,2.2597e+08,104.56,12115,13336,1,13336,1,0.0015002,5.8014e-09,0,0.0015002,0.00021211,3.738e+08,1526.6,0,4.5976e+08,760.43,13335,12118,1,12118,1,0.00018491,1.0967e-10,0,0.00069079,-3.4152e-05,6.3878e+07,34.66,0,2.3376e+08,51.77,12117,10867,1,10867,1,-0.0011304,-5.2082e-09,0,1.7431e-05,-0.00027997,-4.5976e+08,-1297.5,0,7.4031e+06,-188.65,10866,11508,1,11508,1,-0.00052331,-7.6388e-10,0,0.00032096,-0.00016647,-2.1283e+08,-199.23,0,1.2803e+08,-2.887,11507,12724,1,12724,1,0.00089313,1.498e-09,0,0.0010292,9.835e-05,2.5551e+08,471.22,0,3.3224e+08,162.78,12723,702.88,0,702.88,0,0.00078789,1.9187e-09,0,0.00041449,0.00014734,2.5661e+08,542.66,0,1.2273e+08,169.29,702.88,1
2344,4.85,12116,1,12116,1,0.00018189,1.1405e-09,0,0.00069553,-3.3481e-05,1.7311e+07,359,0,2.2624e+08,98.262,12115,13336,1,13336,1,0.0015043,7.3264e-09,0,0.0015043,0.00021247,3.7387e+08,2145.8,0,4.6054e+08,697.09,13335,12118,1,12118,1,0.000186,5.5336e-10,0,0.00069302,-3.4352e-05,6.4198e+07,171.36,0,2.341e+08,44.112,12117,10867,1,10867,1,-0.0011323,-4.9996e-09,0,1.681e-05,-0.00028073,-4.6054e+08,-1239.6,0,7.1674e+06,-191.58,10866,11508,1,11508,1,-0.00052384,-2.1006e-10,0,0.00032103,-0.00016697,-2.1305e+08,-52.148,0,1.2841e+08,-11.489,11507,12724,1,12724,1,0.00089583,2.3516e-09,0,0.0010309,9.8452e-05,2.5582e+08,725.6,0,3.3237e+08,179.6,12723,702.88,0,702.88,0,0.00078968,2.2121e-09,0,0.00041561,0.00014768,2.5691e+08,636.95,0,1.2286e+08,168.98,702.88,1
2344,4.86,12116,1,12116,1,0.00018297,1.0934e-09,0,0.00069718,-3.3678e-05,1.7341e+07,349.63,0,2.265e+08,114.42,12115,13336,1,13336,1,0.0015084,6.9714e-09,0,0.0015084,0.00021283,3.7393e+08,2039.4,0,4.6131e+08,784.76,13335,12118,1,12118,1,0.00018708,5.7865e-10,0,0.00069526,-3.4552e-05,6.4518e+07,173.43,0,2.3444e+08,73.463,12117,10867,1,10867,1,-0.0011342,-4.6354e-09,0,1.6181e-05,-0.00028148,-4.6131e+08,-1133,0,6.9289e+06,-187.11,10866,11508,1,11508,1,-0.00052436,-3.8647e-10,0,0.00032109,-0.00016747,-2.1326e+08,-97.828,0,1.2878e+08,7.088,11507,12724,1,12724,1,0.00089853,2.5638e-09,0,0.0010325,9.8551e-05,2.5612e+08,794.83,0,3.325e+08,171.09,12723,702.88,0,702.88,0,0.00079148,2.2546e-09,0,0.00041672,0.00014801,2.572e+08,656.11,0,1.2299e+08,171.16,702.88,1
2344,4.87,12116,1,12116,1,0.00018405,2.2464e-09,0,0.00069883,-3.3878e-05,1.7373e+07,691.9,0,2.2677e+08,114.2,12115,13336,1,13336,1,0.0015125,8.6658e-09,0,0.0015125,0.00021319,3.74e+08,2551.6,0,4.6209e+08,821.1,13335,12118,1,12118,1,0.00018818,1.8026e-09,0,0.00069751,-3.4754e-05,6.4841e+07,552.36,0,2.3477e+08,59.582,12117,10867,1,10867,1,-0.0011361,-4.6031e-09,0,1.5547e-05,-0.00028224,-4.6209e+08,-1105.6,0,6.6886e+06,-267.28,10866,11508,1,11508,1,-0.00052488,5.9129e-10,0,0.00032115,-0.00016797,-2.1347e+08,170.95,0,1.2915e+08,-7.3802,11507,12724,1,12724,1,0.00090123,3.8592e-09,0,0.0010342,9.865e-05,2.5641e+08,1178.4,0,3.3262e+08,196.42,12723,702.88,0,702.88,0,0.00079327,2.3882e-09,0,0.00041784,0.00014834,2.5749e+08,709.11,0,1.2312e+08,187.32,702.88,1
2344,4.88,12116,1,12116,1,0.00018515,1.8119e-09,0,0.00070049,-3.4079e-05,1.7404e+07,578.55,0,2.2703e+08,109.38,12115,13336,1,13336,1,0.0015166,8.9694e-09,0,0.0015166,0.00021355,3.7405e+08,2659.5,0,4.6287e+08,785.24,13335,12118,1,12118,1,0.00018928,1.2074e-09,0,0.00069976,-3.4957e-05,6.5164e+07,375.87,0,2.351e+08,63.515,12117,10867,1,10867,1,-0.001138,-4.9463e-09,0,1.4903e-05,-0.00028301,-4.6287e+08,-1185.9,0,6.4454e+06,-247.35,10866,11508,1,11508,1,-0.00052539,-1.4705e-10,0,0.0003212,-0.00016847,-2.1368e+08,-33.485,0,1.2953e+08,-7.3409,11507,12724,1,12724,1,0.00090394,3.576e-09,0,0.0010359,9.8748e-05,2.5671e+08,1110.1,0,3.3274e+08,196.22,12723,702.88,0,702.88,0,0.00079507,2.6383e-09,0,0.00041897,0.00014868,2.5778e+08,780.01,0,1.2325e+08,181.45,702.88,1
2344,4.89,12116,1,12116,1,0.00018624,1.6378e-09,0,0.00070214,-3.428e-05,1.7434e+07,533.91,0,2.2729e+08,119.92,12115,13336,1,13336,1,0.0015207,8.9663e-09,0,0.0015207,0.0002139,3.7409e+08,2671.2,0,4.6364e+08,840.19,13335,12118,1,12118,1,0.00019039,1.1967e-09,0,0.00070202,-3.516e-05,6.5489e+07,372.11,0,2.3543e+08,70.885,12117,10867,1,10867,1,-0.0011399,-6.6242e-09,0,1.4257e-05,-0.00028377,-4.6364e+08,-1623,0,6.2015e+06,-259.52,10866,11508,1,11508,1,-0.0005259,-2.437e-10,0,0.00032125,-0.00016897,-2.1389e+08,-66.384,0,1.299e+08,-6.5987,11507,12724,1,12724,1,0.00090666,3.4877e-09,0,0.0010375,9.8845e-05,2.5701e+08,1071.1,0,3.3285e+08,213.8,12723,702.88,0,702.88,0,0.00079687,2.7475e-09,0,0.00042009,0.00014901,2.5807e+08,807.28,0,1.2338e+08,196.19,702.88,1
2344,4.9,12116,1,12116,1,0.00018735,-9.5558e-10,0,0.00070382,-3.4484e-05,1.7466e+07,-220,0,2.2755e+08,93.551,12115,13336,1,13336,1,0.0015248,3.6291e-09,0,0.0015248,0.00021426,3.7415e+08,1242.5,0,4.644e+08,1034.2,13335,12118,1,12118,1,0.00019151,-6.251e-10,0,0.00070431,-3.5366e-05,6.5817e+07,-173.19,0,2.3577e+08,24.42,12117,10867,1,10867,1,-0.0011418,-5.6435e-09,0,1.3605e-05,-0.00028453,-4.644e+08,-1365.5,0,5.9556e+06,-187.98,10866,11508,1,11508,1,-0.00052642,-2.4846e-09,0,0.0003213,-0.00016948,-2.141e+08,-611.93,0,1.3028e+08,-40.03,11507,12724,1,12724,1,0.00090943,5.7383e-10,0,0.0010392,9.8944e-05,2.5731e+08,189.82,0,3.3296e+08,156.63,12723,702.88,0,702.88,0,0.00079868,1.8889e-09,0,0.00042123,0.00014935,2.5836e+08,520.34,0,1.2351e+08,208.26,702.88,1
2344,4.91,12116,1,12116,1,0.00018847,6.0427e-10,0,0.00070549,-3.4688e-05,1.7497e+07,203.94,0,2.2781e+08,130.9,12115,13336,1,13336,1,0.001529,5.6356e-09,0,0.001529,0.00021461,3.7418e+08,1439.2,0,4.6517e+08,973.08,13335,12118,1,12118,1,0.00019263,4.3964e-10,0,0.0007066,-3.5573e-05,6.6146e+07,139.12,0,2.361e+08,46.081,12117,10867,1,10867,1,-0.0011437,-5.7567e-09,0,1.2949e-05,-0.00028529,-4.6517e+08,-1387.2,0,5.7085e+06,-125.25,10866,11508,1,11508,1,-0.00052692,-3.1324e-10,0,0.00032133,-0.00016999,-2.143e+08,-72.029,0,1.3065e+08,-2.0372,11507,12724,1,12724,1,0.00091218,1.6297e-09,0,0.0010409,9.9039e-05,2.576e+08,517.57,0,3.3307e+08,192.07,12723,702.88,0,702.88,0,0.00080049,1.6362e-09,0,0.00042237,0.00014969,2.5864e+08,457.76,0,1.2363e+08,211.3,702.88,1
2344,4.92,12116,1,12116,1,0.00018959,-1.8883e-09,0,0.00070715,-3.4894e-05,1.7528e+07,-525.59,0,2.2806e+08,111.91,12115,13336,1,13336,1,0.0015331,3.9772e-09,0,0.0015331,0.00021497,3.7422e+08,1075.7,0,4.6594e+08,1055.1,13335,12118,1,12118,1,0.00019376,-1.7222e-09,0,0.00070888,-3.5781e-05,6.6475e+07,-519.79,0,2.3642e+08,19.272,12117,10867,1,10867,1,-0.0011456,-7.5798e-09,0,1.2283e-05,-0.00028606,-4.6594e+08,-1875.5,0,5.4582e+06,-167.38,10866,11508,1,11508,1,-0.0005274,-3.1948e-09,0,0.00032136,-0.0001705,-2.145e+08,-874.4,0,1.3069e+08,-40.053,11507,12724,1,12724,1,0.00091493,-3.8643e-10,0,0.0010425,9.9132e-05,2.5789e+08,-110.14,0,3.3316e+08,173.93,12723,702.88,0,702.88,0,0.00080229,2.0645e-09,0,0.00042351,0.00015002,2.5893e+08,564.5,0,1.2376e+08,232.89,702.88,1
2344,4.93,12116,1,12116,1,0.00019071,-2.0271e-09,0,0.00070883,-3.51e-05,1.7559e+07,-601.13,0,2.2832e+08,120.26,12115,13336,1,13336,1,0.0015373,4.0412e-09,0,0.0015373,0.00021533,3.7425e+08,1130,0,4.6672e+08,1116.9,13335,12118,1,12118,1,0.0001949,-2.4337e-09,0,0.00071119,-3.599e-05,6.6806e+07,-700.39,0,2.3675e+08,12.758,12117,10867,1,10867,1,-0.0011475,-6.0814e-09,0,1.1617e-05,-0.00028683,-4.6672e+08,-1481.3,0,5.2081e+06,-122.99,10866,11508,1,11508,1,-0.00052791,-3.4754e-09,0,0.0003214,-0.00017101,-2.147e+08,-1062.5,0,1.307e+08,-37.408,11507,12724,1,12724,1,0.00091769,-6.8658e-10,0,0.0010442,9.9228e-05,2.5818e+08,-194.42,0,3.3327e+08,186.52,12723,702.88,0,702.88,0,0.00080411,1.7839e-09,0,0.00042466,0.00015036,2.5921e+08,529.42,0,1.2388e+08,245.55,702.88,1
2344,4.94,12116,1,12116,1,0.00019184,-1.5091e-09,0,0.00071048,-3.5307e-05,1.7589e+07,-465.09,0,2.2856e+08,193.97,12115,13336,1,13336,1,0.0015414,1.0129e-08,0,0.0015414,0.00021568,3.7426e+08,2541.5,0,4.6748e+08,1163.9,13335,12118,1,12118,1,0.00019603,-8.2693e-10,0,0.00071347,-3.6199e-05,6.7136e+07,-250.32,0,2.3707e+08,126.91,12117,10867,1,10867,1,-0.0011493,-9.518e-09,0,1.0939e-05,-0.0002876,-4.6748e+08,-2789.2,0,4.9538e+06,-112.95,10866,11508,1,11508,1,-0.00052838,-4.4493e-09,0,0.00032141,-0.00017151,-2.1489e+08,-1298.7,0,1.3071e+08,39.67,11507,12724,1,12724,1,0.00092043,8.8389e-10,0,0.0010458,9.9319e-05,2.5845e+08,228.44,0,3.3335e+08,262.09,12723,702.88,0,702.88,0,0.0008059,3.9603e-09,0,0.00042579,0.00015069,2.5948e+08,1106.7,0,1.2401e+08,226.14,702.88,1
2344,4.95,12116,1,12116,1,0.00019297,1.4018e-09,0,0.00071217,-3.5515e-05,1.762e+07,373.4,0,2.2882e+08,174.17,12115,13336,1,13336,1,0.0015456,8.6807e-09,0,0.0015456,0.00021603,3.743e+08,2376.5,0,4.6824e+08,1281.3,13335,12118,1,12118,1,0.00019718,8.7031e-10,0,0.00071579,-3.6409e-05,6.7468e+07,225.58,0,2.374e+08,121.43,12117,10867,1,10867,1,-0.0011512,-5.9415e-09,0,1.0261e-05,-0.00028837,-4.6824e+08,-1450.1,0,4.6997e+06,-213.64,10866,11508,1,11508,1,-0.00052888,-8.6553e-10,0,0.00032144,-0.00017203,-2.151e+08,-268.87,0,1.3072e+08,27.907,11507,12724,1,12724,1,0.00092323,3.6063e-09,0,0.0010475,9.9414e-05,2.5875e+08,1008.5,0,3.3345e+08,238.39,12723,702.88,0,702.88,0,0.00080773,3.1604e-09,0,0.00042694,0.00015103,2.5977e+08,881.2,0,1.2413e+08,238.26,702.88,1
2344,4.96,12116,1,12116,1,0.00019412,9.3433e-10,0,0.00071384,-3.5726e-05,1.7652e+07,267.44,0,2.2907e+08,116.93,12115,13336,1,13336,1,0.0015498,7.7266e-09,0,0.0015498,0.00021638,3.743e+08,1968.8,0,4.69e+08,1362.6,13335,12118,1,12118,1,0.00019833,6.6718e-10,0,0.00071811,-3.6623e-05,6.7804e+07,179.6,0,2.3772e+08,49.685,12117,10867,1,10867,1,-0.0011531,-5.9439e-09,0,9.5734e-06,-0.00028914,-4.69e+08,-1420.6,0,4.4421e+06,-1751.1,10866,11508,1,11508,1,-0.00052935,-3.7735e-10,0,0.00032144,-0.00017255,-2.1529e+08,-109.14,0,1.3072e+08,-41.271,11507,12724,1,12724,1,0.00092601,1.878e-09,0,0.0010491,9.9504e-05,2.5903e+08,560.81,0,3.3353e+08,199.93,12723,702.88,0,702.88,0,0.00080954,2.0424e-09,0,0.0004281,0.00015137,2.6004e+08,565.19,0,1.2426e+08,293.09,702.88,1
2344,4.97,12116,1,12116,1,0.00019527,-1.5574e-09,0,0.00071553,-3.5937e-05,1.7682e+07,-438.65,0,2.2932e+08,158.46,12115,13336,1,13336,1,0.001554,6.1955e-09,0,0.001554,0.00021674,3.7432e+08,1536,0,4.6977e+08,1270.2,13335,12118,1,12118,1,0.00019949,-8.5333e-10,0,0.00072044,-3.6836e-05,6.8139e+07,-243.31,0,2.3804e+08,84.673,12117,10867,1,10867,1,-0.001155,-8.7997e-09,0,8.8848e-06,-0.00028992,-4.6977e+08,-2316.3,0,4.1848e+06,-599.72,10866,11508,1,11508,1,-0.00052983,-3.6568e-09,0,0.00032146,-0.00017306,-2.1548e+08,-1053.9,0,1.3073e+08,-4.5061,11507,12724,1,12724,1,0.00092881,5.221e-10,0,0.0010508,9.9596e-05,2.5931e+08,163.41,0,3.3362e+08,233.29,12723,702.88,0,702.88,0,0.00081136,3.0117e-09,0,0.00042926,0.00015171,2.6032e+08,842.7,0,1.2438e+08,259.7,702.88,1
2344,4.98,12116,1,12116,1,0.00019643,2.2252e-09,0,0.0007172,-3.6149e-05,1.7713e+07,636.5,0,2.2956e+08,126.71,12115,13336,1,13336,1,0.0015582,9.7169e-09,0,0.0015582,0.00021709,3.7432e+08,2924.4,0,4.7053e+08,1411.4,13335,12118,1,12118,1,0.00020066,1.7943e-09,0,0.00072277,-3.7051e-05,6.8476e+07,490.24,0,2.3836e+08,62.895,12117,10867,1,10867,1,-0.0011569,-7.5423e-09,0,8.1808e-06,-0.0002907,-4.7053e+08,-1820.5,0,3.9219e+06,-884.94,10866,11508,1,11508,1,-0.00053029,-2.0762e-10,0,0.00032145,-0.00017358,-2.1567e+08,-54.131,0,1.3072e+08,-53.439,11507,12724,1,12724,1,0.0009316,4.6207e-09,0,0.0010524,9.9684e-05,2.5958e+08,1319.2,0,3.3369e+08,242.84,12723,702.88,0,702.88,0,0.00081317,3.2366e-09,0,0.00043041,0.00015204,2.6059e+08,906.43,0,1.245e+08,309.73,702.88,1
2344,4.99,12116,1,12116,1,0.00019759,-6.0303e-10,0,0.00071889,-3.6362e-05,1.7744e+07,-151.62,0,2.2981e+08,137.17,12115,13336,1,13336,1,0.0015624,6.3607e-09,0,0.0015624,0.00021744,3.7433e+08,1653.5,0,4.7129e+08,1271.5,13335,12118,1,12118,1,0.00020183,-5.2766e-10,0,0.00072512,-3.7267e-05,6.8814e+07,-147.85,0,2.3868e+08,31.463,12117,10867,1,10867,1,-0.0011587,-6.685e-09,0,7.4797e-06,-0.00029148,-4.7129e+08,-1704,0,3.6604e+06,-1764,10866,11508,1,11508,1,-0.00053077,-1.7771e-09,0,0.00032146,-0.0001741,-2.1586e+08,-466.32,0,1.3073e+08,-50.981,11507,12724,1,12724,1,0.00093443,5.3751e-10,0,0.0010541,9.9775e-05,2.5987e+08,152.08,0,3.3377e+08,237.54,12723,702.88,0,702.88,0,0.00081501,1.8013e-09,0,0.00043159,0.00015238,2.6087e+08,494.77,0,1.2463e+08,318.16,702.88,1
2344,5,12116,1,12116,1,0.00019876,1.0878e-09,0,0.00072056,-3.6576e-05,1.7774e+07,322.22,0,2.3005e+08,133.05,12115,13336,1,13336,1,0.0015666,1.0556e-08,0,0.0015666,0.00021779,3.7432e+08,2798,0,4.7204e+08,1453.6,13335,12118,1,12118,1,0.00020301,3.9289e-10,0,0.00072745,-3.7484e-05,6.9152e+07,111.3,0,2.3899e+08,47.218,12117,10867,1,10867,1,-0.0011606,-8.8225e-09,0,6.7677e-06,-0.00029226,-4.7204e+08,-2125.4,0,3.3951e+06,-315.99,10866,11508,1,11508,1,-0.00053121,-9.6689e-10,0,0.00032144,-0.00017462,-2.1605e+08,-267.03,0,1.3072e+08,-33.516,11507,12724,1,12724,1,0.00093723,3.0316e-09,0,0.0010557,9.9861e-05,2.6013e+08,881.96,0,3.3383e+08,208.17,12723,702.88,0,702.88,0,0.00081681,3.4226e-09,0,0.00043275,0.00015272,2.6113e+08,942.69,0,1.2475e+08,289.98,702.88,1
2344,5.01,12116,1,12116,1,0.00019993,1.1577e-09,0,0.00072227,-3.6792e-05,1.7805e+07,360.89,0,2.3029e+08,145.79,12115,13336,1,13336,1,0.0015709,6.6101e-09,0,0.0015709,0.00021814,3.7431e+08,1637.3,0,4.7281e+08,1486.1,13335,12118,1,12118,1,0.00020419,1.1952e-09,0,0.00072982,-3.7702e-05,6.9493e+07,356.2,0,2.3931e+08,32.899,12117,10867,1,10867,1,-0.0011625,-7.3627e-09,0,6.0548e-06,-0.00029304,-4.7281e+08,-1723.5,0,3.1295e+06,-272.35,10866,11508,1,11508,1,-0.00053168,2.1096e-10,0,0.00032144,-0.00017514,-2.1624e+08,52.349,0,1.3072e+08,-43.037,11507,12724,1,12724,1,0.00094007,2.2224e-09,0,0.0010573,9.9951e-05,2.6041e+08,693.56,0,3.3391e+08,238.27,12723,702.88,0,702.88,0,0.00081865,1.7683e-09,0,0.00043393,0.00015306,2.6141e+08,490.62,0,1.2487e+08,316.18,702.88,1
2344,5.02,12116,1,12116,1,0.00020112,1.2217e-09,0,0.00072396,-3.7008e-05,1.7835e+07,392.34,0,2.3053e+08,216.33,12115,13336,1,13336,1,0.0015751,8.0685e-09,0,0.0015751,0.0002185,3.743e+08,1995.6,0,4.7357e+08,1406,13335,12118,1,12118,1,0.00020539,1.1336e-09,0,0.00073219,-3.7921e-05,6.9835e+07,334.87,0,2.3963e+08,100.63,12117,10867,1,10867,1,-0.0011643,-8.5794e-09,0,5.3291e-06,-0.00029383,-4.7357e+08,-2029,0,2.8594e+06,-205.65,10866,11508,1,11508,1,-0.00053213,-1.457e-10,0,0.00032142,-0.00017566,-2.1642e+08,-31.061,0,1.3071e+08,17.108,11507,12724,1,12724,1,0.0009429,3.0225e-09,0,0.0010589,0.00010004,2.6068e+08,934.92,0,3.3397e+08,329.92,12723,702.88,0,702.88,0,0.00082049,2.6549e-09,0,0.00043511,0.0001534,2.6167e+08,732.07,0,1.2499e+08,305.78,702.88,1
2344,5.03,12116,1,12116,1,0.00020231,5.8096e-10,0,0.00072564,-3.7226e-05,1.7866e+07,210.44,0,2.3077e+08,202.09,12115,13336,1,13336,1,0.0015793,9.9607e-09,0,0.0015793,0.00021884,3.7427e+08,2498,0,4.7431e+08,1444.6,13335,12118,1,12118,1,0.00020658,4.605e-10,0,0.00073455,-3.8142e-05,7.0177e+07,140.51,0,2.3993e+08,82.214,12117,10867,1,10867,1,-0.0011662,-9.7393e-09,0,4.5965e-06,-0.00029461,-4.7431e+08,-2329,0,2.5869e+06,-214.78,10866,11508,1,11508,1,-0.00053257,-8.8213e-10,0,0.00032139,-0.00017619,-2.166e+08,-240.87,0,1.307e+08,2.0796,11507,12724,1,12724,1,0.00094574,2.5122e-09,0,0.0010605,0.00010012,2.6095e+08,779.88,0,3.3402e+08,295.96,12723,702.88,0,702.88,0,0.0008223,3.0972e-09,0,0.00043628,0.00015374,2.6193e+08,841.91,0,1.2511e+08,317.23,702.88,1
2344,5.04,12116,1,12116,1,0.0002035,-7.1311e-10,0,0.00072736,-3.7446e-05,1.7897e+07,-168.59,0,2.3101e+08,179.22,12115,13336,1,13336,1,0.0015836,6.0064e-09,0,0.0015836,0.00021919,3.7426e+08,1488.8,0,4.7507e+08,1469.1,13335,12118,1,12118,1,0.00020779,-4.3692e-10,0,0.00073695,-3.8364e-05,7.0523e+07,-115.17,0,2.4025e+08,59.449,12117,10867,1,10867,1,-0.001168,-1.0249e-08,0,3.8649e-06,-0.0002954,-4.7507e+08,-2458.9,0,2.315e+06,-184.63,10866,11508,1,11508,1,-0.00053302,-1.7612e-09,0,0.00032136,-0.00017672,-2.1678e+08,-488.02,0,1.3069e+08,-14.552,11507,12724,1,12724,1,0.00094861,8.2403e-10,0,0.0010622,0.00010021,2.6122e+08,258.88,0,3.3408e+08,255.94,12723,702.88,0,702.88,0,0.00082415,2.3979e-09,0,0.00043747,0.00015408,2.622e+08,640.1,0,1.2524e+08,313.62,702.88,1
2344,5.05,12116,1,12116,1,0.00020471,2.2751e-10,0,0.00072906,-3.7667e-05,1.7928e+07,86.125,0,2.3124e+08,203.86,12115,13336,1,13336,1,0.0015879,7.5875e-09,0,0.0015879,0.00021954,3.7423e+08,1822.4,0,4.7582e+08,1641.5,13335,12118,1,12118,1,0.00020901,3.9103e-11,0,0.00073935,-3.8588e-05,7.087e+07,10.702,0,2.4056e+08,62.739,12117,10867,1,10867,1,-0.0011699,-8.5616e-09,0,3.1223e-06,-0.0002962,-4.7582e+08,-2006.3,0,2.0391e+06,-180.07,10866,11508,1,11508,1,-0.00053346,-4.435e-10,0,0.00032133,-0.00017725,-2.1696e+08,-106.25,0,1.3067e+08,-13.154,11507,12724,1,12724,1,0.00095148,1.0947e-09,0,0.0010638,0.00010029,2.6149e+08,343.46,0,3.3413e+08,304.56,12723,702.88,0,702.88,0,0.00082599,1.8637e-09,0,0.00043867,0.00015442,2.6247e+08,496.09,0,1.2536e+08,345.23,702.88,1
2344,5.06,12116,1,12116,1,0.00020592,2.5327e-09,0,0.00073075,-3.7888e-05,1.7957e+07,753.18,0,2.3147e+08,209.12,12115,13336,1,13336,1,0.0015922,1.6621e-08,0,0.0015922,0.00021989,3.742e+08,4661.6,0,4.7658e+08,1717.9,13335,12118,1,12118,1,0.00021022,1.1681e-09,0,0.00074172,-3.8812e-05,7.1215e+07,346.14,0,2.4086e+08,124.36,12117,10867,1,10867,1,-0.0011717,-1.1099e-08,0,2.3723e-06,-0.00029699,-4.7658e+08,-2643.9,0,1.7608e+06,-342.62,10866,11508,1,11508,1,-0.00053387,-6.0935e-10,0,0.00032128,-0.00017777,-2.1713e+08,-170.13,0,1.3065e+08,10.744,11507,12724,1,12724,1,0.00095432,5.5101e-09,0,0.0010654,0.00010037,2.6174e+08,1599.1,0,3.3416e+08,317.35,12723,702.88,0,702.88,0,0.00082781,5.2127e-09,0,0.00043985,0.00015476,2.6272e+08,1432.6,0,1.2547e+08,336.37,702.88,1
2344,5.07,12116,1,12116,1,0.00020713,2.6783e-10,0,0.00073246,-3.8111e-05,1.7989e+07,132.94,0,2.317e+08,195.99,12115,13336,1,13336,1,0.0015965,7.847e-09,0,0.0015965,0.00022023,3.7416e+08,1938.6,0,4.7732e+08,1678.1,13335,12118,1,12118,1,0.00021145,2.1652e-10,0,0.00074414,-3.9037e-05,7.1563e+07,71.166,0,2.4117e+08,47.493,12117,10867,1,10867,1,-0.0011736,-9.3425e-09,0,1.6194e-06,-0.00029778,-4.7732e+08,-2181.5,0,1.4814e+06,-248.22,10866,11508,1,11508,1,-0.00053432,-1.1597e-09,0,0.00032124,-0.0001783,-2.1731e+08,-274.14,0,1.3064e+08,-32.91,11507,12724,1,12724,1,0.00095721,1.6545e-09,0,0.001067,0.00010046,2.6201e+08,529.59,0,3.3422e+08,295.5,12723,702.88,0,702.88,0,0.00082966,2.2768e-09,0,0.00044105,0.0001551,2.6298e+08,618.26,0,1.256e+08,377.68,702.88,1
2344,5.08,12116,1,12116,1,0.00020836,-9.6209e-10,0,0.00073417,-3.8335e-05,1.8019e+07,-229.1,0,2.3193e+08,234.08,12115,13336,1,13336,1,0.0016008,1.0576e-08,0,0.0016008,0.00022058,3.7412e+08,2610.3,0,4.7807e+08,1677.1,13335,12118,1,12118,1,0.00021268,-6.5147e-10,0,0.00074656,-3.9265e-05,7.1913e+07,-182.89,0,2.4148e+08,116.59,12117,10867,1,10867,1,-0.0011754,-1.1029e-08,0,8.5968e-07,-0.00029858,-4.7807e+08,-2598.7,0,1.1997e+06,-135.31,10866,11508,1,11508,1,-0.00053474,-3.7169e-09,0,0.0003212,-0.00017884,-2.1748e+08,-1020.8,0,1.3062e+08,25.293,11507,12724,1,12724,1,0.00096011,1.3811e-09,0,0.0010686,0.00010054,2.6226e+08,423.8,0,3.3425e+08,298.35,12723,702.88,0,702.88,0,0.0008315,3.8121e-09,0,0.00044225,0.00015545,2.6324e+08,1034.3,0,1.2571e+08,331.53,702.88,1
2344,5.09,12116,1,12116,1,0.00020959,-6.5891e-11,0,0.00073589,-3.8561e-05,1.805e+07,-1.239,0,2.3216e+08,222.11,12115,13336,1,13336,1,0.0016051,8.225e-09,0,0.0016051,0.00022093,3.7407e+08,1981.1,0,4.7882e+08,1955.6,13335,12118,1,12118,1,0.00021393,-1.6949e-10,0,0.000749,-3.9494e-05,7.2266e+07,-43.323,0,2.4178e+08,73.259,12117,10867,1,10867,1,-0.0011772,-1.1172e-08,0,9.5993e-08,-0.00029938,-4.7882e+08,-2625.9,0,9.1689e+05,-259.82,10866,11508,1,11508,1,-0.00053516,-1.0275e-09,0,0.00032114,-0.00017938,-2.1765e+08,-315.76,0,1.3059e+08,-31.686,11507,12724,1,12724,1,0.00096302,1.0862e-09,0,0.0010702,0.00010062,2.6252e+08,326.32,0,3.3429e+08,333.01,12723,702.88,0,702.88,0,0.00083335,2.4572e-09,0,0.00044347,0.00015579,2.635e+08,650.68,0,1.2583e+08,403.11,702.88,1
2344,5.1,12116,1,12116,1,0.00021083,6.8124e-10,0,0.00073764,-3.8788e-05,1.808e+07,215.2,0,2.3239e+08,259.41,12115,13336,1,13336,1,0.0016094,1.2437e-08,0,0.0016094,0.00022127,3.7401e+08,3032.9,0,4.7956e+08,1938.8,13335,12118,1,12118,1,0.00021518,3.1575e-10,0,0.00075006,-3.9723e-05,7.2618e+07,74.995,0,2.4208e+08,93.133,12117,10867,1,10867,1,-0.0011791,-1.1676e-08,0,6.6741e-07,-0.00030018,-4.7956e+08,-2749,0,6.2976e+05,-158.23,10866,11508,1,11508,1,-0.00053557,-7.4107e-10,0,0.00032243,-0.00017991,-2.1782e+08,-216.54,0,1.3057e+08,2.69,11507,12724,1,12724,1,0.00096592,2.1383e-09,0,0.0010732,0.0001007,2.6277e+08,642.57,0,3.3431e+08,371.89,12723,702.88,0,702.88,0,0.00083519,3.2281e-09,0,0.00044459,0.00015613,2.6375e+08,852.9,0,1.2595e+08,400.23,702.88,1
2344,5.11,12116,1,12116,1,0.00021208,4.9014e-10,0,0.00073943,-3.9016e-05,1.8111e+07,158.63,0,2.3261e+08,229.06,12115,13336,1,13336,1,0.0016138,8.573e-09,0,0.0016138,0.00022162,3.7396e+08,2732.2,0,4.8031e+08,1928.7,13335,12118,1,12118,1,0.00021643,3.6686e-10,0,0.00075096,-3.9954e-05,7.2973e+07,97.1,0,2.4238e+08,62.783,12117,10867,1,10867,1,-0.0011809,-8.796e-09,0,1.4443e-06,-0.00030098,-4.8031e+08,-2009.8,0,3.4188e+05,-296.36,10866,11508,1,11508,1,-0.00053598,1.1389e-11,0,0.00032392,-0.00018045,-2.1798e+08,2.9198,0,1.3054e+08,-35.678,11507,12724,1,12724,1,0.00096885,9.5655e-10,0,0.0010763,0.00010078,2.6303e+08,302.07,0,3.3435e+08,354.24,12723,702.88,0,702.88,0,0.00083705,1.8894e-09,0,0.00044571,0.00015648,2.64e+08,528.2,0,1.2607e+08,419.85,702.88,1
2344,5.12,12116,1,12116,1,0.00021333,2.8037e-10,0,0.00074121,-3.9245e-05,1.814e+07,99.74,0,2.3284e+08,306.39,12115,13336,1,13336,1,0.0016182,1.0928e-08,0,0.0016182,0.00022196,3.739e+08,2594.5,0,4.8106e+08,2144.5,13335,12118,1,12118,1,0.00021769,2.9705e-11,0,0.00075184,-4.0186e-05,7.3327e+07,9.0346,0,2.4268e+08,147.15,12117,10867,1,10867,1,-0.0011828,-1.4208e-08,0,2.2263e-06,-0.00030179,-4.8106e+08,-3328.8,0,51354,-112.35,10866,11508,1,11508,1,-0.00053638,-8.7635e-10,0,0.00032542,-0.00018099,-2.1815e+08,-238.04,0,1.3051e+08,37.343,11507,12724,1,12724,1,0.00097177,1.906e-09,0,0.0010795,0.00010085,2.6328e+08,557.38,0,3.3436e+08,410.66,12723,702.88,0,702.88,0,0.0008389,3.4422e-09,0,0.00044684,0.00015682,2.6425e+08,883.3,0,1.2619e+08,411.33,702.88,1
2344,5.13,12116,1,12116,1,0.00021458,-1.5049e-09,0,0.00074296,-3.9475e-05,1.817e+07,-397.78,0,2.3307e+08,366.02,12115,13336,1,13336,1,0.0016225,1.4694e-08,0,0.0016225,0.0002223,3.7382e+08,3551.9,0,4.8179e+08,2117,13335,12118,1,12118,1,0.00021896,-8.1769e-10,0,0.00075268,-4.0418e-05,7.3681e+07,-228.16,0,2.4297e+08,223.73,12117,10867,1,10867,1,-0.0011846,-1.6303e-08,0,3.0187e-06,-0.00030259,-4.8179e+08,-3896.1,0,2.3531e+05,-96.747,10866,11508,1,11508,1,-0.00053676,-4.6891e-09,0,0.00032692,-0.00018153,-2.183e+08,-1321.8,0,1.3048e+08,92.378,11507,12724,1,12724,1,0.00097467,1.2164e-09,0,0.0010826,0.00010093,2.6352e+08,390.75,0,3.3437e+08,476.57,12723,702.88,0,702.88,0,0.00084073,4.9267e-09,0,0.00044795,0.00015716,2.6449e+08,1302.4,0,1.2627e+08,407.42,702.88,1
2344,5.14,12116,1,12116,1,0.00021584,-8.2843e-10,0,0.00074474,-3.9705e-05,1.82e+07,-238.62,0,2.3331e+08,313.04,12115,13336,1,13336,1,0.0016268,1.4719e-08,0,0.0016268,0.00022265,3.7375e+08,3567.5,0,4.8253e+08,2225.4,13335,12118,1,12118,1,0.00022022,-6.8161e-10,0,0.00075356,-4.0652e-05,7.4036e+07,-186.37,0,2.4327e+08,124.06,12117,10867,1,10867,1,-0.0011864,-1.3876e-08,0,3.8157e-06,-0.00030339,-4.8253e+08,-3298.2,0,5.2923e+05,-855.96,10866,11508,1,11508,1,-0.00053716,-3.1289e-09,0,0.00032842,-0.00018207,-2.1846e+08,-912.52,0,1.3044e+08,34.748,11507,12724,1,12724,1,0.0009776,8.2131e-10,0,0.0010858,0.000101,2.6376e+08,214.12,0,3.3439e+08,454.98,12723,702.88,0,702.88,0,0.00084258,3.8313e-09,0,0.00044908,0.0001575,2.6474e+08,1014.6,0,1.2635e+08,444.3,702.88,1
2344,5.15,12116,1,12116,1,0.00021712,-5.1104e-10,0,0.00074655,-3.994e-05,1.8232e+07,-159.78,0,2.3356e+08,261.34,12115,13336,1,13336,1,0.0016313,1.0314e-08,0,0.0016313,0.00022299,3.7369e+08,2471.2,0,4.8329e+08,2187.2,13335,12118,1,12118,1,0.00022151,-2.4377e-10,0,0.00075445,-4.0889e-05,7.4397e+07,-72.937,0,2.4357e+08,87.962,12117,10867,1,10867,1,-0.0011882,-1.0852e-08,0,4.6175e-06,-0.00030421,-4.8329e+08,-2512.9,0,8.2534e+05,-616.91,10866,11508,1,11508,1,-0.00053757,-1.9894e-09,0,0.00032996,-0.00018262,-2.1863e+08,-602.58,0,1.3041e+08,-1.0968,11507,12724,1,12724,1,0.00098058,5.5228e-10,0,0.001089,0.00010108,2.6402e+08,125.14,0,3.3441e+08,370.08,12723,702.88,0,702.88,0,0.00084446,2.5575e-09,0,0.00045022,0.00015785,2.65e+08,693.51,0,1.2643e+08,434.3,702.88,1
2344,5.16,12116,1,12116,1,0.00021841,-2.3088e-10,0,0.00074836,-4.0176e-05,1.8262e+07,-84.224,0,2.338e+08,268.54,12115,13336,1,13336,1,0.0016357,1.0039e-08,0,0.0016357,0.00022334,3.736e+08,2429,0,4.8403e+08,2399.5,13335,12118,1,12118,1,0.00022281,-1.4269e-10,0,0.00075531,-4.1128e-05,7.4761e+07,-46.081,0,2.4386e+08,74.447,12117,10867,1,10867,1,-0.00119,-1.3017e-08,0,5.4349e-06,-0.00030503,-4.8403e+08,-3020.1,0,1.1266e+06,-923.27,10866,11508,1,11508,1,-0.00053795,-1.4049e-09,0,0.0003315,-0.00018317,-2.1878e+08,-449.1,0,1.3037e+08,-5.6252,11507,12724,1,12724,1,0.00098357,1.1007e-09,0,0.0010922,0.00010116,2.6426e+08,256.35,0,3.3441e+08,396.19,12723,702.88,0,702.88,0,0.00084634,2.6845e-09,0,0.00045137,0.0001582,2.6524e+08,706.94,0,1.265e+08,464.23,702.88,1
2344,5.17,12116,1,12116,1,0.0002197,-1.4775e-09,0,0.00075014,-4.0412e-05,1.8292e+07,-438.29,0,2.3403e+08,345.01,12115,13336,1,13336,1,0.0016401,1.2017e-08,0,0.0016401,0.00022368,3.7351e+08,2822.2,0,4.8476e+08,2446.3,13335,12118,1,12118,1,0.00022411,-1.4417e-09,0,0.00075616,-4.1367e-05,7.5123e+07,-443.51,0,2.4415e+08,142.53,12117,10867,1,10867,1,-0.0011919,-1.5011e-08,0,6.2568e-06,-0.00030585,-4.8476e+08,-3505.6,0,1.4295e+06,-77.784,10866,11508,1,11508,1,-0.00053832,-3.4371e-09,0,0.00033304,-0.00018371,-2.1893e+08,-1017.6,0,1.3033e+08,50.405,11507,12724,1,12724,1,0.00098653,1.8021e-10,0,0.0010954,0.00010123,2.6449e+08,40.731,0,3.344e+08,434.37,12723,702.88,0,702.88,0,0.00084819,3.4025e-09,0,0.00045251,0.00015855,2.6548e+08,893.26,0,1.2657e+08,471.45,702.88,1
2344,5.18,12116,1,12116,1,0.000221,-2.2298e-09,0,0.00075196,-4.0649e-05,1.8322e+07,-669.74,0,2.3427e+08,333.36,12115,13336,1,13336,1,0.0016446,1.1289e-08,0,0.0016446,0.00022402,3.7342e+08,2822.7,0,4.8551e+08,2468.1,13335,12118,1,12118,1,0.00022542,-2.8924e-09,0,0.00075702,-4.1608e-05,7.5487e+07,-796.43,0,2.4444e+08,126.66,12117,10867,1,10867,1,-0.0011937,-1.2884e-08,0,7.0778e-06,-0.00030667,-4.8551e+08,-2971.6,0,1.7316e+06,-113.66,10866,11508,1,11508,1,-0.0005387,-4.6947e-09,0,0.00033459,-0.00018426,-2.1909e+08,-1422.6,0,1.3029e+08,46.531,11507,12724,1,12724,1,0.00098952,-9.9715e-11,0,0.0010987,0.0001013,2.6473e+08,-26.737,0,3.344e+08,433.77,12723,702.88,0,702.88,0,0.00085007,3.2807e-09,0,0.00045366,0.00015889,2.6572e+08,942.55,0,1.2665e+08,477.67,702.88,1
2344,5.19,12116,1,12116,1,0.0002223,-5.8866e-10,0,0.00075375,-4.0888e-05,1.8352e+07,-227.75,0,2.345e+08,392.2,12115,13336,1,13336,1,0.001649,1.5919e-08,0,0.001649,0.00022436,3.7331e+08,3723.8,0,4.8624e+08,2751.6,13335,12118,1,12118,1,0.00022673,-1.0998e-09,0,0.00075786,-4.185e-05,7.5852e+07,-332.53,0,2.4472e+08,161.07,12117,10867,1,10867,1,-0.0011955,-1.541e-08,0,7.9085e-06,-0.00030749,-4.8624e+08,-3567,0,2.0369e+06,-102.58,10866,11508,1,11508,1,-0.00053906,-2.9125e-09,0,0.00033614,-0.00018482,-2.1924e+08,-906.96,0,1.3024e+08,55.538,11507,12724,1,12724,1,0.0009925,1.4764e-09,0,0.0011019,0.00010137,2.6497e+08,330.59,0,3.3439e+08,535.83,12723,702.88,0,702.88,0,0.00085194,3.9058e-09,0,0.00045481,0.00015924,2.6596e+08,1010.6,0,1.2672e+08,520.62,702.88,1
2344,5.2,12116,1,12116,1,0.00022361,1.4572e-09,0,0.00075557,-4.1128e-05,1.8383e+07,359.53,0,2.3473e+08,386.77,12115,13336,1,13336,1,0.0016534,1.4065e-08,0,0.0016534,0.0002247,3.7322e+08,3284,0,4.8697e+08,2883.2,13335,12118,1,12118,1,0.00022806,1.2167e-09,0,0.00075872,-4.2093e-05,7.6218e+07,340.01,0,2.4502e+08,149.48,12117,10867,1,10867,1,-0.0011973,-1.3157e-08,0,8.7474e-06,-0.00030831,-4.8697e+08,-2962,0,2.3449e+06,-113.29,10866,11508,1,11508,1,-0.00053943,-4.4631e-10,0,0.00033771,-0.00018538,-2.1939e+08,-145.76,0,1.3019e+08,22.136,11507,12724,1,12724,1,0.00099554,3.6825e-09,0,0.0011052,0.00010144,2.652e+08,921.93,0,3.3438e+08,554.42,12723,702.88,0,702.88,0,0.00085382,3.4056e-09,0,0.00045597,0.00015959,2.662e+08,878.74,0,1.268e+08,554.4,702.88,1
2344,5.21,12116,1,12116,1,0.00022494,1.0772e-09,0,0.00075738,-4.137e-05,1.8413e+07,290.65,0,2.3496e+08,389.03,12115,13336,1,13336,1,0.0016579,1.6485e-08,0,0.0016579,0.00022504,3.7311e+08,3841,0,4.877e+08,2866,13335,12118,1,12118,1,0.00022939,6.0449e-10,0,0.00075955,-4.2339e-05,7.6587e+07,180.3,0,2.453e+08,153.61,12117,10867,1,10867,1,-0.0011991,-1.6262e-08,0,9.6044e-06,-0.00030913,-4.877e+08,-3703.4,0,2.6593e+06,-92.798,10866,11508,1,11508,1,-0.00053978,-2.3209e-10,0,0.00033928,-0.00018593,-2.1953e+08,-71.374,0,1.3014e+08,38.075,11507,12724,1,12724,1,0.00099856,2.5528e-09,0,0.0011084,0.00010151,2.6543e+08,700.07,0,3.3436e+08,518.08,12723,702.88,0,702.88,0,0.00085569,3.966e-09,0,0.00045713,0.00015994,2.6643e+08,989.82,0,1.2687e+08,542.95,702.88,1
2344,5.22,12116,1,12116,1,0.00022626,-1.244e-10,0,0.00075919,-4.1612e-05,1.8443e+07,-28.163,0,2.3519e+08,447.34,12115,13336,1,13336,1,0.0016623,1.7109e-08,0,0.0016623,0.00022538,3.7299e+08,3978.3,0,4.8844e+08,2842.3,13335,12118,1,12118,1,0.00023072,-1.6451e-10,0,0.00076038,-4.2584e-05,7.6955e+07,-49.934,0,2.4558e+08,227.67,12117,10867,1,10867,1,-0.0012009,-1.6854e-08,0,1.0458e-05,-0.00030996,-4.8844e+08,-3839.8,0,2.972e+06,-135.93,10866,11508,1,11508,1,-0.00054014,-2.0528e-09,0,0.00034085,-0.00018649,-2.1967e+08,-602.34,0,1.3009e+08,97.219,11507,12724,1,12724,1,0.0010016,1.3117e-09,0,0.0011117,0.00010158,2.6566e+08,357.6,0,3.3434e+08,587.84,12723,702.88,0,702.88,0,0.00085757,4.2428e-09,0,0.00045829,0.00016029,2.6666e+08,1075.9,0,1.2694e+08,542.59,702.88,1
2344,5.23,12116,1,12116,1,0.0002276,-1.143e-09,0,0.00076101,-4.1856e-05,1.8473e+07,-322.39,0,2.3542e+08,450.2,12115,13336,1,13336,1,0.0016669,1.4835e-08,0,0.0016669,0.00022572,3.7288e+08,3443,0,4.8917e+08,3043.9,13335,12118,1,12118,1,0.00023207,-1.3647e-09,0,0.00076122,-4.2832e-05,7.7326e+07,-395.45,0,2.4586e+08,189.24,12117,10867,1,10867,1,-0.0012027,-1.8104e-08,0,1.132e-05,-0.00031079,-4.8917e+08,-4123.8,0,3.2874e+06,-89.41,10866,11508,1,11508,1,-0.00054049,-2.7175e-09,0,0.00034244,-0.00018705,-2.1981e+08,-830.62,0,1.3003e+08,56.111,11507,12724,1,12724,1,0.0010046,3.5775e-10,0,0.001115,0.00010165,2.6589e+08,79.662,0,3.3431e+08,618.95,12723,702.88,0,702.88,0,0.00085946,3.8315e-09,0,0.00045946,0.00016064,2.669e+08,992.15,0,1.2701e+08,591.02,702.88,1
2344,5.24,12116,1,12116,1,0.00022895,-8.0424e-10,0,0.00076285,-4.2103e-05,1.8504e+07,-242.96,0,2.3565e+08,450.49,12115,13336,1,13336,1,0.0016714,1.4106e-08,0,0.0016714,0.00022606,3.7276e+08,3467,0,4.8991e+08,3215.9,13335,12118,1,12118,1,0.00023343,-1.0365e-09,0,0.00076206,-4.3082e-05,7.7699e+07,-302.78,0,2.4614e+08,180.31,12117,10867,1,10867,1,-0.0012045,-1.8421e-08,0,1.2186e-05,-0.00031163,-4.8991e+08,-4176.2,0,3.6039e+06,-34.479,10866,11508,1,11508,1,-0.00054084,-2.2775e-09,0,0.00034404,-0.00018762,-2.1996e+08,-712.65,0,1.2997e+08,65.516,11507,12724,1,12724,1,0.0010077,6.7133e-10,0,0.0011183,0.00010171,2.6611e+08,140.87,0,3.3429e+08,596.28,12723,702.88,0,702.88,0,0.00086136,3.8152e-09,0,0.00046064,0.00016099,2.6713e+08,995.76,0,1.2708e+08,598.81,702.88,1
2344,5.25,12116,1,12116,1,0.0002303,-2.4374e-09,0,0.00076467,-4.235e-05,1.8532e+07,-709.45,0,2.3587e+08,542.25,12115,13336,1,13336,1,0.0016759,1.6352e-08,0,0.0016759,0.0002264,3.7263e+08,3780.2,0,4.9064e+08,3249,13335,12118,1,12118,1,0.00023479,-2.7874e-09,0,0.00076287,-4.3332e-05,7.8072e+07,-824.24,0,2.4642e+08,302.76,12117,10867,1,10867,1,-0.0012063,-2.0015e-08,0,1.3062e-05,-0.00031247,-4.9064e+08,-4566.6,0,3.9234e+06,-80.608,10866,11508,1,11508,1,-0.00054116,-5.4381e-09,0,0.00034565,-0.00018818,-2.2009e+08,-1602.8,0,1.2991e+08,146.27,11507,12724,1,12724,1,0.0010107,2.5606e-10,0,0.0011216,0.00010178,2.6633e+08,68.507,0,3.3425e+08,718.99,12723,702.88,0,702.88,0,0.00086325,4.8494e-09,0,0.00046182,0.00016134,2.6736e+08,1273.7,0,1.2715e+08,605.28,702.88,1
2344,5.26,12116,1,12116,1,0.00023166,1.1939e-09,0,0.00076651,-4.2599e-05,1.8563e+07,279.54,0,2.3609e+08,466.78,12115,13336,1,13336,1,0.0016804,1.8381e-08,0,0.0016804,0.00022673,3.7249e+08,4240.2,0,4.9136e+08,3560.3,13335,12118,1,12118,1,0.00023616,6.8005e-10,0,0.0007637,-4.3584e-05,7.8448e+07,160.38,0,2.467e+08,183.12,12117,10867,1,10867,1,-0.0012081,-1.8296e-08,0,1.3941e-05,-0.0003133,-4.9136e+08,-4116.6,0,4.2438e+06,-90.721,10866,11508,1,11508,1,-0.0005415,-9.2737e-10,0,0.00034727,-0.00018874,-2.2023e+08,-304.11,0,1.2985e+08,40.175,11507,12724,1,12724,1,0.0010138,3.5567e-09,0,0.0011249,0.00010184,2.6655e+08,869.48,0,3.3421e+08,618.31,12723,702.88,0,702.88,0,0.00086514,4.4538e-09,0,0.000463,0.00016169,2.6759e+08,1121,0,1.2722e+08,659.97,702.88,1
2344,5.27,12116,1,12116,1,0.00023303,-2.4423e-09,0,0.00076836,-4.285e-05,1.8594e+07,-718.02,0,2.3631e+08,530.92,12115,13336,1,13336,1,0.001685,1.5426e-08,0,0.001685,0.00022708,3.7236e+08,4279.1,0,4.9211e+08,3426.4,13335,12118,1,12118,1,0.00023755,-3.1346e-09,0,0.00076452,-4.3839e-05,7.8826e+07,-867.57,0,2.4697e+08,267.84,12117,10867,1,10867,1,-0.0012099,-1.9435e-08,0,1.4837e-05,-0.00031415,-4.9211e+08,-4354.9,0,4.5697e+06,-99.79,10866,11508,1,11508,1,-0.00054183,-5.2872e-09,0,0.0003489,-0.00018931,-2.2036e+08,-1592.5,0,1.2979e+08,68.78,11507,12724,1,12724,1,0.0010169,3.0721e-11,0,0.0011282,0.00010191,2.6677e+08,8.3408,0,3.3417e+08,737.23,12723,702.88,0,702.88,0,0.00086705,4.4336e-09,0,0.0004642,0.00016205,2.6781e+08,1242.7,0,1.2729e+08,668.1,702.88,1
2344,5.28,12116,1,12116,1,0.00023441,-1.108e-09,0,0.00077019,-4.3102e-05,1.8623e+07,-376.84,0,2.3653e+08,569.35,12115,13336,1,13336,1,0.0016896,2.0343e-08,0,0.0016896,0.00022741,3.722e+08,4674.2,0,4.9282e+08,3644.9,13335,12118,1,12118,1,0.00023893,-1.8644e-09,0,0.00076531,-4.4095e-05,7.9205e+07,-526.01,0,2.4724e+08,293.95,12117,10867,1,10867,1,-0.0012117,-2.0377e-08,0,1.5733e-05,-0.00031499,-4.9282e+08,-4560.3,0,4.8951e+06,-123.78,10866,11508,1,11508,1,-0.00054215,-4.057e-09,0,0.00035053,-0.00018988,-2.2049e+08,-1309.5,0,1.2971e+08,107.7,11507,12724,1,12724,1,0.00102,1.6831e-09,0,0.0011316,0.00010197,2.6698e+08,357.33,0,3.3412e+08,775.22,12723,702.88,0,702.88,0,0.00086894,5.0712e-09,0,0.00046539,0.0001624,2.6803e+08,1330.7,0,1.2735e+08,685.72,702.88,1
2344,5.29,12116,1,12116,1,0.0002358,1.6715e-09,0,0.00077205,-4.3356e-05,1.8654e+07,399.09,0,2.3675e+08,543.93,12115,13336,1,13336,1,0.0016941,2.0894e-08,0,0.0016941,0.00022774,3.7206e+08,4791,0,4.9354e+08,3991.6,13335,12118,1,12118,1,0.00024033,1.0221e-09,0,0.00076613,-4.4352e-05,7.9585e+07,287.01,0,2.4752e+08,225.95,12117,10867,1,10867,1,-0.0012134,-2.0869e-08,0,1.6637e-05,-0.00031583,-4.9354e+08,-4639,0,5.2229e+06,-88.417,10866,11508,1,11508,1,-0.00054247,-9.4073e-10,0,0.00035217,-0.00019046,-2.2062e+08,-300.93,0,1.2965e+08,46.931,11507,12724,1,12724,1,0.0010231,4.7843e-09,0,0.0011349,0.00010203,2.672e+08,1176.3,0,3.3407e+08,746.98,12723,702.88,0,702.88,0,0.00087086,5.2903e-09,0,0.00046659,0.00016275,2.6826e+08,1335.6,0,1.2742e+08,744.23,702.88,1
2344,5.3,12116,1,12116,1,0.00023719,-1.2488e-09,0,0.00077389,-4.3611e-05,1.8683e+07,-379.34,0,2.3696e+08,598.86,12115,13336,1,13336,1,0.0016987,2.2581e-08,0,0.0016987,0.00022808,3.719e+08,5166.8,0,4.9427e+08,3916.3,13335,12118,1,12118,1,0.00024174,-1.8433e-09,0,0.00076692,-4.461e-05,7.9965e+07,-547.65,0,2.4778e+08,278.57,12117,10867,1,10867,1,-0.0012152,-2.2519e-08,0,1.7559e-05,-0.00031668,-4.9427e+08,-5003.3,0,5.5564e+06,-99.181,10866,11508,1,11508,1,-0.00054277,-4.2776e-09,0,0.00035382,-0.00019103,-2.2074e+08,-1295.6,0,1.2957e+08,107.22,11507,12724,1,12724,1,0.0010262,1.1526e-09,0,0.0011383,0.00010209,2.6741e+08,254.25,0,3.3401e+08,846.89,12723,702.88,0,702.88,0,0.00087276,5.7577e-09,0,0.00046779,0.00016311,2.6847e+08,1465.4,0,1.2749e+08,745.09,702.88,1
2344,5.31,12116,1,12116,1,0.0002386,1.2657e-09,0,0.00077575,-4.3867e-05,1.8714e+07,311.73,0,2.3718e+08,553.49,12115,13336,1,13336,1,0.0017033,1.8302e-08,0,0.0017033,0.00022841,3.7174e+08,4663.3,0,4.9499e+08,4374.8,13335,12118,1,12118,1,0.00024315,1.6869e-09,0,0.00076773,-4.487e-05,8.0349e+07,479.47,0,2.4805e+08,184.97,12117,10867,1,10867,1,-0.001217,-2.4001e-08,0,1.8478e-05,-0.00031753,-4.9499e+08,-5319.7,0,5.8885e+06,-184.5,10866,11508,1,11508,1,-0.00054308,-8.7667e-10,0,0.00035548,-0.00019161,-2.2087e+08,-269.48,0,1.295e+08,13.763,11507,12724,1,12724,1,0.0010294,4.4618e-09,0,0.0011417,0.00010215,2.6762e+08,1118.7,0,3.3395e+08,751.05,12723,702.88,0,702.88,0,0.00087467,5.1735e-09,0,0.000469,0.00016346,2.6869e+08,1342.4,0,1.2755e+08,826.2,702.88,1
2344,5.32,12116,1,12116,1,0.00024001,-2.3836e-09,0,0.00077759,-4.4125e-05,1.8743e+07,-675.09,0,2.3738e+08,623.95,12115,13336,1,13336,1,0.0017079,2.1547e-08,0,0.0017079,0.00022875,3.7157e+08,4910.2,0,4.9571e+08,4158.9,13335,12118,1,12118,1,0.00024457,-2.1111e-09,0,0.00076849,-4.5131e-05,8.0732e+07,-653.17,0,2.4831e+08,308.4,12117,10867,1,10867,1,-0.0012188,-2.8938e-08,0,1.9412e-05,-0.00031838,-4.9571e+08,-6536.2,0,6.2251e+06,-196.69,10866,11508,1,11508,1,-0.00054336,-5.7432e-09,0,0.00035714,-0.00019219,-2.2098e+08,-1693.5,0,1.2941e+08,110.76,11507,12724,1,12724,1,0.0010325,1.0163e-09,0,0.001145,0.00010221,2.6781e+08,217.36,0,3.3387e+08,807.69,12723,702.88,0,702.88,0,0.00087657,6.2922e-09,0,0.0004702,0.00016381,2.689e+08,1600.5,0,1.2762e+08,798.85,702.88,1
2344,5.33,12116,1,12116,1,0.00024142,-8.7129e-10,0,0.00077947,-4.4384e-05,1.8773e+07,-294.72,0,2.376e+08,592.88,12115,13336,1,13336,1,0.0017126,2.0345e-08,0,0.0017126,0.00022908,3.714e+08,4910.1,0,4.9643e+08,4291,13335,12118,1,12118,1,0.00024599,-1.2629e-09,0,0.0007693,-4.5394e-05,8.1116e+07,-364.09,0,2.4858e+08,221.64,12117,10867,1,10867,1,-0.0012206,-2.3612e-08,0,2.0337e-05,-0.00031924,-4.9643e+08,-5227.7,0,6.5575e+06,-89.346,10866,11508,1,11508,1,-0.00054368,-2.9684e-09,0,0.00035881,-0.00019277,-2.2111e+08,-933.28,0,1.2934e+08,73.646,11507,12724,1,12724,1,0.0010356,1.4991e-09,0,0.0011485,0.00010227,2.6803e+08,341.16,0,3.3382e+08,772.83,12723,702.88,0,702.88,0,0.0008785,5.2492e-09,0,0.00047142,0.00016417,2.6912e+08,1397.8,0,1.2768e+08,818.41,702.88,1
2344,5.34,12116,1,12116,1,0.00024286,2.1591e-10,0,0.00078134,-4.4646e-05,1.8803e+07,9.8648,0,2.3781e+08,636.31,12115,13336,1,13336,1,0.0017172,2.6813e-08,0,0.0017172,0.00022942,3.7123e+08,6084.5,0,4.9716e+08,4345.2,13335,12118,1,12118,1,0.00024744,-7.2316e-10,0,0.00077008,-4.5658e-05,8.1506e+07,-205.03,0,2.4885e+08,259.69,12117,10867,1,10867,1,-0.0012223,-2.3069e-08,0,2.1282e-05,-0.0003201,-4.9716e+08,-5041.3,0,6.8965e+06,-181.32,10866,11508,1,11508,1,-0.00054397,-2.7519e-09,0,0.00036051,-0.00019335,-2.2123e+08,-827.47,0,1.2925e+08,105.39,11507,12724,1,12724,1,0.0010388,2.4014e-09,0,0.0011519,0.00010232,2.6823e+08,579.98,0,3.3374e+08,858.24,12723,702.88,0,702.88,0,0.00088043,6.0505e-09,0,0.00047265,0.00016453,2.6934e+08,1553.3,0,1.2775e+08,840.7,702.88,1
2344,5.35,12116,1,12116,1,0.0002443,8.9768e-10,0,0.00078322,-4.491e-05,1.8833e+07,206.39,0,2.3801e+08,652.43,12115,13336,1,13336,1,0.0017219,2.0548e-08,0,0.0017219,0.00022975,3.7104e+08,5577.4,0,4.9787e+08,4950.9,13335,12118,1,12118,1,0.00024889,1.519e-09,0,0.00077086,-4.5927e-05,8.1896e+07,412.16,0,2.4911e+08,220.18,12117,10867,1,10867,1,-0.0012241,-2.7461e-08,0,2.224e-05,-0.00032096,-4.9787e+08,-6021.4,0,7.2395e+06,-121.88,10866,11508,1,11508,1,-0.00054425,-1.0489e-09,0,0.00036221,-0.00019394,-2.2134e+08,-331.64,0,1.2917e+08,56.429,11507,12724,1,12724,1,0.001042,4.2026e-09,0,0.0011553,0.00010238,2.6843e+08,1039,0,3.3366e+08,879.54,12723,702.88,0,702.88,0,0.00088236,5.9147e-09,0,0.00047388,0.00016489,2.6955e+08,1574.5,0,1.2781e+08,937.25,702.88,1
2344,5.36,12116,1,12116,1,0.00024575,9.7769e-11,0,0.00078511,-4.5175e-05,1.8863e+07,8.7149,0,2.3822e+08,722.18,12115,13336,1,13336,1,0.0017266,2.7414e-08,0,0.0017266,0.00023008,3.7085e+08,6258,0,4.9859e+08,4727.8,13335,12118,1,12118,1,0.00025036,-6.6367e-10,0,0.00077164,-4.6195e-05,8.2288e+07,-194.76,0,2.4937e+08,322.57,12117,10867,1,10867,1,-0.0012259,-2.6972e-08,0,2.3207e-05,-0.00032183,-4.9859e+08,-5866.4,0,7.5845e+06,-55.826,10866,11508,1,11508,1,-0.00054453,-2.2047e-09,0,0.00036392,-0.00019453,-2.2146e+08,-660.03,0,1.2908e+08,128.06,11507,12724,1,12724,1,0.0010452,2.3678e-09,0,0.0011588,0.00010243,2.6862e+08,586.69,0,3.3358e+08,962.33,12723,702.88,0,702.88,0,0.0008843,6.5319e-09,0,0.00047512,0.00016525,2.6976e+08,1682.8,0,1.2788e+08,907.38,702.88,1
2344,5.37,12116,1,12116,1,0.00024722,1.8324e-10,0,0.000787,-4.5442e-05,1.8893e+07,39.02,0,2.3842e+08,742.25,12115,13336,1,13336,1,0.0017313,2.5133e-08,0,0.0017313,0.00023041,3.7066e+08,6479.8,0,4.9931e+08,4965.9,13335,12118,1,12118,1,0.00025183,1.3635e-10,0,0.00077241,-4.6467e-05,8.2682e+07,42.585,0,2.4963e+08,330.1,12117,10867,1,10867,1,-0.0012276,-2.9205e-08,0,2.418e-05,-0.0003227,-4.9931e+08,-6347.7,0,7.9308e+06,-60.148,10866,11508,1,11508,1,-0.0005448,-1.6792e-09,0,0.00036564,-0.00019513,-2.2157e+08,-466.83,0,1.2898e+08,130.31,11507,12724,1,12724,1,0.0010484,2.6492e-09,0,0.0011622,0.00010249,2.6882e+08,651.31,0,3.3349e+08,973.03,12723,702.88,0,702.88,0,0.00088624,6.5387e-09,0,0.00047637,0.00016561,2.6997e+08,1716.6,0,1.2794e+08,948.57,702.88,1
2344,5.38,12116,1,12116,1,0.00024869,-2.9729e-10,0,0.00078889,-4.5711e-05,1.8923e+07,-87.928,0,2.3863e+08,770.52,12115,13336,1,13336,1,0.001736,2.6232e-08,0,0.001736,0.00023075,3.7046e+08,6858.9,0,5.0003e+08,5164.8,13335,12118,1,12118,1,0.00025331,-3.7408e-10,0,0.00077317,-4.6739e-05,8.3077e+07,-102.19,0,2.4988e+08,330.51,12117,10867,1,10867,1,-0.0012294,-3.0273e-08,0,2.5161e-05,-0.00032357,-5.0003e+08,-6544.4,0,8.279e+06,-27.803,10866,11508,1,11508,1,-0.00054506,-2.1904e-09,0,0.00036737,-0.00019572,-2.2167e+08,-605.74,0,1.2889e+08,131.69,11507,12724,1,12724,1,0.0010517,1.9694e-09,0,0.0011657,0.00010254,2.6901e+08,493,0,3.3339e+08,1023.2,12723,702.88,0,702.88,0,0.00088818,6.8119e-09,0,0.00047761,0.00016597,2.7017e+08,1814.6,0,1.28e+08,991.11,702.88,1
2344,5.39,12116,1,12116,1,0.00025016,-3.1436e-09,0,0.00079078,-4.5981e-05,1.8952e+07,-880.2,0,2.3882e+08,860.72,12115,13336,1,13336,1,0.0017408,2.9902e-08,0,0.0017408,0.00023108,3.7026e+08,6714.1,0,5.0075e+08,5165.8,13335,12118,1,12118,1,0.0002548,-3.8566e-09,0,0.00077392,-4.7012e-05,8.3472e+07,-1143.1,0,2.5013e+08,480.24,12117,10867,1,10867,1,-0.0012312,-3.4943e-08,0,2.6147e-05,-0.00032444,-5.0075e+08,-7636.5,0,8.6276e+06,-144,10866,11508,1,11508,1,-0.00054531,-7.5831e-09,0,0.00036911,-0.00019631,-2.2178e+08,-2224.5,0,1.2879e+08,199.15,11507,12724,1,12724,1,0.0010549,6.6455e-10,0,0.0011692,0.00010259,2.6919e+08,134.79,0,3.3329e+08,1120,12723,702.88,0,702.88,0,0.00089012,8.3891e-09,0,0.00047886,0.00016633,2.7037e+08,2145.4,0,1.2806e+08,990.95,702.88,1
2344,5.4,12116,1,12116,1,0.00025164,1.2058e-09,0,0.00079266,-4.6251e-05,1.8982e+07,285.51,0,2.3902e+08,868.78,12115,13336,1,13336,1,0.0017455,3.7588e-08,0,0.0017455,0.0002314,3.7003e+08,8420.5,0,5.0144e+08,5517.4,13335,12118,1,12118,1,0.00025628,-1.8405e-10,0,0.00077466,-4.7286e-05,8.3867e+07,-58.362,0,2.5038e+08,479.5,12117,10867,1,10867,1,-0.0012329,-3.2611e-08,0,2.7136e-05,-0.00032531,-5.0144e+08,-7065.8,0,8.9764e+06,-146.84,10866,11508,1,11508,1,-0.00054556,-2.9165e-09,0,0.00037085,-0.00019691,-2.2187e+08,-871.05,0,1.2869e+08,184.97,11507,12724,1,12724,1,0.0010581,4.7679e-09,0,0.0011727,0.00010264,2.6937e+08,1247.6,0,3.3318e+08,1111.6,12723,702.88,0,702.88,0,0.00089204,8.744e-09,0,0.00048011,0.00016668,2.7057e+08,2161.9,0,1.2812e+08,1042.3,702.88,1
2344,5.41,12116,1,12116,1,0.00025313,-3.2382e-09,0,0.00079457,-4.6523e-05,1.9012e+07,-923.34,0,2.3922e+08,879.94,12115,13336,1,13336,1,0.0017503,2.8609e-08,0,0.0017503,0.00023174,3.6983e+08,7108.4,0,5.0217e+08,5838.8,13335,12118,1,12118,1,0.00025778,-4.0766e-09,0,0.00077541,-4.7562e-05,8.4264e+07,-1154.5,0,2.5063e+08,393.01,12117,10867,1,10867,1,-0.0012347,-3.683e-08,0,2.8136e-05,-0.0003262,-5.0217e+08,-8016.5,0,9.3278e+06,-147.6,10866,11508,1,11508,1,-0.00054581,-7.7338e-09,0,0.0003726,-0.00019751,-2.2198e+08,-2242.3,0,1.2859e+08,155.09,11507,12724,1,12724,1,0.0010614,5.9391e-10,0,0.0011762,0.00010269,2.6956e+08,128,0,3.3308e+08,1175.3,12723,702.88,0,702.88,0,0.00089399,8.098e-09,0,0.00048137,0.00016705,2.7077e+08,2124.2,0,1.2818e+08,1111.6,702.88,1
2344,5.42,12116,1,12116,1,0.00025464,-1.7299e-09,0,0.00079649,-4.6799e-05,1.9041e+07,-553.33,0,2.3941e+08,916.35,12115,13336,1,13336,1,0.0017551,3.1739e-08,0,0.0017551,0.00023207,3.6961e+08,7567.7,0,5.0288e+08,5944.5,13335,12118,1,12118,1,0.0002593,-2.6758e-09,0,0.00077617,-4.7841e-05,8.4666e+07,-774.09,0,2.5088e+08,415.19,12117,10867,1,10867,1,-0.0012364,-3.5062e-08,0,2.914e-05,-0.00032708,-5.0288e+08,-7565.9,0,9.6792e+06,-109.54,10866,11508,1,11508,1,-0.00054607,-5.8066e-09,0,0.00037437,-0.00019811,-2.2208e+08,-1784.8,0,1.2848e+08,167.64,11507,12724,1,12724,1,0.0010646,1.8562e-09,0,0.0011797,0.00010274,2.6975e+08,402.27,0,3.3297e+08,1225.7,12723,702.88,0,702.88,0,0.00089596,8.2283e-09,0,0.00048265,0.00016741,2.7098e+08,2146.2,0,1.2825e+08,1143.9,702.88,1
2344,5.43,12116,1,12116,1,0.00025616,-2.3511e-10,0,0.00079841,-4.7077e-05,1.9071e+07,-153.28,0,2.396e+08,932.13,12115,13336,1,13336,1,0.0017599,3.3856e-08,0,0.0017599,0.0002324,3.6938e+08,7768.4,0,5.0359e+08,6464.1,13335,12118,1,12118,1,0.00026083,-9.289e-10,0,0.00077691,-4.8122e-05,8.5069e+07,-273.37,0,2.5113e+08,388.42,12117,10867,1,10867,1,-0.0012381,-3.7553e-08,0,3.0164e-05,-0.00032797,-5.0359e+08,-8077,0,1.0037e+07,-57.996,10866,11508,1,11508,1,-0.0005463,-3.6311e-09,0,0.00037615,-0.00019872,-2.2217e+08,-1164.1,0,1.2837e+08,122.16,11507,12724,1,12724,1,0.0010679,3.4377e-09,0,0.0011832,0.00010278,2.6993e+08,775.01,0,3.3285e+08,1275.3,12723,702.88,0,702.88,0,0.00089792,8.5273e-09,0,0.00048392,0.00016777,2.7117e+08,2188.7,0,1.283e+08,1220.8,702.88,1
2344,5.44,12116,1,12116,1,0.00025769,9.3236e-10,0,0.00080034,-4.7357e-05,1.9101e+07,181.01,0,2.398e+08,966.51,12115,13336,1,13336,1,0.0017647,3.6067e-08,0,0.0017647,0.00023272,3.6915e+08,8298.4,0,5.043e+08,6595.3,13335,12118,1,12118,1,0.00026237,4.6415e-10,0,0.00077765,-4.8406e-05,8.5475e+07,132.59,0,2.5138e+08,417.03,12117,10867,1,10867,1,-0.0012399,-3.8146e-08,0,3.1197e-05,-0.00032886,-5.043e+08,-8164.1,0,1.0396e+07,-72.672,10866,11508,1,11508,1,-0.00054653,-2.168e-09,0,0.00037795,-0.00019933,-2.2227e+08,-679.75,0,1.2826e+08,144.85,11507,12724,1,12724,1,0.0010713,4.9237e-09,0,0.0011868,0.00010283,2.7011e+08,1148.8,0,3.3273e+08,1309.1,12723,702.88,0,702.88,0,0.0008999,8.9406e-09,0,0.00048521,0.00016814,2.7137e+08,2277.6,0,1.2837e+08,1249.8,702.88,1
2344,5.45,12116,1,12116,1,0.00025923,2.836e-09,0,0.00080226,-4.7638e-05,1.9131e+07,738.48,0,2.3998e+08,988,12115,13336,1,13336,1,0.0017695,3.9593e-08,0,0.0017695,0.00023305,3.6891e+08,8937.9,0,5.05e+08,6909,13335,12118,1,12118,1,0.00026392,3.4237e-09,0,0.00077836,-4.869e-05,8.5881e+07,920.58,0,2.5161e+08,411.13,12117,10867,1,10867,1,-0.0012416,-3.9006e-08,0,3.2244e-05,-0.00032974,-5.05e+08,-8283.8,0,1.0759e+07,-123.31,10866,11508,1,11508,1,-0.00054674,-8.8847e-10,0,0.00037974,-0.00019994,-2.2235e+08,-248.37,0,1.2814e+08,132.23,11507,12724,1,12724,1,0.0010746,6.8438e-09,0,0.0011904,0.00010287,2.7027e+08,1705.7,0,3.3259e+08,1327.8,12723,702.88,0,702.88,0,0.00090185,9.343e-09,0,0.00048649,0.0001685,2.7155e+08,2381,0,1.2842e+08,1315,702.88,1
2344,5.46,12116,1,12116,1,0.00026076,-2.1245e-09,0,0.00080417,-4.7918e-05,1.916e+07,-565.28,0,2.4016e+08,1093.2,12115,13336,1,13336,1,0.0017743,4.2317e-08,0,0.0017743,0.00023337,3.6866e+08,9355.5,0,5.057e+08,6621.3,13335,12118,1,12118,1,0.00026547,-2.5662e-09,0,0.00077907,-4.8974e-05,8.6286e+07,-763.07,0,2.5185e+08,565.42,12117,10867,1,10867,1,-0.0012433,-4.838e-08,0,3.3293e-05,-0.00033063,-5.057e+08,-10441,0,1.1121e+07,-125.02,10866,11508,1,11508,1,-0.00054695,-6.8222e-09,0,0.00038154,-0.00020055,-2.2244e+08,-1903.6,0,1.2802e+08,232.34,11507,12724,1,12724,1,0.0010779,1.9574e-09,0,0.0011939,0.00010291,2.7044e+08,513.03,0,3.3246e+08,1459.6,12723,702.88,0,702.88,0,0.0009038,1.128e-08,0,0.00048777,0.00016886,2.7174e+08,2739.7,0,1.2848e+08,1272.5,702.88,1
2344,5.47,12116,1,12116,1,0.00026231,-2.3068e-09,0,0.00080612,-4.8202e-05,1.919e+07,-657.86,0,2.4036e+08,1077.2,12115,13336,1,13336,1,0.0017792,3.8078e-08,0,0.0017792,0.00023371,3.6842e+08,8731.8,0,5.0641e+08,6987.4,13335,12118,1,12118,1,0.00026703,-2.8523e-09,0,0.00077981,-4.9262e-05,8.6695e+07,-821.98,0,2.5209e+08,481.84,12117,10867,1,10867,1,-0.0012451,-4.5975e-08,0,3.4338e-05,-0.00033154,-5.0641e+08,-9853.3,0,1.148e+07,-103.78,10866,11508,1,11508,1,-0.00054717,-6.0715e-09,0,0.00038336,-0.00020116,-2.2253e+08,-1780.6,0,1.2791e+08,181.83,11507,12724,1,12724,1,0.0010812,1.6807e-09,0,0.0011975,0.00010296,2.7061e+08,371.71,0,3.3233e+08,1464.6,12723,702.88,0,702.88,0,0.00090579,1.005e-08,0,0.00048908,0.00016923,2.7194e+08,2541.2,0,1.2854e+08,1363.5,702.88,1
2344,5.48,12116,1,12116,1,0.00026389,2.3328e-10,0,0.00080807,-4.849e-05,1.922e+07,-0.69634,0,2.4054e+08,1096.8,12115,13336,1,13336,1,0.0017841,4.0929e-08,0,0.0017841,0.00023403,3.6816e+08,9510.7,0,5.0712e+08,7544.9,13335,12118,1,12118,1,0.00026861,-3.8228e-10,0,0.00078053,-4.9553e-05,8.7107e+07,-111.39,0,2.5233e+08,464.47,12117,10867,1,10867,1,-0.0012468,-4.446e-08,0,3.5402e-05,-0.00033244,-5.0712e+08,-9418.9,0,1.1845e+07,-41.321,10866,11508,1,11508,1,-0.00054739,-2.8801e-09,0,0.0003852,-0.00020178,-2.2262e+08,-901.34,0,1.2778e+08,168.63,11507,12724,1,12724,1,0.0010846,4.0492e-09,0,0.0012012,0.000103,2.7078e+08,958.79,0,3.3219e+08,1452.7,12723,702.88,0,702.88,0,0.00090779,1.0122e-08,0,0.00049039,0.0001696,2.7213e+08,2578.4,0,1.286e+08,1427.1,702.88,1
2344,5.49,12116,1,12116,1,0.00026547,4.8369e-11,0,0.00081003,-4.8779e-05,1.9249e+07,-33.377,0,2.4072e+08,1175.1,12115,13336,1,13336,1,0.001789,4.4226e-08,0,0.001789,0.00023436,3.6789e+08,9999.4,0,5.0782e+08,7702.8,13335,12118,1,12118,1,0.0002702,-6.9156e-10,0,0.00078124,-4.9846e-05,8.7521e+07,-192.12,0,2.5257e+08,540.47,12117,10867,1,10867,1,-0.0012486,-4.766e-08,0,3.6483e-05,-0.00033335,-5.0782e+08,-10084,0,1.2214e+07,-47.58,10866,11508,1,11508,1,-0.00054758,-3.4084e-09,0,0.00038705,-0.00020241,-2.227e+08,-972.12,0,1.2766e+08,207.39,11507,12724,1,12724,1,0.001088,4.1466e-09,0,0.0012048,0.00010304,2.7094e+08,988.94,0,3.3204e+08,1567.2,12723,702.88,0,702.88,0,0.00090978,1.101e-08,0,0.0004917,0.00016997,2.7231e+08,2760,0,1.2866e+08,1463.2,702.88,1
2344,5.5,12116,1,12116,1,0.00026706,-6.4413e-10,0,0.00081199,-4.907e-05,1.9278e+07,-219.41,0,2.409e+08,1228.3,12115,13336,1,13336,1,0.001794,4.381e-08,0,0.001794,0.00023469,3.6762e+08,10525,0,5.0853e+08,8021.4,13335,12118,1,12118,1,0.00027181,-1.099e-09,0,0.00078195,-5.014e-05,8.7938e+07,-306.58,0,2.528e+08,553.76,12117,10867,1,10867,1,-0.0012503,-4.9423e-08,0,3.7569e-05,-0.00033426,-5.0853e+08,-10408,0,1.2583e+07,-27.213,10866,11508,1,11508,1,-0.00054778,-4.1005e-09,0,0.00038891,-0.00020303,-2.2278e+08,-1184.3,0,1.2753e+08,213.93,11507,12724,1,12724,1,0.0010914,3.3434e-09,0,0.0012085,0.00010308,2.7111e+08,778.7,0,3.3189e+08,1662.4,12723,702.88,0,702.88,0,0.00091178,1.1159e-08,0,0.00049303,0.00017034,2.725e+08,2853.2,0,1.2871e+08,1534.9,702.88,1
2344,5.51,12116,1,12116,1,0.00026866,8.8751e-11,0,0.00081396,-4.9363e-05,1.9308e+07,-18.178,0,2.4108e+08,1320.2,12115,13336,1,13336,1,0.0017989,4.673e-08,0,0.0017989,0.00023501,3.6735e+08,11051,0,5.0923e+08,8278.8,13335,12118,1,12118,1,0.00027342,-2.0987e-10,0,0.00078265,-5.0437e-05,8.8355e+07,-59.766,0,2.5303e+08,650.61,12117,10867,1,10867,1,-0.001252,-5.2282e-08,0,3.8666e-05,-0.00033517,-5.0923e+08,-10995,0,1.2955e+07,-46.314,10866,11508,1,11508,1,-0.00054796,-3.7042e-09,0,0.00039078,-0.00020366,-2.2285e+08,-1056.2,0,1.2739e+08,264.3,11507,12724,1,12724,1,0.0010948,4.6383e-09,0,0.0012121,0.00010312,2.7126e+08,1108.1,0,3.3173e+08,1773.9,12723,702.88,0,702.88,0,0.00091378,1.2043e-08,0,0.00049436,0.00017071,2.7268e+08,3033.5,0,1.2877e+08,1575.3,702.88,1
2344,5.52,12116,1,12116,1,0.00027028,-1.3932e-09,0,0.00081593,-4.9659e-05,1.9338e+07,-409.09,0,2.4125e+08,1380.8,12115,13336,1,13336,1,0.0018039,4.8883e-08,0,0.0018039,0.00023534,3.6707e+08,11250,0,5.0993e+08,8627,13335,12118,1,12118,1,0.00027505,-1.968e-09,0,0.00078334,-5.0736e-05,8.8775e+07,-552.24,0,2.5326e+08,683.8,12117,10867,1,10867,1,-0.0012538,-5.727e-08,0,3.9773e-05,-0.00033609,-5.0993e+08,-12060,0,1.3328e+07,-48.709,10866,11508,1,11508,1,-0.00054814,-5.7e-09,0,0.00039266,-0.00020429,-2.2292e+08,-1564.6,0,1.2726e+08,287.18,11507,12724,1,12724,1,0.0010982,3.4234e-09,0,0.0012158,0.00010315,2.7142e+08,824.91,0,3.3157e+08,1835,12723,702.88,0,702.88,0,0.00091579,1.2938e-08,0,0.0004957,0.00017109,2.7286e+08,3233.6,0,1.2883e+08,1646.5,702.88,1
2344,5.53,12116,1,12116,1,0.00027191,-1.4802e-09,0,0.00081791,-4.9956e-05,1.9368e+07,-449.46,0,2.4143e+08,1417.6,12115,13336,1,13336,1,0.0018089,5.3134e-08,0,0.0018089,0.00023566,3.6678e+08,11561,0,5.1064e+08,8919.5,13335,12118,1,12118,1,0.00027668,-2.4428e-09,0,0.00078402,-5.1036e-05,8.9196e+07,-691.36,0,2.5349e+08,685.05,12117,10867,1,10867,1,-0.0012555,-5.9802e-08,0,4.0888e-05,-0.00033702,-5.1064e+08,-12583,0,1.3703e+07,-103.64,10866,11508,1,11508,1,-0.00054831,-6.1327e-09,0,0.00039456,-0.00020492,-2.2299e+08,-1812.1,0,1.2711e+08,273.61,11507,12724,1,12724,1,0.0011016,3.5865e-09,0,0.0012195,0.00010319,2.7157e+08,826.13,0,3.314e+08,1909.6,12723,702.88,0,702.88,0,0.00091779,1.372e-08,0,0.00049704,0.00017146,2.7303e+08,3395.3,0,1.2888e+08,1712.3,702.88,1
2344,5.54,12116,1,12116,1,0.00027354,-1.9887e-09,0,0.00081991,-5.0256e-05,1.9397e+07,-611.7,0,2.416e+08,1447.6,12115,13336,1,13336,1,0.0018139,5.3689e-08,0,0.0018139,0.00023599,3.6649e+08,12373,0,5.1134e+08,9303,13335,12118,1,12118,1,0.00027833,-3.372e-09,0,0.00078472,-5.1339e-05,8.962e+07,-932.76,0,2.5372e+08,654.53,12117,10867,1,10867,1,-0.0012572,-5.9515e-08,0,4.201e-05,-0.00033795,-5.1134e+08,-12434,0,1.4079e+07,-72.446,10866,11508,1,11508,1,-0.00054848,-7.1799e-09,0,0.00039647,-0.00020556,-2.2306e+08,-2175.3,0,1.2697e+08,243.01,11507,12724,1,12724,1,0.0011051,3.2029e-09,0,0.0012232,0.00010322,2.7172e+08,741.65,0,3.3123e+08,1982.9,12723,702.88,0,702.88,0,0.00091982,1.3871e-08,0,0.0004984,0.00017183,2.7321e+08,3488.4,0,1.2894e+08,1799,702.88,1
2344,5.55,12116,1,12116,1,0.0002752,-1.9659e-09,0,0.00082189,-5.0558e-05,1.9427e+07,-625.18,0,2.4177e+08,1478.2,12115,13336,1,13336,1,0.001819,5.7919e-08,0,0.001819,0.00023631,3.6619e+08,13040,0,5.1204e+08,9879.2,13335,12118,1,12118,1,0.00027999,-3.7677e-09,0,0.00078539,-5.1645e-05,9.0046e+07,-1042.5,0,2.5394e+08,637.52,12117,10867,1,10867,1,-0.0012589,-6.3151e-08,0,4.3148e-05,-0.00033888,-5.1204e+08,-13198,0,1.4459e+07,-148.36,10866,11508,1,11508,1,-0.00054863,-8.2948e-09,0,0.00039839,-0.0002062,-2.2312e+08,-2486,0,1.2682e+08,212.34,11507,12724,1,12724,1,0.0011086,3.7575e-09,0,0.001227,0.00010325,2.7187e+08,844.39,0,3.3105e+08,2044.4,12723,702.88,0,702.88,0,0.00092184,1.4785e-08,0,0.00049975,0.00017221,2.7338e+08,3715,0,1.2899e+08,1901.3,702.88,1
2344,5.56,12116,1,12116,1,0.00027685,-4.8156e-10,0,0.0008239,-5.0861e-05,1.9456e+07,-244.25,0,2.4194e+08,1582.2,12115,13336,1,13336,1,0.0018241,6.0069e-08,0,0.0018241,0.00023664,3.6589e+08,13754,0,5.1274e+08,10441,13335,12118,1,12118,1,0.00028166,-1.9794e-09,0,0.00078607,-5.1952e-05,9.0472e+07,-557.85,0,2.5416e+08,707.03,12117,10867,1,10867,1,-0.0012606,-6.54e-08,0,4.4289e-05,-0.00033981,-5.1274e+08,-13573,0,1.4838e+07,-61.391,10866,11508,1,11508,1,-0.00054879,-6.2356e-09,0,0.00040033,-0.00020684,-2.2319e+08,-1963.7,0,1.2668e+08,259.1,11507,12724,1,12724,1,0.0011121,5.5639e-09,0,0.0012307,0.00010328,2.7202e+08,1274.2,0,3.3087e+08,2175,12723,702.88,0,702.88,0,0.00092387,1.5282e-08,0,0.00050112,0.00017258,2.7356e+08,3829.7,0,1.2905e+08,1980.8,702.88,1
2344,5.57,12116,1,12116,1,0.00027853,-3.7253e-09,0,0.0008259,-5.1167e-05,1.9486e+07,-1115.6,0,2.421e+08,1617.2,12115,13336,1,13336,1,0.0018292,6.0205e-08,0,0.0018292,0.00023696,3.6557e+08,14415,0,5.1344e+08,10616,13335,12118,1,12118,1,0.00028335,-5.7596e-09,0,0.00078673,-5.2261e-05,9.0901e+07,-1572.8,0,2.5438e+08,687.44,12117,10867,1,10867,1,-0.0012624,-6.9864e-08,0,4.5446e-05,-0.00034075,-5.1344e+08,-14507,0,1.5222e+07,-226.06,10866,11508,1,11508,1,-0.00054893,-1.1298e-08,0,0.00040227,-0.00020749,-2.2324e+08,-3397.6,0,1.2652e+08,238.83,11507,12724,1,12724,1,0.0011156,3.1223e-09,0,0.0012345,0.00010331,2.7215e+08,703.89,0,3.3067e+08,2268.6,12723,702.88,0,702.88,0,0.0009259,1.6196e-08,0,0.00050249,0.00017296,2.7373e+08,4137.7,0,1.291e+08,2066.4,702.88,1
2344,5.58,12116,1,12116,1,0.00028021,-2.7218e-09,0,0.00082792,-5.1475e-05,1.9515e+07,-901.96,0,2.4227e+08,1714.4,12115,13336,1,13336,1,0.0018343,6.2321e-08,0,0.0018343,0.00023729,3.6525e+08,15091,0,5.1414e+08,11298,13335,12118,1,12118,1,0.00028504,-4.5074e-09,0,0.0007874,-5.2572e-05,9.1332e+07,-1239.3,0,2.546e+08,740,12117,10867,1,10867,1,-0.0012641,-7.083e-08,0,4.6602e-05,-0.0003417,-5.1414e+08,-14610,0,1.5604e+07,-96.376,10866,11508,1,11508,1,-0.00054908,-1.0126e-08,0,0.00040424,-0.00020814,-2.233e+08,-3124.4,0,1.2637e+08,257.52,11507,12724,1,12724,1,0.0011191,4.4028e-09,0,0.0012383,0.00010334,2.7229e+08,951.49,0,3.3049e+08,2372.7,12723,702.88,0,702.88,0,0.00092795,1.6538e-08,0,0.00050388,0.00017334,2.739e+08,4277.7,0,1.2916e+08,2181.4,702.88,1
2344,5.59,12116,1,12116,1,0.00028191,-7.3603e-10,0,0.00082995,-5.1786e-05,1.9545e+07,-387.39,0,2.4243e+08,1830.9,12115,13336,1,13336,1,0.0018394,7.0541e-08,0,0.0018394,0.00023761,3.6493e+08,15980,0,5.1483e+08,11830,13335,12118,1,12118,1,0.00028675,-2.9522e-09,0,0.00078806,-5.2886e-05,9.1766e+07,-806.24,0,2.5481e+08,844.46,12117,10867,1,10867,1,-0.0012658,-7.4526e-08,0,4.7777e-05,-0.00034265,-5.1483e+08,-15323,0,1.5991e+07,-102.87,10866,11508,1,11508,1,-0.00054921,-8.7496e-09,0,0.00040621,-0.00020879,-2.2336e+08,-2735.4,0,1.2621e+08,320.95,11507,12724,1,12724,1,0.0011226,7.0967e-09,0,0.0012421,0.00010337,2.7243e+08,1601.3,0,3.3028e+08,2514.9,12723,702.88,0,702.88,0,0.00093,1.8093e-08,0,0.00050527,0.00017372,2.7406e+08,4557.5,0,1.2921e+08,2251.6,702.88,1
2344,5.6,12116,1,12116,1,0.00028362,-1.9801e-09,0,0.00083197,-5.2099e-05,1.9574e+07,-714.94,0,2.4259e+08,1927.1,12115,13336,1,13336,1,0.0018446,7.4575e-08,0,0.0018446,0.00023793,3.646e+08,16545,0,5.1553e+08,12266,13335,12118,1,12118,1,0.00028847,-4.6576e-09,0,0.00078871,-5.3202e-05,9.2201e+07,-1241.9,0,2.5502e+08,902.25,12117,10867,1,10867,1,-0.0012675,-7.9918e-08,0,4.8966e-05,-0.0003436,-5.1553e+08,-16446,0,1.6382e+07,-126.15,10866,11508,1,11508,1,-0.00054933,-1.1048e-08,0,0.0004082,-0.00020944,-2.234e+08,-3369.3,0,1.265e+08,339.05,11507,12724,1,12724,1,0.0011262,6.1633e-09,0,0.0012459,0.0001034,2.7256e+08,1384.1,0,3.3008e+08,2668.1,12723,702.88,0,702.88,0,0.00093205,1.9305e-08,0,0.00050667,0.0001741,2.7423e+08,4831,0,1.2926e+08,2344.4,702.88,1
2344,5.61,12116,1,12116,1,0.00028534,1.3894e-10,0,0.00083402,-5.2414e-05,1.9604e+07,-161.81,0,2.4275e+08,1991.4,12115,13336,1,13336,1,0.0018497,7.3977e-08,0,0.0018497,0.00023825,3.6427e+08,17327,0,5.1622e+08,12881,13335,12118,1,12118,1,0.0002902,-1.0371e-09,0,0.00078937,-5.3522e-05,9.264e+07,-275.16,0,2.5524e+08,921.33,12117,10867,1,10867,1,-0.0012692,-8.1953e-08,0,5.0163e-05,-0.00034455,-5.1622e+08,-16744,0,1.6774e+07,-50.603,10866,11508,1,11508,1,-0.00054946,-7.8055e-09,0,0.0004102,-0.00021011,-2.2346e+08,-2440.8,0,1.2694e+08,344.19,11507,12724,1,12724,1,0.0011298,9.0289e-09,0,0.0012498,0.00010342,2.727e+08,2030,0,3.2987e+08,2727.1,12723,702.88,0,702.88,0,0.00093412,1.9377e-08,0,0.00050808,0.00017448,2.7439e+08,4887.3,0,1.2932e+08,2448.1,702.88,1
2344,5.62,12116,1,12116,1,0.00028707,-7.7892e-10,0,0.00083604,-5.273e-05,1.9633e+07,-372.88,0,2.429e+08,2119.5,12115,13336,1,13336,1,0.0018549,8.319e-08,0,0.0018549,0.00023857,3.6392e+08,17713,0,5.169e+08,13097,13335,12118,1,12118,1,0.00029194,-3.0019e-09,0,0.00078998,-5.384e-05,9.3078e+07,-829.23,0,2.5544e+08,1059.4,12117,10867,1,10867,1,-0.0012709,-9.1012e-08,0,5.1377e-05,-0.0003455,-5.169e+08,-18665,0,1.717e+07,-96.053,10866,11508,1,11508,1,-0.00054955,-8.9727e-09,0,0.0004122,-0.00021076,-2.2349e+08,-2815.4,0,1.2737e+08,434.79,11507,12724,1,12724,1,0.0011334,8.5197e-09,0,0.0012536,0.00010344,2.7282e+08,1967.5,0,3.2964e+08,2916,12723,702.88,0,702.88,0,0.00093616,2.1698e-08,0,0.00050948,0.00017486,2.7454e+08,5261.9,0,1.2937e+08,2488.8,702.88,1
2344,5.63,12116,1,12116,1,0.00028882,-3.2401e-10,0,0.00083811,-5.305e-05,1.9663e+07,-261.74,0,2.4306e+08,2165.6,12115,13336,1,13336,1,0.0018601,8.143e-08,0,0.0018601,0.00023889,3.6358e+08,18901,0,5.176e+08,13689,13335,12118,1,12118,1,0.0002937,-2.1748e-09,0,0.00079064,-5.4164e-05,9.3518e+07,-583.81,0,2.5565e+08,1036.9,12117,10867,1,10867,1,-0.0012726,-8.9436e-08,0,5.2594e-05,-0.00034647,-5.176e+08,-18176,0,1.7566e+07,-23.154,10866,11508,1,11508,1,-0.00054967,-8.5555e-09,0,0.00041422,-0.00021143,-2.2354e+08,-2698.2,0,1.2782e+08,413.24,11507,12724,1,12724,1,0.001137,8.9677e-09,0,0.0012575,0.00010347,2.7295e+08,2044.7,0,3.2943e+08,2948.3,12723,702.88,0,702.88,0,0.00093825,2.114e-08,0,0.00051091,0.00017525,2.7471e+08,5280.4,0,1.2942e+08,2615.5,702.88,1
2344,5.64,12116,1,12116,1,0.00029059,-8.6127e-10,0,0.00084017,-5.3373e-05,1.9693e+07,-385.84,0,2.4321e+08,2272.1,12115,13336,1,13336,1,0.0018654,8.82e-08,0,0.0018654,0.00023921,3.6322e+08,19466,0,5.1829e+08,14063,13335,12118,1,12118,1,0.00029548,-2.7713e-09,0,0.00079127,-5.449e-05,9.3964e+07,-771.58,0,2.5586e+08,1108.1,12117,10867,1,10867,1,-0.0012743,-9.617e-08,0,5.3833e-05,-0.00034744,-5.1829e+08,-19546,0,1.7968e+07,-94.889,10866,11508,1,11508,1,-0.00054976,-9.2826e-09,0,0.00041627,-0.0002121,-2.2358e+08,-2820.5,0,1.2826e+08,401.21,11507,12724,1,12724,1,0.0011406,8.7529e-09,0,0.0012614,0.00010349,2.7307e+08,1985.3,0,3.292e+08,3154,12723,702.88,0,702.88,0,0.00094033,2.281e-08,0,0.00051235,0.00017563,2.7487e+08,5582.3,0,1.2947e+08,2723.9,702.88,1
2344,5.65,12116,1,12116,1,0.00029236,3.7691e-09,0,0.00084224,-5.3697e-05,1.9722e+07,859.59,0,2.4336e+08,2412.6,12115,13336,1,13336,1,0.0018706,9.2379e-08,0,0.0018706,0.00023953,3.6286e+08,20670,0,5.1898e+08,15056,13335,12118,1,12118,1,0.00029727,3.9281e-09,0,0.00079189,-5.4818e-05,9.441e+07,1002.6,0,2.5606e+08,1216.2,12117,10867,1,10867,1,-0.001276,-9.8832e-08,0,5.508e-05,-0.0003484,-5.1898e+08,-19949,0,1.8372e+07,-112.41,10866,11508,1,11508,1,-0.00054985,-4.9904e-09,0,0.00041832,-0.00021278,-2.2362e+08,-1473.5,0,1.287e+08,475.2,11507,12724,1,12724,1,0.0011443,1.4009e-08,0,0.0012653,0.00010351,2.7319e+08,3324.7,0,3.2896e+08,3258.3,12723,702.88,0,702.88,0,0.00094241,2.3493e-08,0,0.00051379,0.00017602,2.7502e+08,5772.7,0,1.2953e+08,2856.8,702.88,1
2344,5.66,12116,1,12116,1,0.00029415,2.739e-09,0,0.00084433,-5.4024e-05,1.9751e+07,691.47,0,2.4351e+08,2564.5,12115,13336,1,13336,1,0.0018759,9.7281e-08,0,0.0018759,0.00023985,3.6249e+08,22188,0,5.1967e+08,15259,13335,12118,1,12118,1,0.00029906,1.9583e-09,0,0.00079252,-5.5149e-05,9.4858e+07,522.26,0,2.5626e+08,1382.4,12117,10867,1,10867,1,-0.0012777,-1.0443e-07,0,5.6346e-05,-0.00034938,-5.1967e+08,-20968,0,1.878e+07,10.046,10866,11508,1,11508,1,-0.00054994,-5.7309e-09,0,0.00042039,-0.00021345,-2.2365e+08,-1583,0,1.2915e+08,585.41,11507,12724,1,12724,1,0.001148,1.2146e-08,0,0.0012693,0.00010353,2.7331e+08,3022.8,0,3.2873e+08,3446.4,12723,702.88,0,702.88,0,0.00094452,2.4919e-08,0,0.00051525,0.00017641,2.7517e+08,6075.8,0,1.2958e+08,2904.6,702.88,1
2344,5.67,12116,1,12116,1,0.00029596,1.8485e-10,0,0.00084643,-5.4356e-05,1.9782e+07,76.124,0,2.4365e+08,2618.4,12115,13336,1,13336,1,0.0018813,9.5976e-08,0,0.0018813,0.00024018,3.6211e+08,23382,0,5.2037e+08,15735,13335,12118,1,12118,1,0.00030089,-3.3207e-11,0,0.00079315,-5.5484e-05,9.5312e+07,-7.9255,0,2.5646e+08,1355.8,12117,10867,1,10867,1,-0.0012794,-1.1142e-07,0,5.7625e-05,-0.00035037,-5.2037e+08,-22312,0,1.9192e+07,-35.338,10866,11508,1,11508,1,-0.00055002,-8.2275e-09,0,0.00042249,-0.00021414,-2.2369e+08,-2220,0,1.296e+08,534.83,11507,12724,1,12724,1,0.0011517,9.7027e-09,0,0.0012733,0.00010355,2.7342e+08,2400.5,0,3.2849e+08,3540.9,12723,702.88,0,702.88,0,0.00094663,2.5592e-08,0,0.00051672,0.0001768,2.7533e+08,6333.3,0,1.2963e+08,3047.7,702.88,1
2344,5.68,12116,1,12116,1,0.00029779,-2.9522e-10,0,0.00084855,-5.4691e-05,1.9811e+07,-32.194,0,2.438e+08,2752.6,12115,13336,1,13336,1,0.0018867,9.9409e-08,0,0.0018867,0.0002405,3.6173e+08,24949,0,5.2107e+08,16462,13335,12118,1,12118,1,0.00030274,-4.1255e-10,0,0.00079377,-5.5823e-05,9.5769e+07,-106.77,0,2.5666e+08,1424.5,12117,10867,1,10867,1,-0.0012811,-1.1695e-07,0,5.8908e-05,-0.00035137,-5.2107e+08,-23329,0,1.9604e+07,-55.028,10866,11508,1,11508,1,-0.0005501,-9.2643e-09,0,0.00042461,-0.00021483,-2.2372e+08,-2512,0,1.3006e+08,562.06,11507,12724,1,12724,1,0.0011555,9.5938e-09,0,0.0012773,0.00010357,2.7354e+08,2409,0,3.2824e+08,3743.4,12723,702.88,0,702.88,0,0.00094877,2.6846e-08,0,0.00051821,0.0001772,2.7548e+08,6726.9,0,1.2969e+08,3203.2,702.88,1
2344,5.69,12116,1,12116,1,0.00029964,-1.8011e-09,0,0.00085067,-5.5029e-05,1.9841e+07,-423.18,0,2.4394e+08,2910.5,12115,13336,1,13336,1,0.0018921,1.0579e-07,0,0.0018921,0.00024082,3.6134e+08,26060,0,5.2176e+08,16917,13335,12118,1,12118,1,0.00030459,-2.0871e-09,0,0.00079437,-5.6164e-05,9.6228e+07,-561.65,0,2.5686e+08,1575.7,12117,10867,1,10867,1,-0.0012828,-1.2579e-07,0,6.021e-05,-0.00035237,-5.2176e+08,-25035,0,2.0021e+07,-52.894,10866,11508,1,11508,1,-0.00055015,-1.2093e-08,0,0.00042675,-0.00021552,-2.2374e+08,-3182.8,0,1.3051e+08,627.48,11507,12724,1,12724,1,0.0011592,9.2679e-09,0,0.0012814,0.00010358,2.7364e+08,2285.3,0,3.2798e+08,3965.4,12723,702.88,0,702.88,0,0.0009509,2.9143e-08,0,0.0005197,0.00017759,2.7563e+08,7222.1,0,1.2974e+08,3306.3,702.88,1
2344,5.7,12116,1,12116,1,0.0003015,-9.0067e-10,0,0.0008528,-5.5368e-05,1.987e+07,-200.86,0,2.4408e+08,3134.3,12115,13336,1,13336,1,0.0018976,1.1432e-07,0,0.0018976,0.00024115,3.6094e+08,27934,0,5.2246e+08,17806,13335,12118,1,12118,1,0.00030646,-1.5814e-09,0,0.00079601,-5.6506e-05,9.6688e+07,-419.11,0,2.5705e+08,1756.2,12117,10867,1,10867,1,-0.0012845,-1.3085e-07,0,6.0654e-05,-0.00035338,-5.2246e+08,-25911,0,2.0439e+07,-24.864,10866,11508,1,11508,1,-0.00055021,-1.2047e-08,0,0.00042785,-0.00021622,-2.2376e+08,-3205.3,0,1.3097e+08,738.95,11507,12724,1,12724,1,0.001163,1.0839e-08,0,0.0012845,0.00010359,2.7375e+08,2675.3,0,3.2772e+08,4248,12723,702.88,0,702.88,0,0.00095304,3.0939e-08,0,0.0005212,0.00017799,2.7577e+08,7671.5,0,1.2979e+08,3467.8,702.88,1
2344,5.71,12116,1,12116,1,0.00030338,-1.0644e-09,0,0.00085494,-5.5711e-05,1.99e+07,-238.9,0,2.4422e+08,3298.7,12115,13336,1,13336,1,0.0019031,1.1896e-07,0,0.0019031,0.00024147,3.6053e+08,28733,0,5.2315e+08,18699,13335,12118,1,12118,1,0.00030835,-1.0199e-09,0,0.00079901,-5.6853e-05,9.7152e+07,-275.5,0,2.5724e+08,1883.2,12117,10867,1,10867,1,-0.0012862,-1.418e-07,0,5.9592e-05,-0.00035439,-5.2315e+08,-28085,0,2.0861e+07,-32.952,10866,11508,1,11508,1,-0.00055026,-1.2651e-08,0,0.00042762,-0.00021692,-2.2378e+08,-3414.7,0,1.3143e+08,782.79,11507,12724,1,12724,1,0.0011668,1.1963e-08,0,0.0012862,0.00010361,2.7385e+08,2978.3,0,3.2745e+08,4464.2,12723,702.88,0,702.88,0,0.00095519,3.3044e-08,0,0.00052271,0.00017839,2.7592e+08,8131,0,1.2984e+08,3628,702.88,1
2344,5.72,12116,1,12116,1,0.00030527,2.2534e-10,0,0.00085709,-5.6057e-05,1.993e+07,110.52,0,2.4435e+08,3454,12115,13336,1,13336,1,0.0019086,1.2779e-07,0,0.0019086,0.00024179,3.6012e+08,30764,0,5.2384e+08,19424,13335,12118,1,12118,1,0.00031026,5.0295e-10,0,0.00080202,-5.7202e-05,9.7619e+07,133.65,0,2.5743e+08,1969.6,12117,10867,1,10867,1,-0.0012879,-1.4653e-07,0,5.8517e-05,-0.0003554,-5.2384e+08,-28858,0,2.1286e+07,-22.951,10866,11508,1,11508,1,-0.00055029,-1.2451e-08,0,0.00042738,-0.00021762,-2.2379e+08,-3274,0,1.3189e+08,815.18,11507,12724,1,12724,1,0.0011707,1.3755e-08,0,0.0012878,0.00010362,2.7395e+08,3476.5,0,3.2717e+08,4680,12723,702.88,0,702.88,0,0.00095735,3.4794e-08,0,0.00052424,0.00017878,2.7606e+08,8580.4,0,1.2989e+08,3799.9,702.88,1
2344,5.73,12116,1,12116,1,0.00030718,3.4648e-10,0,0.00085925,-5.6406e-05,1.9961e+07,164.51,0,2.4449e+08,3630.5,12115,13336,1,13336,1,0.0019141,1.3577e-07,0,0.0019141,0.00024211,3.5969e+08,31798,0,5.2453e+08,20297,13335,12118,1,12118,1,0.00031217,9.9245e-10,0,0.00080505,-5.7555e-05,9.8087e+07,259.68,0,2.5761e+08,2112.5,12117,10867,1,10867,1,-0.0012896,-1.5697e-07,0,5.7428e-05,-0.00035642,-5.2453e+08,-30865,0,2.1714e+07,-104.76,10866,11508,1,11508,1,-0.00055031,-1.3096e-08,0,0.00042713,-0.00021833,-2.238e+08,-3459.4,0,1.3235e+08,859.68,11507,12724,1,12724,1,0.0011745,1.5112e-08,0,0.0012895,0.00010362,2.7404e+08,3854.7,0,3.2688e+08,4914.4,12723,702.88,0,702.88,0,0.00095951,3.7176e-08,0,0.00052577,0.00017918,2.762e+08,9085.9,0,1.2994e+08,3974,702.88,1
2344,5.74,12116,1,12116,1,0.0003091,2.1686e-09,0,0.00086142,-5.6757e-05,1.999e+07,691.17,0,2.4462e+08,3854.7,12115,13336,1,13336,1,0.0019197,1.44e-07,0,0.0019197,0.00024243,3.5926e+08,33851,0,5.2522e+08,21230,13335,12118,1,12118,1,0.00031411,3.6417e-09,0,0.0008081,-5.7909e-05,9.8557e+07,942.21,0,2.578e+08,2297,12117,10867,1,10867,1,-0.0012913,-1.6445e-07,0,5.6332e-05,-0.00035745,-5.2522e+08,-32191,0,2.2142e+07,-73.538,10866,11508,1,11508,1,-0.00055033,-1.2031e-08,0,0.00042687,-0.00021904,-2.2381e+08,-3107.9,0,1.3282e+08,948.26,11507,12724,1,12724,1,0.0011784,1.81e-08,0,0.0012912,0.00010363,2.7413e+08,4654.6,0,3.2659e+08,5179.7,12723,702.88,0,702.88,0,0.00096168,3.9268e-08,0,0.00052731,0.00017959,2.7633e+08,9602.2,0,1.2999e+08,4152.4,702.88,1
2344,5.75,12116,1,12116,1,0.00031104,-7.8882e-10,0,0.0008636,-5.7112e-05,2.0021e+07,-18.259,0,2.4475e+08,3997.1,12115,13336,1,13336,1,0.0019253,1.4676e-07,0,0.0019253,0.00024275,3.5884e+08,35237,0,5.2591e+08,21889,13335,12118,1,12118,1,0.00031606,8.9196e-10,0,0.00081118,-5.8267e-05,9.9032e+07,236.2,0,2.5798e+08,2372.9,12117,10867,1,10867,1,-0.001293,-1.7565e-07,0,5.5221e-05,-0.00035849,-5.2591e+08,-34307,0,2.2463e+07,-107.55,10866,11508,1,11508,1,-0.00055035,-1.5981e-08,0,0.00042661,-0.00021976,-2.2382e+08,-4062.6,0,1.3329e+08,953.64,11507,12724,1,12724,1,0.0011823,1.5732e-08,0,0.0012929,0.00010364,2.7422e+08,4103.4,0,3.263e+08,5405.1,12723,702.88,0,702.88,0,0.00096388,4.1283e-08,0,0.00052888,0.00017999,2.7647e+08,10130,0,1.3004e+08,4336.7,702.88,1
2344,5.76,12116,1,12116,1,0.000313,-1.3784e-09,0,0.00086581,-5.7471e-05,2.0051e+07,-157.95,0,2.4488e+08,4214.8,12115,13336,1,13336,1,0.001931,1.5908e-07,0,0.001931,0.00024307,3.5841e+08,37741,0,5.2661e+08,22662,13335,12118,1,12118,1,0.00031803,-8.334e-10,0,0.00081429,-5.8629e-05,9.951e+07,-216.35,0,2.5816e+08,2540.1,12117,10867,1,10867,1,-0.0012948,-1.8311e-07,0,5.4093e-05,-0.00035953,-5.2661e+08,-35624,0,2.2009e+07,-16.648,10866,11508,1,11508,1,-0.00055036,-1.8074e-08,0,0.00042634,-0.00022049,-2.2382e+08,-4616.4,0,1.3376e+08,1023.7,11507,12724,1,12724,1,0.0011863,1.6214e-08,0,0.0012946,0.00010364,2.7431e+08,4236.4,0,3.26e+08,5738.3,12723,702.88,0,702.88,0,0.00096608,4.4068e-08,0,0.00053045,0.0001804,2.7661e+08,10770,0,1.301e+08,4528.6,702.88,1
2344,5.77,12116,1,12116,1,0.00031498,-1.8192e-10,0,0.00086801,-5.7832e-05,2.008e+07,143.55,0,2.45e+08,4511.1,12115,13336,1,13336,1,0.0019367,1.6936e-07,0,0.0019367,0.00024339,3.5795e+08,39600,0,5.273e+08,23885,13335,12118,1,12118,1,0.00032002,8.5663e-10,0,0.00081742,-5.8994e-05,9.999e+07,219.11,0,2.5833e+08,2795.1,12117,10867,1,10867,1,-0.0012965,-1.943e-07,0,5.295e-05,-0.00036058,-5.273e+08,-37659,0,2.1551e+07,-51.879,10866,11508,1,11508,1,-0.00055035,-1.8063e-08,0,0.00042605,-0.00022121,-2.2382e+08,-4572.7,0,1.3423e+08,1156,11507,12724,1,12724,1,0.0011902,1.8906e-08,0,0.0012963,0.00010365,2.7438e+08,4921.9,0,3.2569e+08,6105.5,12723,702.88,0,702.88,0,0.00096829,4.6899e-08,0,0.00053204,0.00018081,2.7674e+08,11397,0,1.3015e+08,4742.2,702.88,1
2344,5.78,12116,1,12116,1,0.00031698,1.4631e-10,0,0.00087024,-5.8197e-05,2.0111e+07,263.03,0,2.4512e+08,4705.2,12115,13336,1,13336,1,0.0019424,1.7831e-07,0,0.0019424,0.00024372,3.5749e+08,41929,0,5.28e+08,25042,13335,12118,1,12118,1,0.00032203,1.8828e-09,0,0.00082057,-5.9363e-05,1.0047e+08,488.04,0,2.5851e+08,2885.4,12117,10867,1,10867,1,-0.0012982,-2.0526e-07,0,5.1794e-05,-0.00036164,-5.28e+08,-39650,0,2.1088e+07,-91.223,10866,11508,1,11508,1,-0.00055035,-1.8613e-08,0,0.00042576,-0.00022195,-2.2381e+08,-4699,0,1.3471e+08,1177.9,11507,12724,1,12724,1,0.0011942,2.036e-08,0,0.001298,0.00010365,2.7447e+08,5262.7,0,3.2537e+08,6389.7,12723,702.88,0,702.88,0,0.00097052,4.9417e-08,0,0.00053364,0.00018122,2.7687e+08,12033,0,1.302e+08,4992.5,702.88,1
2344,5.79,12116,1,12116,1,0.00031899,-1.431e-09,0,0.00087247,-5.8565e-05,2.0141e+07,-115.18,0,2.4524e+08,4993,12115,13336,1,13336,1,0.0019482,1.9249e-07,0,0.0019482,0.00024403,3.5703e+08,43583,0,5.2868e+08,25886,13335,12118,1,12118,1,0.00032406,-1.946e-10,0,0.00082374,-5.9733e-05,1.0096e+08,-54.376,0,2.5868e+08,3180.9,12117,10867,1,10867,1,-0.0012998,-2.2167e-07,0,5.0621e-05,-0.0003627,-5.2868e+08,-42850,0,2.0618e+07,-80.228,10866,11508,1,11508,1,-0.00055032,-2.2263e-08,0,0.00042545,-0.00022269,-2.238e+08,-5623.3,0,1.3518e+08,1299,11507,12724,1,12724,1,0.0011983,2.0472e-08,0,0.0012997,0.00010365,2.7454e+08,5274.9,0,3.2542e+08,6813.9,12723,702.88,0,702.88,0,0.00097274,5.3827e-08,0,0.00053525,0.00018163,2.77e+08,12812,0,1.3025e+08,5194.7,702.88,1
2344,5.8,12116,1,12116,1,0.00032103,-1.9204e-09,0,0.00087472,-5.8937e-05,2.017e+07,-262.11,0,2.4536e+08,5213.8,12115,13336,1,13336,1,0.001954,1.9856e-07,0,0.001954,0.00024436,3.5655e+08,45997,0,5.2937e+08,27457,13335,12118,1,12118,1,0.0003261,-5.4757e-10,0,0.00082694,-6.0109e-05,1.0145e+08,-145.37,0,2.5885e+08,3219.4,12117,10867,1,10867,1,-0.0013016,-2.32e-07,0,4.9439e-05,-0.00036377,-5.2937e+08,-44642,0,2.0146e+07,-29.719,10866,11508,1,11508,1,-0.00055029,-2.2716e-08,0,0.00042513,-0.00022343,-2.2379e+08,-5839.8,0,1.3566e+08,1306.5,11507,12724,1,12724,1,0.0012023,2.0402e-08,0,0.0013014,0.00010365,2.7461e+08,5237.9,0,3.2564e+08,7070.9,12723,702.88,0,702.88,0,0.00097499,5.5501e-08,0,0.00053687,0.00018205,2.7712e+08,13347,0,1.303e+08,5516.6,702.88,1
2344,5.81,12116,1,12116,1,0.00032308,-9.1415e-10,0,0.00087699,-5.9312e-05,2.0201e+07,-14.932,0,2.4548e+08,5511.1,12115,13336,1,13336,1,0.0019599,2.1012e-07,0,0.0019599,0.00024468,3.5607e+08,48595,0,5.3007e+08,28953,13335,12118,1,12118,1,0.00032817,4.1074e-10,0,0.00083018,-6.0488e-05,1.0194e+08,100.56,0,2.5902e+08,3439.6,12117,10867,1,10867,1,-0.0013033,-2.4427e-07,0,4.8238e-05,-0.00036485,-5.3007e+08,-46778,0,1.9667e+07,-5.2413,10866,11508,1,11508,1,-0.00055026,-2.3455e-08,0,0.00042481,-0.00022418,-2.2378e+08,-5874.4,0,1.3614e+08,1394.6,11507,12724,1,12724,1,0.0012064,2.2914e-08,0,0.0013031,0.00010364,2.7468e+08,5890.6,0,3.2586e+08,7492,12723,702.88,0,702.88,0,0.00097725,5.8701e-08,0,0.00053852,0.00018247,2.7725e+08,14130,0,1.3035e+08,5783,702.88,1
2344,5.82,12116,1,12116,1,0.00032516,1.1965e-09,0,0.00087926,-5.9691e-05,2.0231e+07,553.38,0,2.4559e+08,5922.1,12115,13336,1,13336,1,0.0019657,2.2718e-07,0,0.0019657,0.000245,3.5557e+08,50792,0,5.3076e+08,30318,13335,12118,1,12118,1,0.00033026,3.3455e-09,0,0.00083343,-6.0869e-05,1.0244e+08,862.78,0,2.5918e+08,3777.1,12117,10867,1,10867,1,-0.001305,-2.5975e-07,0,4.7017e-05,-0.00036594,-5.3076e+08,-49635,0,1.9182e+07,-109.96,10866,11508,1,11508,1,-0.0005502,-2.3168e-08,0,0.00042447,-0.00022494,-2.2375e+08,-5802.4,0,1.3663e+08,1549.3,11507,12724,1,12724,1,0.0012105,2.7363e-08,0,0.0013048,0.00010364,2.7474e+08,7045.8,0,3.2608e+08,8147.3,12723,702.88,0,702.88,0,0.00097951,6.3039e-08,0,0.00054017,0.00018289,2.7737e+08,15002,0,1.304e+08,6092.1,702.88,1
2344,5.83,12116,1,12116,1,0.00032726,-1.2862e-10,0,0.00088157,-6.0075e-05,2.0262e+07,292.19,0,2.457e+08,6110.6,12115,13336,1,13336,1,0.0019717,2.3376e-07,0,0.0019717,0.00024533,3.5509e+08,54747,0,5.3147e+08,31552,13335,12118,1,12118,1,0.00033237,2.2386e-09,0,0.00083672,-6.1257e-05,1.0294e+08,583.33,0,2.5935e+08,3843.6,12117,10867,1,10867,1,-0.0013067,-2.7059e-07,0,4.5787e-05,-0.00036704,-5.3147e+08,-51380,0,1.8694e+07,-77.692,10866,11508,1,11508,1,-0.00055016,-2.5541e-08,0,0.00042413,-0.0002257,-2.2373e+08,-6306.8,0,1.3712e+08,1555.2,11507,12724,1,12724,1,0.0012147,2.6877e-08,0,0.0013065,0.00010363,2.7481e+08,6966.8,0,3.263e+08,8336.7,12723,702.88,0,702.88,0,0.00098181,6.5421e-08,0,0.00054185,0.00018331,2.7749e+08,15788,0,1.3045e+08,6379.1,702.88,1
2344,5.84,12116,1,12116,1,0.00032938,-5.0544e-10,0,0.00088388,-6.0462e-05,2.0292e+07,232.75,0,2.4581e+08,6528.5,12115,13336,1,13336,1,0.0019777,2.5224e-07,0,0.0019777,0.00024565,3.5458e+08,58020,0,5.3216e+08,33010,13335,12118,1,12118,1,0.00033451,1.1787e-09,0,0.00084004,-6.1647e-05,1.0344e+08,294.45,0,2.595e+08,4207.5,12117,10867,1,10867,1,-0.0013084,-2.8906e-07,0,4.4532e-05,-0.00036814,-5.3216e+08,-54706,0,1.8197e+07,-45.036,10866,11508,1,11508,1,-0.00055009,-2.8113e-08,0,0.00042377,-0.00022647,-2.2371e+08,-6992.4,0,1.3761e+08,1711.9,11507,12724,1,12724,1,0.0012188,2.8773e-08,0,0.0013082,0.00010362,2.7486e+08,7403.2,0,3.2651e+08,8972.5,12723,702.88,0,702.88,0,0.00098411,7.0519e-08,0,0.00054354,0.00018374,2.7761e+08,16868,0,1.305e+08,6699.4,702.88,1
2344,5.85,12116,1,12116,1,0.00033152,-2.794e-10,0,0.0008862,-6.0854e-05,2.0322e+07,326.76,0,2.4591e+08,6859,12115,13336,1,13336,1,0.0019838,2.6271e-07,0,0.0019838,0.00024597,3.5406e+08,60354,0,5.3285e+08,34692,13335,12118,1,12118,1,0.00033666,3.0249e-09,0,0.00084339,-6.2043e-05,1.0395e+08,770.58,0,2.5966e+08,4502.9,12117,10867,1,10867,1,-0.0013101,-3.1265e-07,0,4.3259e-05,-0.00036926,-5.3285e+08,-59096,0,1.7696e+07,-170.32,10866,11508,1,11508,1,-0.00055,-2.9624e-08,0,0.0004234,-0.00022724,-2.2367e+08,-7085.1,0,1.381e+08,1800.3,11507,12724,1,12724,1,0.0012231,3.2341e-08,0,0.0013099,0.00010361,2.7491e+08,8406.7,0,3.2672e+08,9344.9,12723,702.88,0,702.88,0,0.00098642,7.5386e-08,0,0.00054524,0.00018416,2.7772e+08,17976,0,1.3055e+08,7016.7,702.88,1
2344,5.86,12116,1,12116,1,0.00033369,-2.656e-09,0,0.00088856,-6.125e-05,2.0353e+07,-229.73,0,2.4602e+08,7282,12115,13336,1,13336,1,0.0019899,2.805e-07,0,0.0019899,0.0002463,3.5355e+08,64701,0,5.3356e+08,36015,13335,12118,1,12118,1,0.00033884,-5.9747e-10,0,0.00084678,-6.2441e-05,1.0446e+08,-175.22,0,2.5982e+08,4801.3,12117,10867,1,10867,1,-0.0013119,-3.2682e-07,0,4.1975e-05,-0.00037039,-5.3356e+08,-61467,0,1.7191e+07,-96.211,10866,11508,1,11508,1,-0.00054993,-3.4243e-08,0,0.00042302,-0.00022802,-2.2364e+08,-8601.2,0,1.3861e+08,1928.9,11507,12724,1,12724,1,0.0012273,3.0934e-08,0,0.0013116,0.0001036,2.7497e+08,7966.2,0,3.2693e+08,10037,12723,702.88,0,702.88,0,0.00098877,7.9804e-08,0,0.00054697,0.0001846,2.7784e+08,19039,0,1.306e+08,7366,702.88,1
2344,5.87,12116,1,12116,1,0.00033589,-1.0793e-09,0,0.00089094,-6.1652e-05,2.0383e+07,159.46,0,2.4613e+08,7750.9,12115,13336,1,13336,1,0.0019961,2.9691e-07,0,0.0019961,0.00024663,3.5301e+08,68309,0,5.3427e+08,38156,13335,12118,1,12118,1,0.00034106,1.4974e-09,0,0.00085021,-6.2847e-05,1.0498e+08,404.93,0,2.5997e+08,5238,12117,10867,1,10867,1,-0.0013136,-3.486e-07,0,4.0663e-05,-0.00037153,-5.3427e+08,-65331,0,1.6677e+07,-41.337,10866,11508,1,11508,1,-0.00054984,-3.498e-08,0,0.00042264,-0.00022881,-2.236e+08,-8538.2,0,1.3911e+08,2109.2,11507,12724,1,12724,1,0.0012316,3.5896e-08,0,0.0013133,0.00010359,2.7501e+08,9320.5,0,3.2714e+08,10630,12723,702.88,0,702.88,0,0.00099113,8.5316e-08,0,0.00054873,0.00018504,2.7795e+08,20309,0,1.3066e+08,7747.7,702.88,1
2344,5.88,12116,1,12116,1,0.00033812,1.6939e-09,0,0.00089332,-6.2058e-05,2.0413e+07,922.56,0,2.4622e+08,8249.2,12115,13336,1,13336,1,0.0020023,3.1946e-07,0,0.0020023,0.00024695,3.5246e+08,71851,0,5.3496e+08,40085,13335,12118,1,12118,1,0.0003433,6.4657e-09,0,0.00085367,-6.3255e-05,1.055e+08,1617.5,0,2.6012e+08,5627.6,12117,10867,1,10867,1,-0.0013153,-3.7237e-07,0,3.9328e-05,-0.00037267,-5.3496e+08,-69559,0,1.6156e+07,-238.11,10866,11508,1,11508,1,-0.00054972,-3.5338e-08,0,0.00042222,-0.00022961,-2.2356e+08,-8259.6,0,1.3961e+08,2264.9,11507,12724,1,12724,1,0.001236,4.1419e-08,0,0.001315,0.00010357,2.7505e+08,10928,0,3.2734e+08,11309,12723,702.88,0,702.88,0,0.00099349,9.1619e-08,0,0.00055049,0.00018547,2.7806e+08,21685,0,1.307e+08,8150.8,702.88,1
2344,5.89,12116,1,12116,1,0.00034037,-4.0399e-09,0,0.00089575,-6.247e-05,2.0445e+07,-455.78,0,2.4633e+08,8662.8,12115,13336,1,13336,1,0.0020086,3.3432e-07,0,0.0020086,0.00024729,3.5193e+08,77069,0,5.3568e+08,41705,13335,12118,1,12118,1,0.00034556,-1.036e-09,0,0.00085717,-6.367e-05,1.0603e+08,-266.34,0,2.6028e+08,5877.3,12117,10867,1,10867,1,-0.0013171,-3.9139e-07,0,3.7983e-05,-0.00037384,-5.3568e+08,-72774,0,1.5633e+07,-9.3156,10866,11508,1,11508,1,-0.00054963,-4.36e-08,0,0.00042182,-0.00023042,-2.2352e+08,-10699,0,1.4013e+08,2341.4,11507,12724,1,12724,1,0.0012404,3.7465e-08,0,0.0013168,0.00010356,2.751e+08,9669.7,0,3.2755e+08,11986,12723,702.88,0,702.88,0,0.0009959,9.6383e-08,0,0.00055228,0.00018592,2.7818e+08,22984,0,1.3076e+08,8609.6,702.88,1
2344,5.9,12116,1,12116,1,0.00034266,1.3222e-10,0,0.00089818,-6.2888e-05,2.0477e+07,603.46,0,2.4642e+08,9206,12115,13336,1,13336,1,0.002015,3.6184e-07,0,0.002015,0.00024761,3.5135e+08,81841,0,5.3638e+08,43884,13335,12118,1,12118,1,0.00034787,4.8002e-09,0,0.00086072,-6.4091e-05,1.0656e+08,1210.9,0,2.6042e+08,6398.3,12117,10867,1,10867,1,-0.0013188,-4.1879e-07,0,3.6597e-05,-0.00037501,-5.3638e+08,-77577,0,1.5097e+07,-219.72,10866,11508,1,11508,1,-0.00054948,-4.2276e-08,0,0.00042137,-0.00023123,-2.2346e+08,-10271,0,1.4064e+08,2526,11507,12724,1,12724,1,0.0012448,4.6466e-08,0,0.0013185,0.00010354,2.7513e+08,12011,0,3.2774e+08,12668,12723,702.88,0,702.88,0,0.00099831,1.0404e-07,0,0.00055409,0.00018636,2.7828e+08,24635,0,1.3081e+08,9061.2,702.88,1
2344,5.91,12116,1,12116,1,0.00034497,-2.0168e-09,0,0.00090065,-6.331e-05,2.0508e+07,126.02,0,2.4652e+08,9804.6,12115,13336,1,13336,1,0.0020215,3.8252e-07,0,0.0020215,0.00024795,3.5079e+08,87093,0,5.3711e+08,46096,13335,12118,1,12118,1,0.00035018,2.1988e-09,0,0.0008643,-6.4514e-05,1.071e+08,545.89,0,2.6057e+08,6921.2,12117,10867,1,10867,1,-0.0013206,-4.4691e-07,0,3.5206e-05,-0.00037621,-5.3711e+08,-82479,0,1.4562e+07,-115.21,10866,11508,1,11508,1,-0.00054937,-4.7696e-08,0,0.00042094,-0.00023205,-2.2341e+08,-11723,0,1.4117e+08,2710.1,11507,12724,1,12724,1,0.0012493,4.7149e-08,0,0.0013202,0.00010352,2.7517e+08,12289,0,3.2795e+08,13539,12723,702.88,0,702.88,0,0.0010008,1.1111e-07,0,0.00055593,0.00018682,2.7839e+08,26346,0,1.3086e+08,9542.8,702.88,1
2344,5.92,12116,1,12116,1,0.00034733,-1.9798e-09,0,0.00090314,-6.3739e-05,2.0539e+07,131.58,0,2.466e+08,10485,12115,13336,1,13336,1,0.002028,4.1331e-07,0,0.002028,0.00024828,3.502e+08,93118,0,5.3782e+08,48191,13335,12118,1,12118,1,0.00035255,2.075e-09,0,0.00086794,-6.4947e-05,1.0764e+08,547.71,0,2.607e+08,7713.6,12117,10867,1,10867,1,-0.0013223,-4.7687e-07,0,3.3776e-05,-0.00037741,-5.3782e+08,-87636,0,1.4014e+07,-73.87,10866,11508,1,11508,1,-0.00054921,-5.2286e-08,0,0.00042048,-0.00023288,-2.2335e+08,-12779,0,1.4169e+08,3012.2,11507,12724,1,12724,1,0.0012538,5.2088e-08,0,0.0013219,0.0001035,2.7519e+08,13375,0,3.2814e+08,14395,12723,702.88,0,702.88,0,0.0010032,1.1993e-07,0,0.00055779,0.00018727,2.7849e+08,28311,0,1.3092e+08,10007,702.88,1
2344,5.93,12116,1,12116,1,0.00034971,-2.9601e-09,0,0.00090566,-6.4175e-05,2.0571e+07,-77.225,0,2.4669e+08,11150,12115,13336,1,13336,1,0.0020346,4.4343e-07,0,0.0020346,0.00024862,3.4962e+08,98867,0,5.3854e+08,50907,13335,12118,1,12118,1,0.00035496,8.78e-10,0,0.00087163,-6.5385e-05,1.0819e+08,223.74,0,2.6084e+08,8289.1,12117,10867,1,10867,1,-0.0013241,-5.1214e-07,0,3.2323e-05,-0.00037863,-5.3854e+08,-93820,0,1.346e+07,-45.757,10866,11508,1,11508,1,-0.00054904,-5.728e-08,0,0.00042,-0.00023372,-2.2328e+08,-14112,0,1.4222e+08,3190.7,11507,12724,1,12724,1,0.0012584,5.5657e-08,0,0.0013237,0.00010347,2.7521e+08,14190,0,3.2834e+08,15424,12723,702.88,0,702.88,0,0.0010057,1.2904e-07,0,0.00055968,0.00018773,2.7859e+08,30338,0,1.3097e+08,10588,702.88,1
2344,5.94,12116,1,12116,1,0.00035213,-9.8208e-10,0,0.0009082,-6.4616e-05,2.0603e+07,452.25,0,2.4678e+08,11936,12115,13336,1,13336,1,0.0020413,4.7807e-07,0,0.0020413,0.00024895,3.49e+08,1.054e+05,0,5.3926e+08,53546,13335,12118,1,12118,1,0.00035739,4.1068e-09,0,0.00087536,-6.5828e-05,1.0875e+08,1066.2,0,2.6098e+08,8976.7,12117,10867,1,10867,1,-0.0013259,-5.4683e-07,0,3.0846e-05,-0.00037986,-5.3926e+08,-99763,0,1.29e+07,-70.171,10866,11508,1,11508,1,-0.00054887,-5.9831e-08,0,0.00041951,-0.00023458,-2.2321e+08,-14746,0,1.4276e+08,3487.3,11507,12724,1,12724,1,0.0012631,6.2279e-08,0,0.0013254,0.00010344,2.7523e+08,16006,0,3.2853e+08,16616,12723,702.88,0,702.88,0,0.0010082,1.39e-07,0,0.0005616,0.0001882,2.7869e+08,32542,0,1.3102e+08,11172,702.88,1
2344,5.95,12116,1,12116,1,0.00035459,-6.1874e-09,0,0.00091078,-6.5065e-05,2.0636e+07,-804.46,0,2.4686e+08,12698,12115,13336,1,13336,1,0.0020481,5.1011e-07,0,0.0020481,0.00024929,3.484e+08,1.1223e+05,0,5.3999e+08,56105,13335,12118,1,12118,1,0.00035986,-4.1633e-09,0,0.00087915,-6.6278e-05,1.0931e+08,-1099.4,0,2.6111e+08,9612.5,12117,10867,1,10867,1,-0.0013277,-5.857e-07,0,2.9341e-05,-0.00038111,-5.3999e+08,-1.0646e+05,0,1.2332e+07,-0.56312,10866,11508,1,11508,1,-0.00054868,-7.0664e-08,0,0.00041901,-0.00023544,-2.2313e+08,-17414,0,1.433e+08,3706.2,11507,12724,1,12724,1,0.0012678,6.1894e-08,0,0.0013272,0.00010342,2.7524e+08,15846,0,3.2872e+08,17620,12723,702.88,0,702.88,0,0.0010108,1.4901e-07,0,0.00056354,0.00018867,2.7879e+08,34850,0,1.3108e+08,11808,702.88,1
2344,5.96,12116,1,12116,1,0.00035709,-3.1431e-09,0,0.00091339,-6.552e-05,2.0667e+07,-68.667,0,2.4694e+08,13576,12115,13336,1,13336,1,0.002055,5.4936e-07,0,0.002055,0.00024963,3.4776e+08,1.1994e+05,0,5.4073e+08,59468,13335,12118,1,12118,1,0.00036237,1.3368e-09,0,0.00088299,-6.6736e-05,1.0988e+08,354.1,0,2.6124e+08,10400,12117,10867,1,10867,1,-0.0013295,-6.2538e-07,0,2.7806e-05,-0.00038238,-5.4073e+08,-1.1318e+05,0,1.1756e+07,-28.615,10866,11508,1,11508,1,-0.00054849,-7.3021e-08,0,0.00041849,-0.00023631,-2.2305e+08,-17965,0,1.4385e+08,3998.4,11507,12724,1,12724,1,0.0012726,7.006e-08,0,0.0013289,0.00010338,2.7526e+08,17917,0,3.289e+08,18784,12723,702.88,0,702.88,0,0.0010134,1.6029e-07,0,0.00056552,0.00018914,2.7888e+08,37396,0,1.3113e+08,12486,702.88,1
2344,5.97,12116,1,12116,1,0.00035962,-2.6919e-09,0,0.00091603,-6.5983e-05,2.07e+07,72.25,0,2.4702e+08,14493,12115,13336,1,13336,1,0.002062,5.9206e-07,0,0.002062,0.00024998,3.4712e+08,1.2793e+05,0,5.4146e+08,62859,13335,12118,1,12118,1,0.00036492,3.1126e-09,0,0.00088688,-6.72e-05,1.1046e+08,736.68,0,2.6137e+08,11271,12117,10867,1,10867,1,-0.0013313,-6.7132e-07,0,2.6238e-05,-0.00038367,-5.4146e+08,-1.2102e+05,0,1.1171e+07,-78.831,10866,11508,1,11508,1,-0.00054827,-7.885e-08,0,0.00041795,-0.00023719,-2.2296e+08,-19449,0,1.4441e+08,4312.8,11507,12724,1,12724,1,0.0012774,7.7291e-08,0,0.0013307,0.00010335,2.7526e+08,19610,0,3.2909e+08,20158,12723,702.88,0,702.88,0,0.001016,1.7303e-07,0,0.00056752,0.00018962,2.7897e+08,40238,0,1.3118e+08,13206,702.88,1
2344,5.98,12116,1,12116,1,0.00036219,-2.9736e-09,0,0.00091869,-6.6452e-05,2.0732e+07,65.669,0,2.4709e+08,15552,12115,13336,1,13336,1,0.0020691,6.3962e-07,0,0.0020691,0.00025032,3.4647e+08,1.3686e+05,0,5.422e+08,66009,13335,12118,1,12118,1,0.0003675,2.1372e-09,0,0.00089082,-6.7669e-05,1.1104e+08,543.26,0,2.615e+08,12272,12117,10867,1,10867,1,-0.0013331,-7.2051e-07,0,2.4646e-05,-0.00038497,-5.422e+08,-1.2936e+05,0,1.0579e+07,-108.02,10866,11508,1,11508,1,-0.00054804,-8.6173e-08,0,0.0004174,-0.00023809,-2.2287e+08,-21036,0,1.4497e+08,4662.9,11507,12724,1,12724,1,0.0012823,8.3728e-08,0,0.0013325,0.00010331,2.7526e+08,21402,0,3.2927e+08,21653,12723,702.88,0,702.88,0,0.0010186,1.8716e-07,0,0.00056955,0.00019011,2.7906e+08,43312,0,1.3124e+08,13939,702.88,1
2344,5.99,12116,1,12116,1,0.00036482,-5.9747e-09,0,0.00092141,-6.693e-05,2.0766e+07,-620.22,0,2.4717e+08,16608,12115,13336,1,13336,1,0.0020763,6.8399e-07,0,0.0020763,0.00025067,3.4582e+08,1.4653e+05,0,5.4295e+08,69636,13335,12118,1,12118,1,0.00037014,-2.1873e-09,0,0.00089485,-6.8149e-05,1.1163e+08,-574.27,0,2.6162e+08,13254,12117,10867,1,10867,1,-0.001335,-7.7518e-07,0,2.3018e-05,-0.0003863,-5.4295e+08,-1.3863e+05,0,9.9772e+06,-33.854,10866,11508,1,11508,1,-0.00054781,-9.5073e-08,0,0.00041683,-0.000239,-2.2277e+08,-23423,0,1.4554e+08,5012.6,11507,12724,1,12724,1,0.0012872,8.7621e-08,0,0.0013343,0.00010328,2.7526e+08,22239,0,3.292e+08,23243,12723,702.88,0,702.88,0,0.0010213,2.0129e-07,0,0.00057162,0.0001906,2.7915e+08,46520,0,1.313e+08,14803,702.88,1
2344,6,12116,1,12116,1,0.00036748,-8.6181e-09,0,0.00092413,-6.7415e-05,2.0799e+07,-1302.6,0,2.4723e+08,17839,12115,13336,1,13336,1,0.0020835,7.4169e-07,0,0.0020835,0.00025101,3.4514e+08,1.5624e+05,0,5.4369e+08,73703,13335,12118,1,12118,1,0.00037281,-7.0641e-09,0,0.0008989,-6.8634e-05,1.1223e+08,-1789.4,0,2.6173e+08,14471,12117,10867,1,10867,1,-0.0013368,-8.3694e-07,0,2.1348e-05,-0.00038763,-5.4369e+08,-1.4917e+05,0,9.3622e+06,-13.511,10866,11508,1,11508,1,-0.00054753,-1.0624e-07,0,0.00041623,-0.00023991,-2.2266e+08,-26561,0,1.4611e+08,5423.4,11507,12724,1,12724,1,0.0012922,9.4039e-08,0,0.001336,0.00010323,2.7523e+08,23502,0,3.2856e+08,24981,12723,702.88,0,702.88,0,0.0010239,2.182e-07,0,0.00057371,0.0001911,2.7923e+08,50199,0,1.3135e+08,15726,702.88,1
2344,6.01,12116,1,12116,1,0.00037018,-9.9957e-09,0,0.00092692,-6.7908e-05,2.0833e+07,-1746.2,0,2.473e+08,19081,12115,13336,1,13336,1,0.002091,7.9447e-07,0,0.002091,0.00025137,3.4445e+08,1.6763e+05,0,5.4446e+08,77950,13335,12118,1,12118,1,0.00037553,-8.9843e-09,0,0.00090304,-6.9127e-05,1.1283e+08,-2274.5,0,2.6185e+08,15669,12117,10867,1,10867,1,-0.0013387,-8.9394e-07,0,1.9662e-05,-0.000389,-5.4446e+08,-1.5875e+05,0,8.7443e+06,-39.831,10866,11508,1,11508,1,-0.00054728,-1.1626e-07,0,0.00041563,-0.00024084,-2.2256e+08,-28958,0,1.4669e+08,5886.4,11507,12724,1,12724,1,0.0012973,1.015e-07,0,0.0013378,0.00010319,2.7523e+08,25245,0,3.2793e+08,26637,12723,702.88,0,702.88,0,0.0010267,2.3422e-07,0,0.00057585,0.0001916,2.7932e+08,54031,0,1.3141e+08,16664,702.88,1
2344,6.02,12116,1,12116,1,0.00037295,-6.395e-09,0,0.00092976,-6.8411e-05,2.0866e+07,-954.92,0,2.4737e+08,20547,12115,13336,1,13336,1,0.0020986,8.6284e-07,0,0.0020986,0.00025173,3.4374e+08,1.7955e+05,0,5.4524e+08,82728,13335,12118,1,12118,1,0.00037831,-4.4227e-09,0,0.00090727,-6.963e-05,1.1345e+08,-1120.7,0,2.6197e+08,17133,12117,10867,1,10867,1,-0.0013406,-9.6214e-07,0,1.7927e-05,-0.0003904,-5.4524e+08,-1.7077e+05,0,8.1108e+06,144.95,10866,11508,1,11508,1,-0.000547,-1.2216e-07,0,0.00041502,-0.00024179,-2.2244e+08,-30672,0,1.4728e+08,6425.7,11507,12724,1,12724,1,0.0013025,1.1467e-07,0,0.0013397,0.00010315,2.7521e+08,28683,0,3.2727e+08,28659,12723,702.88,0,702.88,0,0.0010295,2.5469e-07,0,0.00057804,0.00019212,2.7941e+08,58374,0,1.3147e+08,17648,702.88,1
2344,6.03,12116,1,12116,1,0.00037578,-8.7557e-09,0,0.00093264,-6.8926e-05,2.0901e+07,-1565.6,0,2.4743e+08,22038,12115,13336,1,13336,1,0.0021063,9.3681e-07,0,0.0021063,0.00025209,3.4302e+08,1.9348e+05,0,5.46e+08,87224,13335,12118,1,12118,1,0.00038115,-1.0262e-08,0,0.00091158,-7.0145e-05,1.1407e+08,-2578.3,0,2.6208e+08,18506,12117,10867,1,10867,1,-0.0013425,-1.0355e-06,0,1.6138e-05,-0.00039182,-5.46e+08,-1.8337e+05,0,7.4597e+06,2.5015,10866,11508,1,11508,1,-0.00054669,-1.3615e-07,0,0.00041436,-0.00024275,-2.2231e+08,-33939,0,1.4789e+08,6944.8,11507,12724,1,12724,1,0.0013078,1.2342e-07,0,0.0013415,0.0001031,2.7518e+08,30652,0,3.2659e+08,30947,12723,702.88,0,702.88,0,0.0010323,2.7647e-07,0,0.00058027,0.00019264,2.7948e+08,63185,0,1.3153e+08,18727,702.88,1
2344,6.04,12116,1,12116,1,0.00037866,-7.8334e-09,0,0.00093558,-6.945e-05,2.0936e+07,-1434.7,0,2.4749e+08,23698,12115,13336,1,13336,1,0.0021142,1.0136e-06,0,0.0021142,0.00025246,3.4228e+08,2.0772e+05,0,5.468e+08,92765,13335,12118,1,12118,1,0.00038405,-9.4118e-09,0,0.00091597,-7.0669e-05,1.1471e+08,-2395.1,0,2.6219e+08,20078,12117,10867,1,10867,1,-0.0013444,-1.1181e-06,0,1.4314e-05,-0.00039327,-5.468e+08,-1.9806e+05,0,6.7979e+06,88.079,10866,11508,1,11508,1,-0.00054638,-1.4685e-07,0,0.0004137,-0.00024373,-2.2219e+08,-36551,0,1.485e+08,7533.7,11507,12724,1,12724,1,0.0013131,1.3674e-07,0,0.0013434,0.00010305,2.7515e+08,33876,0,3.259e+08,33411,12723,702.88,0,702.88,0,0.0010352,3.0013e-07,0,0.00058255,0.00019317,2.7957e+08,68329,0,1.3159e+08,19932,702.88,1
2344,6.05,12116,1,12116,1,0.00038162,-7.1585e-09,0,0.00093858,-6.9987e-05,2.0971e+07,-1319.9,0,2.4755e+08,25573,12115,13336,1,13336,1,0.0021223,1.1006e-06,0,0.0021223,0.00025283,3.4153e+08,2.2427e+05,0,5.4761e+08,98491,13335,12118,1,12118,1,0.00038702,-7.8778e-09,0,0.00092047,-7.1205e-05,1.1536e+08,-1988.7,0,2.623e+08,21915,12117,10867,1,10867,1,-0.0013464,-1.2081e-06,0,1.2435e-05,-0.00039476,-5.4761e+08,-2.1368e+05,0,6.1184e+06,78.647,10866,11508,1,11508,1,-0.00054604,-1.5924e-07,0,0.00041302,-0.00024473,-2.2205e+08,-39932,0,1.4912e+08,8159.4,11507,12724,1,12724,1,0.0013186,1.5102e-07,0,0.0013452,0.000103,2.7512e+08,37294,0,3.2519e+08,36079,12723,702.88,0,702.88,0,0.0010381,3.2631e-07,0,0.00058489,0.00019372,2.7965e+08,74134,0,1.3166e+08,21270,702.88,1
2344,6.06,12116,1,12116,1,0.00038464,-3.0581e-09,0,0.00094163,-7.0536e-05,2.1007e+07,-330.06,0,2.4761e+08,27546,12115,13336,1,13336,1,0.0021306,1.1945e-06,0,0.0021306,0.00025321,3.4075e+08,2.4192e+05,0,5.4842e+08,1.0504e+05,13335,12118,1,12118,1,0.00039006,-7.0317e-10,0,0.00092507,-7.1754e-05,1.1602e+08,-153.15,0,2.6241e+08,23916,12117,10867,1,10867,1,-0.0013484,-1.3089e-06,0,1.0499e-05,-0.00039629,-5.4842e+08,-2.308e+05,0,5.4214e+06,164.99,10866,11508,1,11508,1,-0.00054569,-1.7055e-07,0,0.0004123,-0.00024575,-2.2191e+08,-42465,0,1.4976e+08,8837.3,11507,12724,1,12724,1,0.0013242,1.7111e-07,0,0.0013471,0.00010294,2.7508e+08,41753,0,3.2446e+08,38931,12723,702.88,0,702.88,0,0.0010411,3.555e-07,0,0.00058728,0.00019427,2.7972e+08,80484,0,1.3172e+08,22632,702.88,1
2344,6.07,12116,1,12116,1,0.00038774,-2.4304e-09,0,0.00094475,-7.1097e-05,2.1043e+07,-95.615,0,2.4766e+08,29784,12115,13336,1,13336,1,0.002139,1.3008e-06,0,0.002139,0.0002536,3.3996e+08,2.6167e+05,0,5.4925e+08,1.1088e+05,13335,12118,1,12118,1,0.00039317,3.6431e-10,0,0.00092978,-7.2315e-05,1.167e+08,97.844,0,2.6251e+08,26085,12117,10867,1,10867,1,-0.0013504,-1.4198e-06,0,8.5078e-06,-0.00039785,-5.4925e+08,-2.4939e+05,0,4.7051e+06,211.98,10866,11508,1,11508,1,-0.00054531,-1.8761e-07,0,0.00041156,-0.00024678,-2.2175e+08,-46590,0,1.5041e+08,9619.4,11507,12724,1,12724,1,0.0013299,1.8941e-07,0,0.001349,0.00010288,2.7503e+08,46265,0,3.237e+08,42363,12723,702.88,0,702.88,0,0.0010442,3.8864e-07,0,0.00058973,0.00019484,2.798e+08,87637,0,1.3179e+08,24176,702.88,1
2344,6.08,12116,1,12116,1,0.00039092,-3.5035e-09,0,0.00094794,-7.1672e-05,2.108e+07,-248.26,0,2.477e+08,32243,12115,13336,1,13336,1,0.0021477,1.4149e-06,0,0.0021477,0.00025399,3.3917e+08,2.8324e+05,0,5.5009e+08,1.1735e+05,13335,12118,1,12118,1,0.00039637,-4.6115e-10,0,0.0009346,-7.2889e-05,1.1739e+08,-117,0,2.626e+08,28685,12117,10867,1,10867,1,-0.0013525,-1.5451e-06,0,6.4566e-06,-0.00039945,-5.5009e+08,-2.6995e+05,0,3.9683e+06,262.65,10866,11508,1,11508,1,-0.00054491,-2.0754e-07,0,0.00041079,-0.00024784,-2.2159e+08,-51360,0,1.5107e+08,10477,11507,12724,1,12724,1,0.0013357,2.0792e-07,0,0.001351,0.00010282,2.7497e+08,50878,0,3.2292e+08,45884,12723,702.88,0,702.88,0,0.0010473,4.2529e-07,0,0.00059224,0.00019541,2.7987e+08,95528,0,1.3186e+08,25792,702.88,1
2344,6.09,12116,1,12116,1,0.00039418,-3.3226e-09,0,0.0009512,-7.2262e-05,2.1118e+07,-98.6,0,2.4775e+08,34905,12115,13336,1,13336,1,0.0021566,1.5429e-06,0,0.0021566,0.00025439,3.3834e+08,3.0716e+05,0,5.5094e+08,1.2431e+05,13335,12118,1,12118,1,0.00039964,1.6299e-10,0,0.00093954,-7.3477e-05,1.1809e+08,45.551,0,2.627e+08,31427,12117,10867,1,10867,1,-0.0013546,-1.6808e-06,0,4.3406e-06,-0.00040109,-5.5094e+08,-2.9228e+05,0,3.2093e+06,245.59,10866,11508,1,11508,1,-0.00054448,-2.278e-07,0,0.00040999,-0.00024892,-2.2141e+08,-56336,0,1.5175e+08,11380,11507,12724,1,12724,1,0.0013416,2.2895e-07,0,0.0013529,0.00010275,2.7491e+08,56141,0,3.2211e+08,49787,12723,702.88,0,702.88,0,0.0010505,4.6579e-07,0,0.00059481,0.000196,2.7994e+08,1.0422e+05,0,1.3193e+08,27564,702.88,1
2344,6.1,12116,1,12116,1,0.00039753,-9.4954e-09,0,0.00095454,-7.2866e-05,2.1155e+07,-1491.2,0,2.4779e+08,37878,12115,13336,1,13336,1,0.0021658,1.6776e-06,0,0.0021658,0.0002548,3.3752e+08,3.3294e+05,0,5.5182e+08,1.3164e+05,13335,12118,1,12118,1,0.00040301,-7.4369e-09,0,0.00094461,-7.4079e-05,1.1881e+08,-1974.7,0,2.6279e+08,34521,12117,10867,1,10867,1,-0.0013568,-1.8357e-06,0,2.1592e-06,-0.00040278,-5.5182e+08,-3.1828e+05,0,2.428e+06,242.56,10866,11508,1,11508,1,-0.00054404,-2.5625e-07,0,0.00040917,-0.00025002,-2.2123e+08,-63872,0,1.5245e+08,12446,11507,12724,1,12724,1,0.0013477,2.4725e-07,0,0.0013549,0.00010268,2.7484e+08,60920,0,3.2128e+08,54198,12723,702.88,0,702.88,0,0.0010538,5.1072e-07,0,0.00059746,0.00019661,2.8001e+08,1.1392e+05,0,1.3201e+08,29483,702.88,1
2344,6.11,12116,1,12116,1,0.00040099,-6.2018e-09,0,0.00095798,-7.3489e-05,2.1195e+07,-700.75,0,2.4783e+08,41165,12115,13336,1,13336,1,0.0021753,1.8396e-06,0,0.0021753,0.00025522,3.3665e+08,3.6198e+05,0,5.5272e+08,1.3993e+05,13335,12118,1,12118,1,0.00040647,-3.5067e-09,0,0.00094984,-7.4699e-05,1.1955e+08,-911.01,0,2.6288e+08,37785,12117,10867,1,10867,1,-0.001359,-1.9999e-06,0,5.3473e-08,-0.00040453,-5.5272e+08,-3.4537e+05,0,1.6188e+06,324.57,10866,11508,1,11508,1,-0.00054357,-2.8042e-07,0,0.00040832,-0.00025115,-2.2104e+08,-69914,0,1.5316e+08,13727,11507,12724,1,12724,1,0.0013539,2.7747e-07,0,0.0013585,0.00010261,2.7476e+08,68052,0,3.2042e+08,59194,12723,702.88,0,702.88,0,0.0010571,5.6124e-07,0,0.0006002,0.00019723,2.8008e+08,1.247e+05,0,1.3209e+08,31625,702.88,1
2344,6.12,12116,1,12116,1,0.00040455,-7.6474e-09,0,0.00096162,-7.4131e-05,2.1235e+07,-962.99,0,2.4786e+08,44751,12115,13336,1,13336,1,0.0021851,2.0125e-06,0,0.0021851,0.00025564,3.3578e+08,3.936e+05,0,5.5363e+08,1.4847e+05,13335,12118,1,12118,1,0.00041005,-5.405e-09,0,0.00095146,-7.5338e-05,1.2031e+08,-1401.5,0,2.6297e+08,41509,12117,10867,1,10867,1,-0.0013612,-2.1879e-06,0,3.7757e-07,-0.00040634,-5.5363e+08,-3.7626e+05,0,7.8026e+05,368.3,10866,11508,1,11508,1,-0.00054308,-3.1209e-07,0,0.00041128,-0.00025231,-2.2084e+08,-77721,0,1.5389e+08,15040,11507,12724,1,12724,1,0.0013603,3.0697e-07,0,0.0013612,0.00010253,2.7467e+08,75493,0,3.1953e+08,64473,12723,702.88,0,702.88,0,0.0010606,6.1782e-07,0,0.00060286,0.00019787,2.8014e+08,1.3674e+05,0,1.3217e+08,33907,702.88,1
2344,6.13,12116,1,12116,1,0.00040823,-3.8351e-09,0,0.00096541,-7.4793e-05,2.1276e+07,61.715,0,2.4789e+08,48707,12115,13336,1,13336,1,0.0021953,2.208e-06,0,0.0021953,0.00025608,3.3486e+08,4.2863e+05,0,5.5458e+08,1.5767e+05,13335,12118,1,12118,1,0.00041374,5.9819e-09,0,0.0009526,-7.5995e-05,1.2109e+08,1410.8,0,2.6305e+08,45608,12117,10867,1,10867,1,-0.0013635,-2.3951e-06,0,8.9578e-07,-0.0004082,-5.5458e+08,-4.1016e+05,0,29740,432.5,10866,11508,1,11508,1,-0.00054255,-3.4301e-07,0,0.00041511,-0.0002535,-2.2062e+08,-84918,0,1.5464e+08,16644,11507,12724,1,12724,1,0.0013668,3.4669e-07,0,0.0013668,0.00010245,2.7458e+08,85155,0,3.186e+08,70641,12723,702.88,0,702.88,0,0.0010641,6.815e-07,0,0.00060551,0.00019852,2.8021e+08,1.5016e+05,0,1.3225e+08,36329,702.88,1
2344,6.14,12116,1,12116,1,0.00041204,-5.7689e-09,0,0.00096933,-7.5475e-05,2.1318e+07,-179.94,0,2.4796e+08,53172,12115,13336,1,13336,1,0.0022058,2.4249e-06,0,0.0022058,0.00025653,3.3394e+08,4.6747e+05,0,5.5554e+08,1.6716e+05,13335,12118,1,12118,1,0.00041756,3.7606e-09,0,0.00095345,-7.6673e-05,1.2189e+08,904.64,0,2.6312e+08,50275,12117,10867,1,10867,1,-0.0013659,-2.6288e-06,0,2.8421e-06,-0.00041014,-5.5554e+08,-4.475e+05,0,1.3157e+05,512.74,10866,11508,1,11508,1,-0.00054198,-3.8425e-07,0,0.00041908,-0.00025471,-2.2039e+08,-94259,0,1.5542e+08,18505,11507,12724,1,12724,1,0.0013735,3.8511e-07,0,0.0013735,0.00010236,2.7447e+08,94358,0,3.1763e+08,77277,12723,702.88,0,702.88,0,0.0010678,7.5351e-07,0,0.00060825,0.0001992,2.8026e+08,1.6521e+05,0,1.3226e+08,39118,702.88,1
2344,6.15,12116,1,12116,1,0.00041597,-5.1215e-09,0,0.00097338,-7.618e-05,2.1361e+07,213.02,0,2.4804e+08,58096,12115,13336,1,13336,1,0.0022167,2.6663e-06,0,0.0022167,0.000257,3.3299e+08,5.1025e+05,0,5.5654e+08,1.7708e+05,13335,12118,1,12118,1,0.00042151,8.7883e-09,0,0.00095432,-7.7371e-05,1.2271e+08,2193.2,0,2.632e+08,55753,12117,10867,1,10867,1,-0.0013684,-2.8862e-06,0,4.953e-06,-0.00041215,-5.5654e+08,-4.8934e+05,0,2.3813e+05,411.76,10866,11508,1,11508,1,-0.00054138,-4.2701e-07,0,0.00042321,-0.00025596,-2.2014e+08,-1.0431e+05,0,1.5622e+08,20481,11507,12724,1,12724,1,0.0013804,4.2856e-07,0,0.0013804,0.00010227,2.7435e+08,1.0487e+05,0,3.1663e+08,84953,12723,702.88,0,702.88,0,0.0010715,8.3364e-07,0,0.00061108,0.00019989,2.8032e+08,1.8201e+05,0,1.3224e+08,42155,702.88,1
2344,6.16,12116,1,12116,1,0.00042006,-7.1479e-09,0,0.00097758,-7.6911e-05,2.1404e+07,44.319,0,2.4813e+08,63575,12115,13336,1,13336,1,0.0022281,2.9374e-06,0,0.0022281,0.00025748,3.3203e+08,5.5938e+05,0,5.5757e+08,1.8735e+05,13335,12118,1,12118,1,0.00042561,4.5604e-09,0,0.00095521,-7.8095e-05,1.2356e+08,1194.3,0,2.6327e+08,61737,12117,10867,1,10867,1,-0.0013709,-3.1711e-06,0,7.12e-06,-0.00041425,-5.5757e+08,-5.354e+05,0,9.1826e+05,612.19,10866,11508,1,11508,1,-0.00054076,-4.7696e-07,0,0.00042752,-0.00025725,-2.1989e+08,-1.1658e+05,0,1.5705e+08,22836,11507,12724,1,12724,1,0.0013875,4.7938e-07,0,0.0013875,0.00010217,2.7422e+08,1.1701e+05,0,3.1559e+08,93518,12723,702.88,0,702.88,0,0.0010754,9.2435e-07,0,0.00061403,0.00020062,2.8038e+08,2.0092e+05,0,1.3222e+08,45413,702.88,1
2344,6.17,12116,1,12116,1,0.00042432,-1.0797e-08,0,0.00098194,-7.7672e-05,2.1451e+07,-508.92,0,2.4821e+08,69669,12115,13336,1,13336,1,0.0022401,3.2405e-06,0,0.0022401,0.00025798,3.3104e+08,6.1294e+05,0,5.5865e+08,1.9829e+05,13335,12118,1,12118,1,0.00042988,3.896e-09,0,0.00095612,-7.8847e-05,1.2445e+08,971.48,0,2.6334e+08,68398,12117,10867,1,10867,1,-0.0013736,-3.4988e-06,0,9.3598e-06,-0.00041645,-5.5865e+08,-5.8844e+05,0,1.7049e+06,624.94,10866,11508,1,11508,1,-0.00054009,-5.3815e-07,0,0.00043203,-0.00025857,-2.1961e+08,-1.3124e+05,0,1.5791e+08,24993,11507,12724,1,12724,1,0.0013948,5.3657e-07,0,0.0013948,0.00010207,2.7408e+08,1.299e+05,0,3.145e+08,1.0311e+05,12723,702.88,0,702.88,0,0.0010795,1.0273e-06,0,0.00061711,0.00020137,2.8044e+08,2.224e+05,0,1.3219e+08,49097,702.88,1
2344,6.18,12116,1,12116,1,0.00042877,-1.1145e-08,0,0.00098646,-7.8463e-05,2.1498e+07,-263.24,0,2.4829e+08,76523,12115,13336,1,13336,1,0.0022526,3.5903e-06,0,0.0022526,0.0002585,3.3001e+08,6.7294e+05,0,5.5975e+08,2.0999e+05,13335,12118,1,12118,1,0.00043433,4.9881e-09,0,0.00095703,-7.9628e-05,1.2536e+08,1277,0,2.6339e+08,75674,12117,10867,1,10867,1,-0.0013763,-3.8652e-06,0,1.1665e-05,-0.00041875,-5.5975e+08,-6.4593e+05,0,2.5189e+06,683.34,10866,11508,1,11508,1,-0.00053935,-6.0259e-07,0,0.00043676,-0.00025993,-2.1931e+08,-1.4736e+05,0,1.588e+08,27564,11507,12724,1,12724,1,0.0014023,6.0268e-07,0,0.0014023,0.00010196,2.7392e+08,1.4604e+05,0,3.1334e+08,1.143e+05,12723,702.88,0,702.88,0,0.0010837,1.1458e-06,0,0.00062032,0.00020214,2.8049e+08,2.467e+05,0,1.3216e+08,53158,702.88,1
2344,6.19,12116,1,12116,1,0.00043341,-2.0646e-08,0,0.00099119,-7.9289e-05,2.1547e+07,-2165.9,0,2.4837e+08,84126,12115,13336,1,13336,1,0.0022658,3.978e-06,0,0.0022658,0.00025905,3.2898e+08,7.4103e+05,0,5.6092e+08,2.213e+05,13335,12118,1,12118,1,0.00043898,-9.1405e-09,0,0.00095798,-8.044e-05,1.2631e+08,-2260,0,2.6345e+08,83356,12117,10867,1,10867,1,-0.0013791,-4.2767e-06,0,1.4029e-05,-0.00042119,-5.6092e+08,-7.1291e+05,0,3.3522e+06,825.19,10866,11508,1,11508,1,-0.00053858,-6.9069e-07,0,0.00044173,-0.00026135,-2.19e+08,-1.6879e+05,0,1.5974e+08,30333,11507,12724,1,12724,1,0.0014101,6.7512e-07,0,0.0014101,0.00010185,2.7376e+08,1.6217e+05,0,3.1214e+08,1.268e+05,12723,702.88,0,702.88,0,0.0010881,1.2804e-06,0,0.00062369,0.00020296,2.8055e+08,2.7449e+05,0,1.3213e+08,57647,702.88,1
2344,6.2,12116,1,12116,1,0.00043828,-1.4449e-08,0,0.0009961,-8.0151e-05,2.1596e+07,-507.46,0,2.4844e+08,92875,12115,13336,1,13336,1,0.0022797,4.4297e-06,0,0.0022797,0.00025961,3.2786e+08,8.1535e+05,0,5.6212e+08,2.3437e+05,13335,12118,1,12118,1,0.00044385,4.1972e-09,0,0.00095891,-8.1286e-05,1.2729e+08,1019.3,0,2.635e+08,92803,12117,10867,1,10867,1,-0.0013821,-4.744e-06,0,1.6477e-05,-0.00042374,-5.6212e+08,-7.8616e+05,0,4.2135e+06,954.87,10866,11508,1,11508,1,-0.00053773,-7.7462e-07,0,0.00044697,-0.0002628,-2.1865e+08,-1.886e+05,0,1.6071e+08,33705,11507,12724,1,12724,1,0.0014181,7.7032e-07,0,0.0014181,0.00010173,2.7356e+08,1.8646e+05,0,3.1086e+08,1.418e+05,12723,702.88,0,702.88,0,0.0010926,1.4362e-06,0,0.00062722,0.0002038,2.8059e+08,3.0601e+05,0,1.3211e+08,62686,702.88,1
2344,6.21,12116,1,12116,1,0.00044338,-2.1804e-08,0,0.0010013,-8.1055e-05,2.1648e+07,-1738.1,0,2.4851e+08,1.0247e+05,12115,13336,1,13336,1,0.0022945,4.9296e-06,0,0.0022945,0.00026021,3.2676e+08,9.0236e+05,0,5.634e+08,2.4651e+05,13335,12118,1,12118,1,0.00044895,-5.0265e-09,0,0.0009599,-8.217e-05,1.2832e+08,-1226,0,2.6354e+08,1.0351e+05,12117,10867,1,10867,1,-0.0013852,-5.261e-06,0,1.8959e-05,-0.00042646,-5.634e+08,-8.7051e+05,0,5.0827e+06,1114.9,10866,11508,1,11508,1,-0.00053685,-8.8404e-07,0,0.00045251,-0.0002643,-2.1828e+08,-2.1475e+05,0,1.6087e+08,37439,11507,12724,1,12724,1,0.0014265,8.6534e-07,0,0.0014265,0.0001016,2.7336e+08,2.0997e+05,0,3.0952e+08,1.59e+05,12723,702.88,0,702.88,0,0.0010974,1.6121e-06,0,0.00063093,0.00020468,2.8064e+08,3.4202e+05,0,1.3209e+08,68326,702.88,1
2344,6.22,12116,1,12116,1,0.00044876,-2.1218e-08,0,0.0010067,-8.2005e-05,2.1703e+07,-1238.1,0,2.4858e+08,1.1346e+05,12115,13336,1,13336,1,0.0023102,5.5102e-06,0,0.0023102,0.00026084,3.2562e+08,9.9921e+05,0,5.6474e+08,2.5895e+05,13335,12118,1,12118,1,0.00045432,-1.7174e-10,0,0.00096092,-8.3096e-05,1.2939e+08,-39.345,0,2.6358e+08,1.1629e+05,12117,10867,1,10867,1,-0.0013885,-5.8567e-06,0,2.1519e-05,-0.00042936,-5.6474e+08,-9.6566e+05,0,5.9753e+06,1433.9,10866,11508,1,11508,1,-0.00053588,-1.0025e-06,0,0.00045839,-0.00026585,-2.1789e+08,-2.434e+05,0,1.6062e+08,42033,11507,12724,1,12724,1,0.0014351,9.9742e-07,0,0.0014351,0.00010147,2.7314e+08,2.3997e+05,0,3.081e+08,1.7981e+05,12723,702.88,0,702.88,0,0.0011025,1.8184e-06,0,0.00063486,0.00020561,2.8069e+08,3.8358e+05,0,1.3207e+08,74713,702.88,1
2344,6.23,12116,1,12116,1,0.00045444,-2.3325e-08,0,0.0010124,-8.3007e-05,2.1759e+07,-1238.1,0,2.4863e+08,1.2586e+05,12115,13336,1,13336,1,0.002327,6.1664e-06,0,0.002327,0.00026149,3.2443e+08,1.1071e+06,0,5.6615e+08,2.7112e+05,13335,12118,1,12118,1,0.00045998,3.0583e-09,0,0.00096192,-8.4069e-05,1.3051e+08,696.99,0,2.636e+08,1.2996e+05,12117,10867,1,10867,1,-0.001392,-6.5426e-06,0,2.4142e-05,-0.00043245,-5.6615e+08,-1.0738e+06,0,6.8845e+06,1274.3,10866,11508,1,11508,1,-0.00053481,-1.1397e-06,0,0.00046467,-0.00026746,-2.1745e+08,-2.7677e+05,0,1.6036e+08,45917,11507,12724,1,12724,1,0.001444,1.1391e-06,0,0.001444,0.00010133,2.7288e+08,2.7437e+05,0,3.0657e+08,2.0214e+05,12723,702.88,0,702.88,0,0.0011077,2.0571e-06,0,0.00063901,0.00020659,2.8073e+08,4.3137e+05,0,1.3205e+08,82079,702.88,1
2344,6.24,12116,1,12116,1,0.00046046,-3.5581e-08,0,0.0010184,-8.4064e-05,2.1819e+07,-3471.8,0,2.4869e+08,1.3992e+05,12115,13336,1,13336,1,0.0023451,6.913e-06,0,0.0023451,0.0002622,3.2325e+08,1.2316e+06,0,5.6766e+08,2.8247e+05,13335,12118,1,12118,1,0.00046598,-1.1725e-08,0,0.00096299,-8.5091e-05,1.3169e+08,-2934.3,0,2.6362e+08,1.4403e+05,12117,10867,1,10867,1,-0.0013957,-7.3128e-06,0,2.6808e-05,-0.00043578,-5.6766e+08,-1.1987e+06,0,7.8022e+06,1701.8,10866,11508,1,11508,1,-0.00053368,-1.3184e-06,0,0.00047139,-0.00026912,-2.1698e+08,-3.1779e+05,0,1.5974e+08,49745,11507,12724,1,12724,1,0.0014532,1.2982e-06,0,0.0014532,0.00010118,2.7261e+08,3.1045e+05,0,3.0496e+08,2.2753e+05,12723,702.88,0,702.88,0,0.0011133,2.3339e-06,0,0.00064342,0.00020762,2.8077e+08,4.8687e+05,0,1.3203e+08,90518,702.88,1
2344,6.25,12116,1,12116,1,0.00046685,-3.0482e-08,0,0.0010247,-8.5185e-05,2.188e+07,-1933.9,0,2.4874e+08,1.5601e+05,12115,13336,1,13336,1,0.0023647,7.8026e-06,0,0.0023647,0.00026295,3.2198e+08,1.3725e+06,0,5.6926e+08,3.0233e+05,13335,12118,1,12118,1,0.00047233,-1.7708e-10,0,0.00096406,-8.6169e-05,1.3293e+08,-39.08,0,2.6362e+08,1.6156e+05,12117,10867,1,10867,1,-0.0013997,-8.1939e-06,0,2.9554e-05,-0.00043937,-5.6926e+08,-1.3381e+06,0,8.74e+06,2007.1,10866,11508,1,11508,1,-0.00053241,-1.5151e-06,0,0.00047861,-0.00027083,-2.1646e+08,-3.6337e+05,0,1.5905e+08,53465,11507,12724,1,12724,1,0.0014627,1.4997e-06,0,0.0014628,0.00010101,2.723e+08,3.5847e+05,0,3.0321e+08,2.5474e+05,12723,702.88,0,702.88,0,0.0011192,2.6628e-06,0,0.00064813,0.0002087,2.808e+08,5.5153e+05,0,1.3202e+08,1.0047e+05,702.88,1
2344,6.26,12116,1,12116,1,0.00047366,-3.8244e-08,0,0.0010315,-8.6376e-05,2.1945e+07,-3091.3,0,2.4877e+08,1.7424e+05,12115,13336,1,13336,1,0.0023859,8.8118e-06,0,0.0023859,0.00026376,3.2072e+08,1.5328e+06,0,5.7097e+08,3.3509e+05,13335,12118,1,12118,1,0.00047908,-9.6925e-09,0,0.00096515,-8.7308e-05,1.3424e+08,-2378.6,0,2.636e+08,1.7896e+05,12117,10867,1,10867,1,-0.0014039,-9.2034e-06,0,3.2332e-05,-0.00044327,-5.7097e+08,-1.4976e+06,0,9.68e+06,2462,10866,11508,1,11508,1,-0.00053102,-1.7537e-06,0,0.0004864,-0.0002726,-2.1589e+08,-4.2026e+05,0,1.5832e+08,60594,11507,12724,1,12724,1,0.0014726,1.7263e-06,0,0.0014726,0.00010084,2.7195e+08,4.1446e+05,0,3.0134e+08,2.8242e+05,12723,702.88,0,702.88,0,0.0011254,3.047e-06,0,0.00065315,0.00020986,2.8082e+08,6.2684e+05,0,1.3202e+08,1.1222e+05,702.88,1
2344,6.27,12116,1,12116,1,0.00048094,-3.6949e-08,0,0.0010386,-8.7645e-05,2.2013e+07,-2128.4,0,2.4879e+08,1.9497e+05,12115,13336,1,13336,1,0.002409,9.9637e-06,0,0.002409,0.00026462,3.1941e+08,1.7144e+06,0,5.7281e+08,3.874e+05,13335,12118,1,12118,1,0.00048628,7.0404e-11,0,0.00096626,-8.8514e-05,1.3562e+08,-18.998,0,2.6357e+08,2.0085e+05,12117,10867,1,10867,1,-0.0014084,-1.0359e-05,0,3.5144e-05,-0.00044752,-5.7281e+08,-1.6784e+06,0,1.0622e+07,2574.6,10866,11508,1,11508,1,-0.00052948,-2.0207e-06,0,0.00049485,-0.00027443,-2.1526e+08,-4.8771e+05,0,1.5754e+08,70830,11507,12724,1,12724,1,0.0014827,2.0074e-06,0,0.0014827,0.00010065,2.7156e+08,4.8359e+05,0,2.9931e+08,3.1553e+05,12723,702.88,0,702.88,0,0.001132,3.4995e-06,0,0.00065854,0.00021108,2.8083e+08,7.1461e+05,0,1.3202e+08,1.2634e+05,702.88,1
2344,6.28,12116,1,12116,1,0.00048874,-4.4137e-08,0,0.0010463,-8.9003e-05,2.2085e+07,-2898.9,0,2.488e+08,2.1842e+05,12115,13336,1,13336,1,0.0024344,1.1294e-05,0,0.0024344,0.00026556,3.181e+08,1.9208e+06,0,5.748e+08,4.5745e+05,13335,12118,1,12118,1,0.00049397,-5.8043e-09,0,0.0009674,-8.9797e-05,1.3708e+08,-1340.6,0,2.6352e+08,2.2578e+05,12117,10867,1,10867,1,-0.0014133,-1.1677e-05,0,3.7963e-05,-0.0004522,-5.748e+08,-1.8848e+06,0,1.1554e+07,2527.8,10866,11508,1,11508,1,-0.00052778,-2.3708e-06,0,0.00050407,-0.0002763,-2.1455e+08,-5.6829e+05,0,1.5672e+08,81333,11507,12724,1,12724,1,0.0014931,2.3413e-06,0,0.0014932,0.00010045,2.7112e+08,5.6295e+05,0,2.9712e+08,3.4432e+05,12723,702.88,0,702.88,0,0.0011391,4.0358e-06,0,0.00066436,0.00021239,2.8084e+08,8.1794e+05,0,1.3203e+08,1.4361e+05,702.88,1
2344,6.29,12116,1,12116,1,0.00049711,-4.3027e-08,0,0.0010545,-9.0456e-05,2.2158e+07,-1667.6,0,2.4878e+08,2.4482e+05,12115,13336,1,13336,1,0.0024625,1.281e-05,0,0.0024625,0.00026658,3.1674e+08,2.154e+06,0,5.7696e+08,5.4385e+05,13335,12118,1,12118,1,0.00050219,4.3729e-09,0,0.00096853,-9.116e-05,1.3862e+08,1070.4,0,2.6343e+08,2.4189e+05,12117,10867,1,10867,1,-0.0014186,-1.3163e-05,0,4.0782e-05,-0.00045738,-5.7696e+08,-2.1179e+06,0,1.2475e+07,2500.9,10866,11508,1,11508,1,-0.00052588,-2.7698e-06,0,0.00051416,-0.0002782,-2.1377e+08,-6.6129e+05,0,1.5583e+08,88616,11507,12724,1,12724,1,0.0015037,2.7522e-06,0,0.0015037,0.00010024,2.7062e+08,6.5624e+05,0,2.9478e+08,3.8785e+05,12723,702.88,0,702.88,0,0.0011467,4.6714e-06,0,0.00067062,0.00021378,2.8082e+08,9.3943e+05,0,1.3204e+08,1.6513e+05,702.88,1
2344,6.3,12116,1,12116,1,0.00050615,-5.6723e-08,0,0.0010632,-9.2022e-05,2.2238e+07,-3477.3,0,2.4875e+08,2.7446e+05,12115,13336,1,13336,1,0.002494,1.4535e-05,0,0.002494,0.0002677,3.1543e+08,2.4135e+06,0,5.7933e+08,6.5187e+05,13335,12118,1,12118,1,0.00051102,-6.2212e-09,0,0.00097296,-9.262e-05,1.4026e+08,-1597.4,0,2.6332e+08,2.575e+05,12117,10867,1,10867,1,-0.0014244,-1.485e-05,0,4.3557e-05,-0.00046316,-5.7933e+08,-2.3804e+06,0,1.3367e+07,2164.8,10866,11508,1,11508,1,-0.00052374,-3.2889e-06,0,0.00052305,-0.00028014,-2.1289e+08,-7.8113e+05,0,1.5488e+08,96177,11507,12724,1,12724,1,0.0015144,3.2246e-06,0,0.0015144,0.00010001,2.7005e+08,7.6926e+05,0,2.9259e+08,4.314e+05,12723,702.88,0,702.88,0,0.0011548,5.434e-06,0,0.00067744,0.00021528,2.808e+08,1.083e+06,0,1.3207e+08,1.9281e+05,702.88,1
2344,6.31,12116,1,12116,1,0.00051595,-6.0624e-08,0,0.0010727,-9.3715e-05,2.2322e+07,-3174.1,0,2.4869e+08,3.074e+05,12115,13336,1,13336,1,0.0025293,1.6501e-05,0,0.0025293,0.00026893,3.1409e+08,2.7017e+06,0,5.8194e+08,7.8681e+05,13335,12118,1,12118,1,0.00052052,-2.3276e-09,0,0.00097544,-9.4185e-05,1.42e+08,-1097.4,0,2.6316e+08,2.6533e+05,12117,10867,1,10867,1,-0.0014309,-1.6728e-05,0,4.6307e-05,-0.00046966,-5.8194e+08,-2.6728e+06,0,1.4238e+07,1759.6,10866,11508,1,11508,1,-0.00052133,-3.904e-06,0,0.00052128,-0.00028209,-2.1189e+08,-9.1119e+05,0,1.5387e+08,1.0415e+05,11507,12724,1,12724,1,0.0015251,3.8378e-06,0,0.0015252,9.9768e-05,2.6939e+08,9.0565e+05,0,2.9037e+08,4.8996e+05,12723,702.88,0,702.88,0,0.0011635,6.3485e-06,0,0.00068488,0.0002169,2.8076e+08,1.253e+06,0,1.3211e+08,2.291e+05,702.88,1
2344,6.32,12116,1,12116,1,0.00052665,-6.9209e-08,0,0.0010829,-9.5562e-05,2.2411e+07,-3781.1,0,2.4859e+08,3.434e+05,12115,13336,1,13336,1,0.0025697,1.8688e-05,0,0.0025697,0.00027031,3.1275e+08,3.0176e+06,0,5.8486e+08,9.5699e+05,13335,12118,1,12118,1,0.0005308,-7.6055e-09,0,0.00098605,-9.5884e-05,1.4385e+08,-1969.5,0,2.6296e+08,2.7501e+05,12117,10867,1,10867,1,-0.001438,-1.878e-05,0,4.8989e-05,-0.00047709,-5.8486e+08,-2.9982e+06,0,1.5073e+07,1026.8,10866,11508,1,11508,1,-0.00051859,-4.656e-06,0,0.0005196,-0.00028404,-2.1075e+08,-1.0829e+06,0,1.5278e+08,96436,11507,12724,1,12724,1,0.0015357,4.6014e-06,0,0.0015358,9.951e-05,2.6864e+08,1.0749e+06,0,2.8798e+08,5.5935e+05,12723,702.88,0,702.88,0,0.0011731,7.4439e-06,0,0.00069308,0.00021865,2.8069e+08,1.4544e+06,0,1.3217e+08,2.7755e+05,702.88,1
2344,6.33,12116,1,12116,1,0.00053838,-7.9093e-08,0,0.0010941,-9.759e-05,2.2506e+07,-4510.7,0,2.4845e+08,3.8208e+05,12115,13336,1,13336,1,0.0026162,2.1158e-05,0,0.0026162,0.00027187,3.1141e+08,3.3622e+06,0,5.8814e+08,1.1743e+06,13335,12118,1,12118,1,0.00054194,-1.2361e-08,0,0.0010016,-9.7738e-05,1.4583e+08,-2840.1,0,2.6269e+08,2.7905e+05,12117,10867,1,10867,1,-0.0014461,-2.1227e-05,0,4.7948e-05,-0.00048564,-5.8814e+08,-3.3508e+06,0,1.5868e+07,-46507,10866,11508,1,11508,1,-0.00051543,-5.6023e-06,0,0.00051788,-0.00028596,-2.0944e+08,-1.2662e+06,0,1.5188e+08,78477,11507,12724,1,12724,1,0.0015459,5.5476e-06,0,0.001546,9.9232e-05,2.6776e+08,1.2619e+06,0,2.8555e+08,6.2875e+05,12723,702.88,0,702.88,0,0.0011835,8.7684e-06,0,0.00070219,0.00022056,2.806e+08,1.694e+06,0,1.3225e+08,3.4361e+05,702.88,1
2344,6.34,12116,1,12116,1,0.00055136,-8.3155e-08,0,0.0011064,-9.9833e-05,2.2607e+07,-4420,0,2.4826e+08,4.2355e+05,12115,13336,1,13336,1,0.0026706,2.4362e-05,0,0.0026706,0.00027365,3.1006e+08,3.7851e+06,0,5.9187e+08,1.4546e+06,13335,12118,1,12118,1,0.00055406,-1.5297e-08,0,0.0010186,-9.9781e-05,1.4794e+08,-4313.9,0,2.6233e+08,2.8291e+05,12117,10867,1,10867,1,-0.0014553,-2.4358e-05,0,3.7263e-05,-0.00049566,-5.9187e+08,-3.7827e+06,0,1.5448e+07,-2.2438e+05,10866,11508,1,11508,1,-0.00051174,-6.6174e-06,0,0.0005156,-0.00028781,-2.0791e+08,-1.5062e+06,0,1.5396e+08,52238,11507,12724,1,12724,1,0.0015554,6.5139e-06,0,0.0015556,9.8743e-05,2.6671e+08,1.5017e+06,0,2.8326e+08,7.3707e+05,12723,702.88,0,702.88,0,0.0011949,1.0384e-05,0,0.0007124,0.00022266,2.8047e+08,1.9812e+06,0,1.3235e+08,4.3399e+05,702.88,1
2344,6.35,12116,1,12116,1,0.00056584,-9.6152e-08,0,0.0011199,-0.00010235,2.2717e+07,-5487.4,0,2.48e+08,4.6512e+05,12115,13336,1,13336,1,0.0027353,2.8383e-05,0,0.0027353,0.0002757,3.0869e+08,4.3212e+06,0,5.9618e+08,1.819e+06,13335,12118,1,12118,1,0.00056732,-8.6602e-09,0,0.0010371,-0.00010208,1.5022e+08,-1762.1,0,2.6187e+08,2.7731e+05,12117,10867,1,10867,1,-0.0014659,-2.8417e-05,0,2.4692e-05,-0.00050757,-5.9618e+08,-4.315e+06,0,1.0832e+07,-4.6418e+05,10866,11508,1,11508,1,-0.00050741,-7.8545e-06,0,0.00051334,-0.00029172,-2.0611e+08,-1.8045e+06,0,1.5702e+08,23940,11507,12724,1,12724,1,0.0015923,7.7248e-06,0,0.0015923,9.8078e-05,2.6547e+08,1.7967e+06,0,2.8062e+08,8.4481e+05,12723,702.88,0,702.88,0,0.0012077,1.235e-05,0,0.00072402,0.00022499,2.8029e+08,2.323e+06,0,1.3249e+08,5.5827e+05,702.88,1
2344,6.36,12116,1,12116,1,0.00058227,-1.0552e-07,0,0.0011352,-0.00010521,2.2837e+07,-6183.3,0,2.4765e+08,5.0717e+05,12115,13336,1,13336,1,0.002814,3.3701e-05,0,0.002814,0.00027811,3.0724e+08,5.0056e+06,0,6.0121e+08,2.3049e+06,13335,12118,1,12118,1,0.00058194,-6.9921e-08,0,0.0010575,-0.00010473,1.5266e+08,-19172,0,2.6121e+08,2.6623e+05,12117,10867,1,10867,1,-0.0014783,-3.375e-05,0,9.6381e-06,-0.00052205,-6.0121e+08,-4.9984e+06,0,5.4923e+06,-7.5807e+05,10866,11508,1,11508,1,-0.00050218,-9.5194e-06,0,0.0005108,-0.00029919,-2.0394e+08,-2.22e+06,0,1.6103e+08,-267,11507,12724,1,12724,1,0.0016348,9.3091e-06,0,0.001635,9.7207e-05,2.6199e+08,2.1827e+06,0,2.7658e+08,9.7018e+05,12723,702.88,0,702.88,0,0.0012222,1.479e-05,0,0.00073751,0.00022763,2.8005e+08,2.7367e+06,0,1.3268e+08,7.2822e+05,702.88,1
2344,6.37,12116,1,12116,1,0.00060117,-1.0257e-07,0,0.0011526,-0.00010848,2.297e+07,-4509.6,0,2.4717e+08,5.4913e+05,12115,13336,1,13336,1,0.0029119,4.0882e-05,0,0.0029119,0.00028099,3.0563e+08,5.8895e+06,0,6.0719e+08,2.9469e+06,13335,12118,1,12118,1,0.00059818,-1.1934e-07,0,0.0010726,-0.00010784,1.5531e+08,-24732,0,2.5797e+08,2.3483e+05,12117,10867,1,10867,1,-0.001493,-4.0898e-05,0,5.5591e-06,-0.00054009,-6.0719e+08,-5.8801e+06,0,8.2309e+05,-1.101e+06,10866,11508,1,11508,1,-0.00049579,-1.1886e-05,0,0.00051047,-0.00030679,-2.0128e+08,-2.7423e+06,0,1.657e+08,-63791,11507,12724,1,12724,1,0.0016683,1.1477e-05,0,0.0016685,9.6077e-05,2.5937e+08,2.7282e+06,0,2.7325e+08,1.1478e+06,12723,702.88,0,702.88,0,0.0012388,1.788e-05,0,0.00075333,0.00023065,2.7972e+08,3.2438e+06,0,1.3291e+08,9.6006e+05,702.88,1
2344,6.38,12116,1,12116,1,0.00062337,-1.1992e-07,0,0.0011733,-0.00011225,2.3116e+07,-6301,0,2.4667e+08,5.9117e+05,12115,13336,1,13336,1,0.0030375,5.072e-05,0,0.0030375,0.00028452,3.0387e+08,7.0546e+06,0,6.1451e+08,3.8405e+06,13335,12118,1,12118,1,0.00061637,-2.0148e-07,0,0.0010798,-0.00011165,1.5819e+08,-37582,0,2.5368e+08,1.7848e+05,12117,10867,1,10867,1,-0.001511,-5.0789e-05,0,1.1222e-05,-0.00056322,-6.1451e+08,-7.0433e+06,0,2.9598e+06,-1.4898e+06,10866,11508,1,11508,1,-0.00048788,-1.4511e-05,0,0.00051406,-0.00031265,-1.9798e+08,-3.3381e+06,0,1.6911e+08,-2.1126e+05,11507,12724,1,12724,1,0.0016956,1.4262e-05,0,0.0016962,9.4669e-05,2.566e+08,3.3174e+06,0,2.6991e+08,1.3417e+06,12723,702.88,0,702.88,0,0.0012587,2.1881e-05,0,0.00077218,0.00023419,2.793e+08,3.8758e+06,0,1.3299e+08,1.2758e+06,702.88,1
2344,6.39,12116,1,12116,1,0.00065023,-1.2375e-07,0,0.0011983,-0.00011674,2.329e+07,-5907.8,0,2.4603e+08,6.3163e+05,12115,13336,1,13336,1,0.0032044,6.485e-05,0,0.0032044,0.00028896,3.0169e+08,8.6252e+06,0,6.2365e+08,5.1057e+06,13335,12118,1,12118,1,0.00063465,-2.9123e-07,0,0.0011027,-0.00011643,1.6136e+08,-47498,0,2.4955e+08,1.3475e+05,12117,10867,1,10867,1,-0.0015336,-6.4888e-05,0,1.5415e-05,-0.00059397,-6.2365e+08,-8.613e+06,0,4.3861e+06,-1.9995e+06,10866,11508,1,11508,1,-0.00047769,-1.7545e-05,0,0.00052716,-0.00031747,-1.9374e+08,-4.0687e+06,0,1.7171e+08,-4.7137e+05,11507,12724,1,12724,1,0.0017225,1.7169e-05,0,0.0017233,9.2772e-05,2.5213e+08,4.0533e+06,0,2.6684e+08,1.5606e+06,12723,702.88,0,702.88,0,0.0012831,2.7234e-05,0,0.00079601,0.00023846,2.7873e+08,4.6789e+06,0,1.3304e+08,1.7119e+06,702.88,1
2344,6.4,12116,1,12116,1,0.00068382,-1.2999e-07,0,0.0012293,-0.00012223,2.349e+07,-6008.1,0,2.4513e+08,6.7342e+05,12115,13336,1,13336,1,0.0034371,8.5828e-05,0,0.0034371,0.00029474,2.9903e+08,1.0795e+07,0,6.3549e+08,6.9317e+06,13335,12118,1,12118,1,0.00065888,-4.5991e-07,0,0.0011114,-0.00012265,1.6481e+08,-68716,0,2.4562e+08,51459,12117,10867,1,10867,1,-0.0015627,-8.59e-05,0,1.8759e-05,-0.00063685,-6.3549e+08,-1.0784e+07,0,5.6482e+06,-2.7416e+06,10866,11508,1,11508,1,-0.00046411,-2.1717e-05,0,0.00054478,-0.00032258,-1.8808e+08,-4.9592e+06,0,1.741e+08,-8.6846e+05,11507,12724,1,12724,1,0.0017804,2.1299e-05,0,0.0017814,9.0244e-05,2.484e+08,4.9577e+06,0,2.6425e+08,1.8971e+06,12723,702.88,0,702.88,0,0.0013147,3.4742e-05,0,0.00082803,0.00024381,2.7797e+08,5.7334e+06,0,1.3318e+08,2.3224e+06,702.88,1
2344,6.41,12116,1,12116,1,0.00072797,-1.3826e-07,0,0.0012697,-0.00012919,2.3736e+07,-6820.3,0,2.4376e+08,7.1464e+05,12115,13336,1,13336,1,0.0037822,0.00011892,0,0.0037822,0.0003026,2.9552e+08,1.3885e+07,0,6.5145e+08,9.6663e+06,13335,12118,1,12118,1,0.00070509,-7.3269e-07,0,0.0011333,-0.00012772,1.7162e+08,-1.1033e+05,0,2.418e+08,-32146,12117,10867,1,10867,1,-0.001602,-0.00011901,0,2.1217e-05,-0.00070051,-6.5145e+08,-1.3876e+07,0,6.7125e+06,-3.8821e+06,10866,11508,1,11508,1,-0.00044504,-2.7578e-05,0,0.00056446,-0.00033075,-1.8013e+08,-6.0445e+06,0,1.7511e+08,-1.541e+06,11507,12724,1,12724,1,0.0018195,2.6846e-05,0,0.0018208,8.6733e-05,2.4482e+08,6.0892e+06,0,2.6074e+08,2.2258e+06,12723,702.88,0,702.88,0,0.0013583,4.5903e-05,0,0.00087436,0.00025092,2.7691e+08,7.1647e+06,0,1.336e+08,3.2088e+06,702.88,1
2344,6.42,12116,1,12116,1,0.00078933,-1.3302e-07,0,0.0013256,-0.00013824,2.4047e+07,-5098.3,0,2.4172e+08,7.5606e+05,12115,13336,1,13336,1,0.0043399,0.00017576,0,0.0043399,0.00031382,2.9063e+08,1.8522e+07,0,6.7405e+08,1.3941e+07,13335,12118,1,12118,1,0.00074896,-1.1228e-06,0,0.0011655,-0.00013269,1.7788e+08,-1.7879e+05,0,2.3725e+08,-1.8577e+05,12117,10867,1,10867,1,-0.0016578,-0.00017569,0,2.2774e-05,-0.00080349,-6.7405e+08,-1.85e+07,0,6.4876e+06,-5.68e+06,10866,11508,1,11508,1,-0.00041651,-3.5627e-05,0,0.00060764,-0.0003391,-1.6826e+08,-7.5184e+06,0,1.7475e+08,-2.4053e+06,11507,12724,1,12724,1,0.0018881,3.5263e-05,0,0.0018902,8.1353e-05,2.4005e+08,7.5078e+06,0,2.5785e+08,2.7427e+06,12723,702.88,0,702.88,0,0.001424,6.3905e-05,0,0.00094729,0.00026097,2.7541e+08,9.2013e+06,0,1.344e+08,4.5488e+06,702.88,1
2344,6.43,12116,1,12116,1,0.00088142,-1.6898e-07,0,0.0014103,-0.00015037,2.4462e+07,-10261,0,2.3874e+08,7.9758e+05,12115,13336,1,13336,1,0.0053567,0.00028859,0,0.0053567,0.00033105,2.8339e+08,2.606e+07,0,7.0832e+08,2.1001e+07,13335,12118,1,12118,1,0.00080527,-1.7864e-06,0,0.0011891,-0.0001385,1.6876e+08,-2.3539e+05,0,2.2995e+08,-5.1519e+05,12117,10867,1,10867,1,-0.0017423,-0.00028882,0,2.3273e-05,-0.00099154,-7.0832e+08,-2.605e+07,0,7.8398e+06,-8.6686e+06,10866,11508,1,11508,1,-0.00037061,-4.8194e-05,0,0.00060148,-0.00034061,-1.4923e+08,-9.4273e+06,0,1.6646e+08,-3.7967e+06,11507,12724,1,12724,1,0.0019457,4.8127e-05,0,0.0019525,7.5472e-05,2.347e+08,9.4352e+06,0,2.5681e+08,3.3156e+06,12723,702.88,0,702.88,0,0.0015365,9.6367e-05,0,0.0010759,0.00027654,2.7322e+08,1.2258e+07,0,1.3556e+08,6.6808e+06,702.88,1
2344,6.44,12116,1,12116,1,0.0010342,-1.9994e-07,0,0.0015516,-0.00016626,2.5049e+07,-14118,0,2.3362e+08,8.3443e+05,12115,13336,1,13336,1,0.0075756,0.00055594,0,0.0075756,0.00035946,2.9366e+08,3.8888e+07,0,7.6388e+08,3.2935e+07,13335,12118,1,12118,1,0.0008852,-8.1547e-07,0,0.0012275,-0.00015526,1.5584e+08,-1.2989e+05,0,2.205e+08,-1.0949e+06,12117,10867,1,10867,1,-0.0018794,-0.00055627,0,2.3234e-05,-0.001401,-7.6388e+08,-3.8875e+07,0,8.0969e+06,-1.3994e+07,10866,11508,1,11508,1,-0.00031798,-6.6648e-05,0,0.00059269,-0.00034514,-1.2969e+08,-1.2134e+07,0,1.5293e+08,-5.8489e+06,11507,12724,1,12724,1,0.002013,6.6611e-05,0,0.0020207,6.8815e-05,2.2533e+08,1.2067e+07,0,2.5796e+08,3.9967e+06,12723,702.88,0,702.88,0,0.0017667,0.00016464,0,0.0013453,0.00030348,2.6987e+08,1.7066e+07,0,1.3837e+08,1.0208e+07,702.88,1
2344,6.45,12116,1,12116,1,0.0013176,-1.2945e-07,0,0.0018188,-0.00017975,2.5851e+07,-4088.9,0,2.2396e+08,8.6657e+05,12115,13336,1,13336,1,0.013904,0.0013677,0,0.013904,0.00040844,3.3095e+08,6.1049e+07,0,8.568e+08,5.2166e+07,13335,12118,1,12118,1,0.00096984,-1.0587e-06,0,0.0012404,-0.00017062,1.4244e+08,-1.7436e+05,0,2.0588e+08,-2.0988e+06,12117,10867,1,10867,1,-0.002109,-0.0013701,0,2.2647e-05,-0.0025646,-8.568e+08,-6.1059e+07,0,7.8518e+06,-2.336e+07,10866,11508,1,11508,1,-0.00027022,-9.5782e-05,0,0.00067039,-0.00032486,-1.0858e+08,-1.5819e+07,0,1.3657e+08,-8.8163e+06,11507,12724,1,12724,1,0.0020229,9.5189e-05,0,0.002056,5.887e-05,2.1005e+08,1.5858e+07,0,2.6389e+08,5.1933e+06,12723,702.88,0,702.88,0,0.0023629,0.00033975,0,0.0020312,0.00035493,2.639e+08,2.459e+07,0,1.44e+08,1.5869e+07,702.88,1
