"N","Time","avg(GlobalElementId)","avg(ObjectId)","avg(PedigreeElementId)","avg(alpha)","avg(strain_x (0))","avg(strain_x (1))","avg(strain_x (2))","avg(strain_x (Magnitude))","avg(strain_yy)","avg(stress_x (0))","avg(stress_x (1))","avg(stress_x (2))","avg(stress_x (Magnitude))","avg(stress_yy)","avg(vtkOriginalCellIds)","max(GlobalElementId)","max(ObjectId)","max(PedigreeElementId)","max(alpha)","max(strain_x (0))","max(strain_x (1))","max(strain_x (2))","max(strain_x (Magnitude))","max(strain_yy)","max(stress_x (0))","max(stress_x (1))","max(stress_x (2))","max(stress_x (Magnitude))","max(stress_yy)","max(vtkOriginalCellIds)","med(GlobalElementId)","med(ObjectId)","med(PedigreeElementId)","med(alpha)","med(strain_x (0))","med(strain_x (1))","med(strain_x (2))","med(strain_x (Magnitude))","med(strain_yy)","med(stress_x (0))","med(stress_x (1))","med(stress_x (2))","med(stress_x (Magnitude))","med(stress_yy)","med(vtkOriginalCellIds)","min(GlobalElementId)","min(ObjectId)","min(PedigreeElementId)","min(alpha)","min(strain_x (0))","min(strain_x (1))","min(strain_x (2))","min(strain_x (Magnitude))","min(strain_yy)","min(stress_x (0))","min(stress_x (1))","min(stress_x (2))","min(stress_x (Magnitude))","min(stress_yy)","min(vtkOriginalCellIds)","q1(GlobalElementId)","q1(ObjectId)","q1(PedigreeElementId)","q1(alpha)","q1(strain_x (0))","q1(strain_x (1))","q1(strain_x (2))","q1(strain_x (Magnitude))","q1(strain_yy)","q1(stress_x (0))","q1(stress_x (1))","q1(stress_x (2))","q1(stress_x (Magnitude))","q1(stress_yy)","q1(vtkOriginalCellIds)","q3(GlobalElementId)","q3(ObjectId)","q3(PedigreeElementId)","q3(alpha)","q3(strain_x (0))","q3(strain_x (1))","q3(strain_x (2))","q3(strain_x (Magnitude))","q3(strain_yy)","q3(stress_x (0))","q3(stress_x (1))","q3(stress_x (2))","q3(stress_x (Magnitude))","q3(stress_yy)","q3(vtkOriginalCellIds)","std(GlobalElementId)","std(ObjectId)","std(PedigreeElementId)","std(alpha)","std(strain_x (0))","std(strain_x (1))","std(strain_x (2))","std(strain_x (Magnitude))","std(strain_yy)","std(stress_x (0))","std(stress_x (1))","std(stress_x (2))","std(stress_x (Magnitude))","std(stress_yy)","std(vtkOriginalCellIds)","vtkValidPointMask"
3780,0,11998,1,11998,1,0,0,0,0,0,0,0,0,0,0,11997,13888,1,13888,1,0,0,0,0,0,0,0,0,0,0,13887,11998,1,11998,1,0,0,0,0,0,0,0,0,0,0,11997,10083,1,10083,1,0,0,0,0,0,0,0,0,0,0,10082,11053,1,11053,1,0,0,0,0,0,0,0,0,0,0,11052,12943,1,12943,1,0,0,0,0,0,0,0,0,0,0,12942,1091.8,0,1091.8,0,0,0,0,0,0,0,0,0,0,0,1091.8,1
3780,0.01,11998,1,11998,1,8.8028e-07,-4.6449e-10,0,1.5269e-06,-1.6634e-07,-10293,-102.78,0,2.5263e+05,-1981,11997,13888,1,13888,1,3.6941e-06,1.564e-07,0,3.6941e-06,3.4147e-07,2.774e+05,23251,0,7.3709e+05,10958,13887,11998,1,11998,1,8.6072e-07,-1.5843e-10,0,1.3999e-06,-1.672e-07,1.4701e+05,-31.892,0,2.1708e+05,-626.62,11997,10083,1,10083,1,-1.8125e-06,-1.5285e-07,0,1.2196e-08,-7.1721e-07,-7.3709e+05,-24845,0,2936.5,-25834,10082,11053,1,11053,1,-5.0404e-07,-7.6284e-09,0,6.7421e-07,-4.2608e-07,-2.0494e+05,-1196.2,0,1.6321e+05,-3087.9,11052,12943,1,12943,1,2.286e-06,6.7697e-09,0,2.2861e-06,9.6393e-08,2.1706e+05,1144.2,0,2.6037e+05,53.475,12942,1091.8,0,1091.8,0,1.6024e-06,2.7922e-08,0,1.0057e-06,3.0277e-07,3.0389e+05,3631.5,0,1.6921e+05,3812,1091.8,1
3780,0.02,11998,1,11998,1,1.9379e-06,-6.6246e-09,0,3.2316e-06,-3.7229e-07,-1719.1,-1005.5,0,5.2446e+05,-6563.1,11997,13888,1,13888,1,7.7704e-06,1.38e-07,0,7.7704e-06,7.1681e-07,5.8324e+05,22356,0,1.5474e+06,1010.2,13887,11998,1,11998,1,1.9447e-06,-3.4199e-09,0,2.9295e-06,-3.8677e-07,3.224e+05,-713.81,0,4.6054e+05,-1627.9,11997,10083,1,10083,1,-3.805e-06,-1.3672e-07,0,4.2618e-08,-1.4585e-06,-1.5474e+06,-22494,0,4729.6,-42646,10082,11053,1,11053,1,-9.7826e-07,-1.9601e-08,0,1.4633e-06,-9.2848e-07,-3.9861e+05,-3043.3,0,3.319e+05,-7258.3,11052,12943,1,12943,1,4.874e-06,2.8363e-09,0,4.8742e-06,1.75e-07,4.6054e+05,568.02,0,5.5582e+05,77.544,12942,1091.8,0,1091.8,0,3.3604e-06,4.1259e-08,0,2.1458e-06,6.3219e-07,6.2584e+05,6100.1,0,3.4144e+05,10824,1091.8,1
3780,0.03,11998,1,11998,1,2.8889e-06,-8.8903e-10,0,4.8097e-06,-5.2781e-07,-214.24,-116.54,0,7.8075e+05,-237.72,11997,13888,1,13888,1,1.1298e-05,2.1037e-08,0,1.1298e-05,1.035e-06,8.4837e+05,2692,0,2.2339e+06,573.52,13887,11998,1,11998,1,2.8813e-06,-3.3484e-10,0,4.321e-06,-5.3202e-07,4.8058e+05,-49.648,0,6.8533e+05,-64.008,11997,10083,1,10083,1,-5.4931e-06,-1.8075e-08,0,1.0221e-07,-2.0954e-06,-2.2339e+06,-2426.6,0,17489,-5012.4,10082,11053,1,11053,1,-1.4354e-06,-5.9421e-09,0,2.1603e-06,-1.3283e-06,-5.8324e+05,-996.92,0,4.85e+05,-168.63,11052,12943,1,12943,1,7.2013e-06,3.7296e-09,0,7.2013e-06,2.7658e-07,6.8533e+05,591.65,0,8.2084e+05,4.882,12942,1091.8,0,1091.8,0,4.9975e-06,7.7825e-09,0,3.1912e-06,9.3052e-07,9.313e+05,1050.3,0,5.0754e+05,738.99,1091.8,1
3780,0.04,11998,1,11998,1,3.8371e-06,-1.0796e-09,0,6.3876e-06,-7.0072e-07,-149.6,-150.29,0,1.0368e+06,-220.07,11997,13888,1,13888,1,1.4972e-05,1.7292e-08,0,1.4972e-05,1.3709e-06,1.1243e+06,2127.8,0,2.9593e+06,963.03,13887,11998,1,11998,1,3.8287e-06,-5.0776e-10,0,5.7389e-06,-7.0752e-07,6.3862e+05,-92.603,0,9.103e+05,-78.047,11997,10083,1,10083,1,-7.2768e-06,-1.7053e-08,0,1.3725e-07,-2.7765e-06,-2.9593e+06,-2329.7,0,23685,-5968,10082,11053,1,11053,1,-1.9078e-06,-5.2244e-09,0,2.8692e-06,-1.7651e-06,-7.7518e+05,-885.51,0,6.4474e+05,-149.9,11052,12943,1,12943,1,9.5661e-06,3.0135e-09,0,9.5661e-06,3.674e-07,9.103e+05,478.4,0,1.0906e+06,-23.832,12942,1091.8,0,1091.8,0,6.6368e-06,6.8886e-09,0,4.2382e-06,1.2356e-06,1.2367e+06,957.77,0,6.7389e+05,677.22,1091.8,1
3780,0.05,11998,1,11998,1,4.8298e-06,-1.6459e-09,0,8.0442e-06,-8.815e-07,-861.32,-244.99,0,1.3061e+06,-135.08,11997,13888,1,13888,1,1.8831e-05,2.3829e-08,0,1.8831e-05,1.7252e-06,1.414e+06,3258.3,0,3.7242e+06,831.5,13887,11998,1,11998,1,4.817e-06,-5.9673e-10,0,7.2251e-06,-8.7952e-07,8.0372e+05,-102.38,0,1.1457e+06,-62.481,11997,10083,1,10083,1,-9.1576e-06,-3.1983e-08,0,1.7082e-07,-3.492e-06,-3.7242e+06,-4470,0,29317,-6197.4,10082,11053,1,11053,1,-2.4073e-06,-3.7081e-09,0,3.6141e-06,-2.2217e-06,-9.7811e+05,-587.37,0,8.1246e+05,-211.55,11052,12943,1,12943,1,1.204e-05,1.4173e-09,0,1.204e-05,4.6374e-07,1.1457e+06,236.99,0,1.373e+06,29.408,12942,1091.8,0,1091.8,0,8.3591e-06,8.7358e-09,0,5.3367e-06,1.5564e-06,1.5581e+06,1215,0,8.4935e+05,387.07,1091.8,1
3780,0.06,11998,1,11998,1,5.7151e-06,8.2169e-10,0,9.5123e-06,-1.0425e-06,54.307,116.86,0,1.5439e+06,16.117,11997,13888,1,13888,1,2.2284e-05,8.4792e-09,0,2.2284e-05,2.0399e-06,1.6734e+06,1330.8,0,4.4035e+06,272.11,13887,11998,1,11998,1,5.7179e-06,1.0693e-10,0,8.5688e-06,-1.0426e-06,9.5392e+05,18.056,0,1.3593e+06,13.2,11997,10083,1,10083,1,-1.0828e-05,-4.3615e-09,0,2.0861e-07,-4.1326e-06,-4.4035e+06,-610.4,0,36541,-318.3,10082,11053,1,11053,1,-2.8488e-06,-1.2562e-09,0,4.2844e-06,-2.6367e-06,-1.1576e+06,-225.68,0,9.6274e+05,-27.109,11052,12943,1,12943,1,1.4287e-05,2.7604e-09,0,1.4287e-05,5.4917e-07,1.3593e+06,434.71,0,1.6288e+06,48.868,12942,1091.8,0,1091.8,0,9.8833e-06,3.1671e-09,0,6.3122e-06,1.8403e-06,1.8414e+06,448.44,0,1.0032e+06,75.47,1091.8,1
3780,0.07,11998,1,11998,1,6.6685e-06,1.7355e-11,0,1.11e-05,-1.2165e-06,0.80641,1.7596,0,1.8016e+06,-3.5022,11997,13888,1,13888,1,2.5943e-05,1.4882e-09,0,2.5943e-05,2.3745e-06,1.9481e+06,216.79,0,5.1259e+06,53.211,13887,11998,1,11998,1,6.668e-06,3.1286e-11,0,9.9918e-06,-1.2157e-06,1.1124e+06,5.9156,0,1.585e+06,-1.9099,11997,10083,1,10083,1,-1.2604e-05,-2.0997e-09,0,2.4466e-07,-4.8108e-06,-5.1259e+06,-345.6,0,42956,-37.745,10082,11053,1,11053,1,-3.3235e-06,-2.3245e-10,0,4.9958e-06,-3.0745e-06,-1.3505e+06,-35.423,0,1.123e+06,-6.8711,11052,12943,1,12943,1,1.666e-05,3.846e-10,0,1.666e-05,6.4065e-07,1.585e+06,59.872,0,1.8993e+06,0.84071,12942,1091.8,0,1091.8,0,1.1532e-05,6.4102e-10,0,7.3652e-06,2.1473e-06,2.1487e+06,91.869,0,1.1707e+06,7.7773,1091.8,1
3780,0.08,11998,1,11998,1,7.6392e-06,-9.8853e-11,0,1.271e-05,-1.3939e-06,855.96,5.7597,0,2.0626e+06,-72.62,11997,13888,1,13888,1,2.9746e-05,3.8014e-08,0,2.9746e-05,2.7184e-06,2.2337e+06,2408.9,0,5.8683e+06,1633.2,13887,11998,1,11998,1,7.6347e-06,4.5484e-11,0,1.1435e-05,-1.3915e-06,1.2737e+06,11.855,0,1.815e+06,3.637,11997,10083,1,10083,1,-1.443e-05,-5.2446e-08,0,2.8125e-07,-5.5217e-06,-5.8683e+06,-3324.5,0,49586,-6636.6,10082,11053,1,11053,1,-3.8016e-06,-9.579e-10,0,5.7201e-06,-3.5213e-06,-1.5447e+06,-128.28,0,1.2847e+06,-44.143,11052,12943,1,12943,1,1.9077e-05,9.9967e-10,0,1.9077e-05,7.3312e-07,1.815e+06,152.48,0,2.17e+06,83.586,12942,1091.8,0,1091.8,0,1.3205e-05,3.2919e-09,0,8.4346e-06,2.4593e-06,2.4598e+06,273.15,0,1.3398e+06,474.13,1091.8,1
3780,0.09,11998,1,11998,1,8.5815e-06,1.6384e-10,0,1.4284e-05,-1.5659e-06,-148.38,-12.303,0,2.3185e+06,-125.31,11997,13888,1,13888,1,3.3472e-05,6.9001e-07,0,3.3472e-05,3.0565e-06,2.5149e+06,44021,0,6.598e+06,15851,13887,11998,1,11998,1,8.5768e-06,-2.9822e-10,0,1.2851e-05,-1.5653e-06,1.4308e+06,-63.854,0,2.0337e+06,63.813,11997,10083,1,10083,1,-1.6224e-05,-3.262e-07,0,3.0892e-07,-6.2354e-06,-6.598e+06,-21414,0,53257,-28810,10082,11053,1,11053,1,-4.2788e-06,-1.5453e-09,0,6.431e-06,-3.9508e-06,-1.7386e+06,-239.36,0,1.4447e+06,-91.161,11052,12943,1,12943,1,2.1375e-05,1.2064e-09,0,2.1375e-05,8.2451e-07,2.0337e+06,167.38,0,2.3963e+06,303.73,12942,1091.8,0,1091.8,0,1.4842e-05,2.4087e-08,0,9.4793e-06,2.7641e-06,2.7653e+06,1643.4,0,1.5067e+06,1685.6,1091.8,1
3780,0.1,11998,1,11998,1,9.536e-06,1.2029e-09,0,1.5872e-05,-1.7399e-06,120.59,34.862,0,2.576e+06,-95.476,11997,13888,1,13888,1,3.7212e-05,3.9153e-07,0,3.7212e-05,3.3956e-06,2.7947e+06,25839,0,7.3301e+06,20228,13887,11998,1,11998,1,9.5302e-06,6.6103e-11,0,1.4278e-05,-1.74e-06,1.5898e+06,10.527,0,2.2574e+06,58.039,11997,10083,1,10083,1,-1.8025e-05,-1.5788e-07,0,3.4581e-07,-6.9113e-06,-7.3301e+06,-10265,0,59956,-17802,10082,11053,1,11053,1,-4.7521e-06,-1.4833e-09,0,7.1446e-06,-4.3937e-06,-1.9311e+06,-237.41,0,1.6047e+06,-29.916,11052,12943,1,12943,1,2.3726e-05,1.0491e-09,0,2.3726e-05,9.1537e-07,2.2574e+06,166.76,0,2.6933e+06,245.17,12942,1091.8,0,1091.8,0,1.6491e-05,1.6045e-08,0,1.0533e-05,3.0709e-06,3.0724e+06,1111.7,0,1.6739e+06,1373.3,1091.8,1
3780,0.11,11998,1,11998,1,1.0491e-05,1.0089e-09,0,1.7457e-05,-1.9145e-06,806.38,82.26,0,2.8331e+06,-164.41,11997,13888,1,13888,1,4.0918e-05,3.6675e-07,0,4.0918e-05,3.734e-06,3.0731e+06,23172,0,8.0606e+06,14470,13887,11998,1,11998,1,1.0488e-05,2.0717e-10,0,1.5709e-05,-1.912e-06,1.7497e+06,59.728,0,2.4907e+06,17.316,11997,10083,1,10083,1,-1.9821e-05,-1.1546e-07,0,3.8472e-07,-7.6387e-06,-8.0606e+06,-7808.4,0,67569,-31526,10082,11053,1,11053,1,-5.2242e-06,-9.9072e-10,0,7.8587e-06,-4.8358e-06,-2.1228e+06,-160.3,0,1.7652e+06,-140.5,11052,12943,1,12943,1,2.6178e-05,1.6027e-09,0,2.6178e-05,1.0069e-06,2.4907e+06,307.77,0,2.9786e+06,189.29,12942,1091.8,0,1091.8,0,1.8137e-05,1.263e-08,0,1.1585e-05,3.3781e-06,3.3787e+06,859.59,0,1.8405e+06,1377.3,1091.8,1
3780,0.12,11998,1,11998,1,1.1451e-05,-2.953e-10,0,1.9056e-05,-2.0892e-06,530.43,-6.8318,0,3.0927e+06,-76.355,11997,13888,1,13888,1,4.4737e-05,2.0128e-07,0,4.4738e-05,4.0773e-06,3.3613e+06,12773,0,8.8016e+06,17081,13887,11998,1,11998,1,1.1445e-05,3.5102e-10,0,1.7147e-05,-2.0857e-06,1.9094e+06,76.902,0,2.7179e+06,22.764,11997,10083,1,10083,1,-2.1643e-05,-2.7662e-07,0,4.1678e-07,-8.3062e-06,-8.8016e+06,-17559,0,72956,-21652,10082,11053,1,11053,1,-5.7029e-06,-1.5472e-09,0,8.5778e-06,-5.2811e-06,-2.3172e+06,-228.42,0,1.9264e+06,-136.58,11052,12943,1,12943,1,2.8566e-05,2.1135e-09,0,2.8566e-05,1.0999e-06,2.7179e+06,309.18,0,3.2314e+06,228.3,12942,1091.8,0,1091.8,0,1.9798e-05,1.6259e-08,0,1.2645e-05,3.6869e-06,3.6885e+06,1128,0,2.0094e+06,1465.9,1091.8,1
3780,0.13,11998,1,11998,1,1.2396e-05,-2.8692e-10,0,2.0631e-05,-2.2611e-06,193.58,-16.937,0,3.3485e+06,25.406,11997,13888,1,13888,1,4.8279e-05,2.9615e-07,0,4.8279e-05,4.4135e-06,3.6255e+06,18811,0,9.5273e+06,21469,13887,11998,1,11998,1,1.2393e-05,7.7925e-11,0,1.857e-05,-2.2613e-06,2.0675e+06,11.503,0,2.9449e+06,36.809,11997,10083,1,10083,1,-2.3428e-05,-3.6475e-07,0,4.5397e-07,-9.0624e-06,-9.5273e+06,-23213,0,79702,-38822,10082,11053,1,11053,1,-6.1769e-06,-1.0953e-09,0,9.2856e-06,-5.7172e-06,-2.5099e+06,-177.41,0,2.0871e+06,-3.3155,11052,12943,1,12943,1,3.0952e-05,1.1561e-09,0,3.0952e-05,1.1908e-06,2.9449e+06,171.08,0,3.5229e+06,142.2,12942,1091.8,0,1091.8,0,2.1435e-05,1.0877e-08,0,1.369e-05,3.9912e-06,3.9937e+06,727.58,0,2.1758e+06,1221.7,1091.8,1
3780,0.14,11998,1,11998,1,1.3341e-05,9.2956e-10,0,2.2207e-05,-2.4338e-06,-343.6,78.117,0,3.6046e+06,-64.373,11997,13888,1,13888,1,5.2033e-05,4.7433e-07,0,5.2033e-05,4.7521e-06,3.908e+06,31027,0,1.0258e+07,27739,13887,11998,1,11998,1,1.3336e-05,7.491e-10,0,1.9985e-05,-2.4299e-06,2.2248e+06,119.21,0,3.1642e+06,1.0278,11997,10083,1,10083,1,-2.5225e-05,-5.7215e-07,0,4.8341e-07,-9.6695e-06,-1.0258e+07,-36367,0,84006,-29466,10082,11053,1,11053,1,-6.6513e-06,1.3976e-11,0,9.9971e-06,-6.1485e-06,-2.7026e+06,2.3307,0,2.2463e+06,-21.486,11052,12943,1,12943,1,3.3256e-05,1.7518e-09,0,3.3256e-05,1.2823e-06,3.1642e+06,281.58,0,3.7787e+06,77.907,12942,1091.8,0,1091.8,0,2.3074e-05,2.5255e-08,0,1.4736e-05,4.2963e-06,4.2993e+06,1685.9,0,2.3425e+06,1603.6,1091.8,1
3780,0.15,11998,1,11998,1,1.4298e-05,-1.3457e-09,0,2.3794e-05,-2.6084e-06,622.18,-113.78,0,3.8616e+06,-12.477,11997,13888,1,13888,1,5.5687e-05,6.0834e-08,0,5.5687e-05,5.0896e-06,4.1816e+06,3859.2,0,1.0987e+07,2229.9,13887,11998,1,11998,1,1.429e-05,-5.2595e-10,0,2.1409e-05,-2.6045e-06,2.3838e+06,-116.45,0,3.397e+06,12.125,11997,10083,1,10083,1,-2.7016e-05,-9.0166e-08,0,5.1968e-07,-1.0333e-05,-1.0987e+07,-6074.2,0,90517,-4657,10082,11053,1,11053,1,-7.1231e-06,-1.7095e-09,0,1.071e-05,-6.5915e-06,-2.8944e+06,-237.63,0,2.4062e+06,-55.717,11052,12943,1,12943,1,3.5704e-05,7.4543e-12,0,3.5704e-05,1.3734e-06,3.397e+06,1.7968,0,4.0724e+06,156.41,12942,1091.8,0,1091.8,0,2.4722e-05,6.4664e-09,0,1.579e-05,4.6036e-06,4.6055e+06,511.1,0,2.5089e+06,475.01,1091.8,1
3780,0.16,11998,1,11998,1,1.5255e-05,1.3849e-10,0,2.5385e-05,-2.7832e-06,942.03,7.8713,0,4.1198e+06,-71.613,11997,13888,1,13888,1,5.9395e-05,8.9271e-08,0,5.9395e-05,5.4297e-06,4.46e+06,5656.2,0,1.1721e+07,2500.4,13887,11998,1,11998,1,1.5253e-05,1.4082e-11,0,2.285e-05,-2.7818e-06,2.5445e+06,4.4896,0,3.624e+06,3.5793,11997,10083,1,10083,1,-2.8822e-05,-4.2867e-08,0,5.6349e-07,-1.1019e-05,-1.1721e+07,-2713.6,0,99442,-6202,10082,11053,1,11053,1,-7.5966e-06,-1.4472e-09,0,1.1425e-05,-7.0319e-06,-3.0867e+06,-238.4,0,2.5676e+06,-104.06,11052,12943,1,12943,1,3.809e-05,1.4143e-09,0,3.809e-05,1.4646e-06,3.624e+06,221.5,0,4.3419e+06,115.66,12942,1091.8,0,1091.8,0,2.6374e-05,6.24e-09,0,1.6845e-05,4.9113e-06,4.9134e+06,453.57,0,2.6765e+06,617.21,1091.8,1
3780,0.17,11998,1,11998,1,1.621e-05,2.9287e-10,0,2.6977e-05,-2.9571e-06,534.27,25.965,0,4.3784e+06,2.0857,11997,13888,1,13888,1,6.3101e-05,7.0699e-08,0,6.3101e-05,5.7705e-06,4.7386e+06,4467.1,0,1.2457e+07,4173.8,13887,11998,1,11998,1,1.6208e-05,1.6588e-10,0,2.4282e-05,-2.9544e-06,2.7038e+06,40.476,0,3.8517e+06,14.549,11997,10083,1,10083,1,-3.0631e-05,-1.0876e-07,0,5.9485e-07,-1.1709e-05,-1.2457e+07,-6880.7,0,1.0449e+05,-10659,10082,11053,1,11053,1,-8.0756e-06,-1.091e-09,0,1.2143e-05,-7.4719e-06,-3.2814e+06,-164.17,0,2.7288e+06,-42.972,11052,12943,1,12943,1,4.0482e-05,1.6045e-09,0,4.0482e-05,1.557e-06,3.8517e+06,238.69,0,4.6135e+06,145.74,12942,1091.8,0,1091.8,0,2.8029e-05,5.2262e-09,0,1.7902e-05,5.2191e-06,5.2219e+06,401.04,0,2.8448e+06,522.91,1091.8,1
3780,0.18,11998,1,11998,1,1.7153e-05,1.5946e-09,0,2.855e-05,-3.1295e-06,203.03,115.56,0,4.6338e+06,-50.95,11997,13888,1,13888,1,6.6834e-05,4.6687e-07,0,6.6834e-05,6.1078e-06,5.0189e+06,29788,0,1.3185e+07,13510,13887,11998,1,11998,1,1.7149e-05,3.4994e-10,0,2.5694e-05,-3.1267e-06,2.8607e+06,71.604,0,4.0661e+06,0.66388,11997,10083,1,10083,1,-3.2421e-05,-1.6831e-07,0,6.2626e-07,-1.241e-05,-1.3185e+07,-11018,0,1.0948e+05,-22069,10082,11053,1,11053,1,-8.5478e-06,-7.986e-10,0,1.2851e-05,-7.9113e-06,-3.4733e+06,-123.97,0,2.8878e+06,-72.092,11052,12943,1,12943,1,4.2735e-05,1.9528e-09,0,4.2735e-05,1.648e-06,4.0661e+06,292.19,0,4.8648e+06,199.97,12942,1091.8,0,1091.8,0,2.9664e-05,1.915e-08,0,1.8945e-05,5.5237e-06,5.5267e+06,1274.8,0,3.011e+06,1193.6,1091.8,1
3780,0.19,11998,1,11998,1,1.811e-05,-1.4867e-09,0,3.0141e-05,-3.3039e-06,457.32,-98.916,0,4.892e+06,-20.838,11997,13888,1,13888,1,7.0573e-05,2.19e-07,0,7.0573e-05,6.4477e-06,5.3009e+06,13906,0,1.3919e+07,16709,13887,11998,1,11998,1,1.8102e-05,-4.2251e-10,0,2.7118e-05,-3.3013e-06,3.0198e+06,-99.654,0,4.2966e+06,15.302,11997,10083,1,10083,1,-3.4226e-05,-1.9599e-07,0,6.6081e-07,-1.3093e-05,-1.3919e+07,-13227,0,1.1534e+05,-42710,10082,11053,1,11053,1,-9.0238e-06,-2.3961e-09,0,1.3567e-05,-8.3442e-06,-3.6667e+06,-305.04,0,3.048e+06,-52.376,11052,12943,1,12943,1,4.5158e-05,8.1589e-10,0,4.5158e-05,1.7389e-06,4.2966e+06,126.95,0,5.1162e+06,226.04,12942,1091.8,0,1091.8,0,3.1316e-05,1.2826e-08,0,2.0001e-05,5.8312e-06,5.8345e+06,918.27,0,3.1786e+06,1286.2,1091.8,1
3780,0.2,11998,1,11998,1,1.9057e-05,-1.1408e-09,0,3.172e-05,-3.4769e-06,-25.082,-155.18,0,5.1485e+06,-91.054,11997,13888,1,13888,1,7.4285e-05,2.879e-07,0,7.4285e-05,6.7861e-06,5.5787e+06,18331,0,1.4649e+07,16795,13887,11998,1,11998,1,1.9054e-05,-8.9486e-10,0,2.8549e-05,-3.4746e-06,3.1785e+06,-208.13,0,4.5257e+06,19.864,11997,10083,1,10083,1,-3.6022e-05,-3.1176e-07,0,6.9491e-07,-1.3773e-05,-1.4649e+07,-19762,0,1.2123e+05,-18578,10082,11053,1,11053,1,-9.4989e-06,-2.4686e-09,0,1.4278e-05,-8.7829e-06,-3.8598e+06,-359.05,0,3.209e+06,-76.131,11052,12943,1,12943,1,4.7567e-05,1.7244e-10,0,4.7567e-05,1.8313e-06,4.5257e+06,28.833,0,5.4117e+06,184.41,12942,1091.8,0,1091.8,0,3.2957e-05,1.8358e-08,0,2.1048e-05,6.1371e-06,6.1405e+06,1234.9,0,3.3455e+06,1214.6,1091.8,1
3780,0.21,11998,1,11998,1,2.0009e-05,-8.8885e-10,0,3.3303e-05,-3.651e-06,3.3895,-80.767,0,5.4054e+06,-222.95,11997,13888,1,13888,1,7.7947e-05,2.2046e-07,0,7.7947e-05,7.1244e-06,5.8536e+06,13964,0,1.5379e+07,7632.2,13887,11998,1,11998,1,2.0007e-05,-2.374e-10,0,2.9978e-05,-3.6478e-06,3.3375e+06,-59.234,0,4.7526e+06,4.4968,11997,10083,1,10083,1,-3.7818e-05,-1.8677e-07,0,7.326e-07,-1.4471e-05,-1.5379e+07,-12256,0,1.2844e+05,-15319,10082,11053,1,11053,1,-9.9725e-06,-1.9684e-09,0,1.4991e-05,-9.2242e-06,-4.0522e+06,-273.7,0,3.3692e+06,-211.2,11052,12943,1,12943,1,4.9952e-05,8.0319e-10,0,4.9952e-05,1.9222e-06,4.7526e+06,132.27,0,5.6762e+06,127.5,12942,1091.8,0,1091.8,0,3.4602e-05,1.4204e-08,0,2.2099e-05,6.4441e-06,6.447e+06,959.9,0,3.5125e+06,1228.3,1091.8,1
3780,0.22,11998,1,11998,1,2.0965e-05,1.2921e-10,0,3.4895e-05,-3.8247e-06,188.68,-13.32,0,5.6636e+06,-10.19,11997,13888,1,13888,1,8.1604e-05,5.3584e-08,0,8.1604e-05,7.4642e-06,6.1278e+06,3417.3,0,1.6113e+07,4363.4,13887,11998,1,11998,1,2.0957e-05,7.8959e-11,0,3.1406e-05,-3.8194e-06,3.4962e+06,22.945,0,4.9815e+06,28.439,11997,10083,1,10083,1,-3.9621e-05,-5.6949e-08,0,7.6415e-07,-1.514e-05,-1.6113e+07,-3719.7,0,1.3367e+05,-5661.1,10082,11053,1,11053,1,-1.0449e-05,-1.4507e-09,0,1.5706e-05,-9.6668e-06,-4.2456e+06,-209.85,0,3.5294e+06,-47.499,11052,12943,1,12943,1,5.2357e-05,1.3333e-09,0,5.2357e-05,2.0152e-06,4.9815e+06,187.48,0,5.9673e+06,178.44,12942,1091.8,0,1091.8,0,3.6256e-05,6.2402e-09,0,2.3156e-05,6.7513e-06,6.7549e+06,493.09,0,3.6802e+06,650.13,1091.8,1
3780,0.23,11998,1,11998,1,2.1913e-05,7.6874e-10,0,3.6472e-05,-3.9977e-06,194.27,66.546,0,5.9197e+06,-49.277,11997,13888,1,13888,1,8.5291e-05,8.3257e-08,0,8.5291e-05,7.8018e-06,6.4047e+06,5444.2,0,1.6842e+07,2670.7,13887,11998,1,11998,1,2.191e-05,1.7566e-10,0,3.283e-05,-3.9945e-06,3.655e+06,46.248,0,5.2068e+06,3.3218,11997,10083,1,10083,1,-4.1413e-05,-1.2238e-07,0,8.0302e-07,-1.5835e-05,-1.6842e+07,-7990.5,0,1.4091e+05,-10962,10082,11053,1,11053,1,-1.0921e-05,-5.7077e-10,0,1.6416e-05,-1.0104e-05,-4.4376e+06,-104.39,0,3.6897e+06,-72.223,11052,12943,1,12943,1,5.4726e-05,1.4094e-09,0,5.4726e-05,2.1054e-06,5.2068e+06,186.56,0,6.2293e+06,138.36,12942,1091.8,0,1091.8,0,3.7895e-05,7.4298e-09,0,2.4202e-05,7.0564e-06,7.0603e+06,517.81,0,3.8465e+06,658.99,1091.8,1
3780,0.24,11998,1,11998,1,2.2868e-05,-3.0772e-10,0,3.8061e-05,-4.1717e-06,361.97,-39.404,0,6.1776e+06,26.572,11997,13888,1,13888,1,8.8996e-05,3.1991e-08,0,8.8996e-05,8.142e-06,6.6829e+06,2024.1,0,1.7576e+07,2519.1,13887,11998,1,11998,1,2.2867e-05,-4.015e-11,0,3.4263e-05,-4.1692e-06,3.8147e+06,-10.544,0,5.4358e+06,7.5391,11997,10083,1,10083,1,-4.3219e-05,-7.7013e-08,0,8.4057e-07,-1.6505e-05,-1.7576e+07,-4874.3,0,1.4777e+05,-4747.7,10082,11053,1,11053,1,-1.1395e-05,-1.5576e-09,0,1.7131e-05,-1.0544e-05,-4.6304e+06,-235.03,0,3.8507e+06,-49.376,11052,12943,1,12943,1,5.7133e-05,9.3702e-10,0,5.7133e-05,2.1967e-06,5.4358e+06,157.7,0,6.5114e+06,97.271,12942,1091.8,0,1091.8,0,3.9545e-05,3.3801e-09,0,2.5256e-05,7.3632e-06,7.3678e+06,297.43,0,4.014e+06,287.24,1091.8,1
3780,0.25,11998,1,11998,1,2.3822e-05,-7.2457e-10,0,3.9648e-05,-4.3456e-06,396.08,-67.22,0,6.435e+06,29.561,11997,13888,1,13888,1,9.2692e-05,2.6316e-08,0,9.2692e-05,8.4812e-06,6.9603e+06,1664,0,1.8308e+07,2118.1,13887,11998,1,11998,1,2.3817e-05,-8.898e-11,0,3.5688e-05,-4.3418e-06,3.9732e+06,-16.785,0,5.6622e+06,3.2115,11997,10083,1,10083,1,-4.502e-05,-3.0374e-08,0,8.7211e-07,-1.7197e-05,-1.8308e+07,-2153.5,0,1.5294e+05,-3013.3,10082,11053,1,11053,1,-1.187e-05,-2.0155e-09,0,1.7844e-05,-1.0982e-05,-4.823e+06,-302.65,0,4.0107e+06,-60.19,11052,12943,1,12943,1,5.9512e-05,9.1496e-10,0,5.9512e-05,2.2886e-06,5.6622e+06,143.17,0,6.7848e+06,98.103,12942,1091.8,0,1091.8,0,4.1194e-05,3.5895e-09,0,2.631e-05,7.6703e-06,7.6748e+06,347.3,0,4.1813e+06,307.75,1091.8,1
3780,0.26,11998,1,11998,1,2.4769e-05,2.4805e-10,0,4.1227e-05,-4.5188e-06,171.24,19.806,0,6.6914e+06,-38.698,11997,13888,1,13888,1,9.6404e-05,1.0066e-07,0,9.6404e-05,8.8188e-06,7.2392e+06,6426.5,0,1.9037e+07,3537.3,13887,11998,1,11998,1,2.4768e-05,9.2773e-11,0,3.7113e-05,-4.5159e-06,4.1319e+06,24.596,0,5.8849e+06,10.638,11997,10083,1,10083,1,-4.6812e-05,-1.597e-07,0,9.0938e-07,-1.7884e-05,-1.9037e+07,-10107,0,1.5974e+05,-9844.5,10082,11053,1,11053,1,-1.2345e-05,-7.3467e-10,0,1.8557e-05,-1.1422e-05,-5.016e+06,-118.77,0,4.171e+06,-30.22,11052,12943,1,12943,1,6.1853e-05,1.2467e-09,0,6.1853e-05,2.3798e-06,5.8849e+06,167.69,0,7.0491e+06,102.53,12942,1091.8,0,1091.8,0,4.2834e-05,7.7328e-09,0,2.7357e-05,7.976e-06,7.9807e+06,524.78,0,4.348e+06,578.57,1091.8,1
3780,0.27,11998,1,11998,1,2.5728e-05,-6.9739e-10,0,4.2821e-05,-4.6934e-06,227.46,-92.477,0,6.9501e+06,2.1806,11997,13888,1,13888,1,0.00010012,2.9449e-08,0,0.00010012,9.1604e-06,7.518e+06,1863.4,0,1.9775e+07,2447.9,13887,11998,1,11998,1,2.5724e-05,-2.3617e-10,0,3.8546e-05,-4.6893e-06,4.2914e+06,-54.515,0,6.1154e+06,1.1075,11997,10083,1,10083,1,-4.8625e-05,-4.0331e-08,0,9.4347e-07,-1.8572e-05,-1.9775e+07,-2566.8,0,1.6564e+05,-3430,10082,11053,1,11053,1,-1.2821e-05,-2.2649e-09,0,1.9273e-05,-1.1862e-05,-5.2096e+06,-316.46,0,4.332e+06,-49.383,11052,12943,1,12943,1,6.4275e-05,8.7936e-10,0,6.4275e-05,2.4719e-06,6.1154e+06,132.14,0,7.3265e+06,72.613,12942,1091.8,0,1091.8,0,4.4491e-05,3.4767e-09,0,2.8415e-05,8.2844e-06,8.2893e+06,360.38,0,4.5161e+06,321.09,1091.8,1
3780,0.28,11998,1,11998,1,2.6673e-05,-5.9095e-11,0,4.4396e-05,-4.8657e-06,142.19,38.807,0,7.2057e+06,54.59,11997,13888,1,13888,1,0.00010381,8.591e-08,0,0.00010381,9.4965e-06,7.7952e+06,5440.3,0,2.05e+07,4096.1,13887,11998,1,11998,1,2.6665e-05,1.9733e-10,0,3.9958e-05,-4.8601e-06,4.4484e+06,41.497,0,6.3398e+06,28.987,11997,10083,1,10083,1,-5.0409e-05,-7.4096e-08,0,9.7346e-07,-1.9253e-05,-2.05e+07,-4674.5,0,1.7032e+05,-6283.6,10082,11053,1,11053,1,-1.3295e-05,-3.8452e-10,0,1.9983e-05,-1.2298e-05,-5.4022e+06,-52.076,0,4.4909e+06,-9.7957,11052,12943,1,12943,1,6.6635e-05,9.3139e-10,0,6.6635e-05,2.5635e-06,6.3398e+06,157.64,0,7.5936e+06,142.05,12942,1091.8,0,1091.8,0,4.6127e-05,5.6917e-09,0,2.946e-05,8.589e-06,8.5941e+06,426.41,0,4.6822e+06,433.23,1091.8,1
3780,0.29,11998,1,11998,1,2.7631e-05,-6.0245e-10,0,4.5991e-05,-5.0408e-06,154.47,-86.642,0,7.4646e+06,-22.454,11997,13888,1,13888,1,0.00010756,1.3191e-07,0,0.00010756,9.8388e-06,8.077e+06,8386.7,0,2.1239e+07,2994.9,13887,11998,1,11998,1,2.7629e-05,-2.0824e-10,0,4.14e-05,-5.0382e-06,4.609e+06,-39.387,0,6.5677e+06,4.1312,11997,10083,1,10083,1,-5.2226e-05,-4.976e-08,0,1.0142e-06,-1.9948e-05,-2.1239e+07,-3254.8,0,1.7814e+05,-9870.6,10082,11053,1,11053,1,-1.377e-05,-2.5025e-09,0,2.07e-05,-1.2742e-05,-5.5954e+06,-368.58,0,4.6528e+06,-41.732,11052,12943,1,12943,1,6.903e-05,1.0362e-09,0,6.903e-05,2.6545e-06,6.5677e+06,213.76,0,7.8664e+06,44.888,12942,1091.8,0,1091.8,0,4.7784e-05,5.3991e-09,0,3.0518e-05,8.8975e-06,8.903e+06,457.51,0,4.8505e+06,444.63,1091.8,1
3780,0.3,11998,1,11998,1,2.8585e-05,-3.4015e-12,0,4.7578e-05,-5.2146e-06,218.67,-15.771,0,7.7223e+06,50.43,11997,13888,1,13888,1,0.00011123,2.5835e-08,0,0.00011123,1.0178e-05,8.3526e+06,1648.5,0,2.1972e+07,1365.4,13887,11998,1,11998,1,2.858e-05,1.4753e-10,0,4.2827e-05,-5.2087e-06,4.7679e+06,29.819,0,6.7951e+06,12.135,11997,10083,1,10083,1,-5.4029e-05,-2.1908e-08,0,1.0459e-06,-2.0627e-05,-2.1972e+07,-1620.3,0,1.8344e+05,-1626.4,10082,11053,1,11053,1,-1.4246e-05,-1.6506e-09,0,2.1416e-05,-1.3179e-05,-5.7886e+06,-258.3,0,4.8129e+06,-42.685,11052,12943,1,12943,1,7.142e-05,1.6422e-09,0,7.142e-05,2.7473e-06,6.7951e+06,261.94,0,8.1416e+06,97.757,12942,1091.8,0,1091.8,0,4.9434e-05,3.2728e-09,0,3.1571e-05,9.2045e-06,9.2102e+06,374.73,0,5.0179e+06,264.99,1091.8,1
3780,0.31,11998,1,11998,1,2.9535e-05,-3.1904e-10,0,4.9159e-05,-5.388e-06,128.71,-24.942,0,7.979e+06,-6.1614,11997,13888,1,13888,1,0.00011493,3.9881e-08,0,0.00011493,1.0516e-05,8.6307e+06,2544.1,0,2.2702e+07,3747.4,13887,11998,1,11998,1,2.9534e-05,5.846e-11,0,4.4254e-05,-5.3845e-06,4.9269e+06,12.87,0,7.0213e+06,8.5475,11997,10083,1,10083,1,-5.5824e-05,-1.2052e-07,0,1.0847e-06,-2.1323e-05,-2.2702e+07,-7629.7,0,1.905e+05,-6827.8,10082,11053,1,11053,1,-1.472e-05,-1.8669e-09,0,2.2127e-05,-1.3619e-05,-5.9811e+06,-281.4,0,4.9736e+06,-45.157,11052,12943,1,12943,1,7.3798e-05,1.3811e-09,0,7.3798e-05,2.8375e-06,7.0213e+06,255.15,0,8.4091e+06,65.321,12942,1091.8,0,1091.8,0,5.1077e-05,4.6449e-09,0,3.262e-05,9.5105e-06,9.5164e+06,409.16,0,5.1847e+06,366.62,1091.8,1
3780,0.32,11998,1,11998,1,3.0488e-05,-3.4413e-10,0,5.0745e-05,-5.5617e-06,166.54,-44.375,0,8.2362e+06,24.184,11997,13888,1,13888,1,0.00011864,5.0574e-08,0,0.00011864,1.0856e-05,8.9086e+06,3206.2,0,2.3434e+07,2527.8,13887,11998,1,11998,1,3.0481e-05,8.5671e-11,0,4.5675e-05,-5.5566e-06,5.0849e+06,15.316,0,7.2453e+06,29.614,11997,10083,1,10083,1,-5.7624e-05,-6.1138e-08,0,1.1159e-06,-2.2009e-05,-2.3434e+07,-4508.9,0,1.9564e+05,-3406.1,10082,11053,1,11053,1,-1.5194e-05,-2.4223e-09,0,2.284e-05,-1.4057e-05,-6.174e+06,-344.98,0,5.1333e+06,-42.12,11052,12943,1,12943,1,7.6152e-05,1.7096e-09,0,7.6152e-05,2.9295e-06,7.2453e+06,237.93,0,8.6824e+06,128.75,12942,1091.8,0,1091.8,0,5.2724e-05,5.4082e-09,0,3.3674e-05,9.8174e-06,9.8232e+06,521.68,0,5.3518e+06,385.79,1091.8,1
3780,0.33,11998,1,11998,1,3.1434e-05,-1.4805e-09,0,5.2321e-05,-5.7346e-06,-43.245,-156.06,0,8.4921e+06,-61.22,11997,13888,1,13888,1,0.00012231,4.6043e-08,0,0.00012231,1.1192e-05,9.1844e+06,3177.1,0,2.4161e+07,3534.7,13887,11998,1,11998,1,3.1431e-05,-3.8985e-10,0,4.7099e-05,-5.7311e-06,5.2433e+06,-81.81,0,7.4696e+06,3.1003,11997,10083,1,10083,1,-5.9411e-05,-5.089e-08,0,1.1531e-06,-2.2687e-05,-2.4161e+07,-3440.8,0,2.0235e+05,-3888.5,10082,11053,1,11053,1,-1.5667e-05,-3.0843e-09,0,2.3549e-05,-1.4494e-05,-6.366e+06,-390.7,0,5.2935e+06,-43.537,11052,12943,1,12943,1,7.851e-05,5.0543e-10,0,7.851e-05,3.0202e-06,7.4696e+06,109.1,0,8.9511e+06,57.061,12942,1091.8,0,1091.8,0,5.4361e-05,6.0596e-09,0,3.4718e-05,1.0122e-05,1.0129e+07,455.36,0,5.5183e+06,439.67,1091.8,1
3780,0.34,11998,1,11998,1,3.2395e-05,4.6882e-10,0,5.392e-05,-5.9098e-06,111.62,80.132,0,8.7516e+06,-28.52,11997,13888,1,13888,1,0.00012605,2.0191e-08,0,0.00012605,1.1535e-05,9.4657e+06,1312.7,0,2.4901e+07,1407.2,13887,11998,1,11998,1,3.2392e-05,2.9434e-10,0,4.8538e-05,-5.9057e-06,5.4037e+06,73.175,0,7.6999e+06,-12.67,11997,10083,1,10083,1,-6.123e-05,-3.9911e-08,0,1.1893e-06,-2.3375e-05,-2.4901e+07,-2532.3,0,2.0885e+05,-1971.7,10082,11053,1,11053,1,-1.6145e-05,-1.3533e-09,0,2.4269e-05,-1.4936e-05,-6.5602e+06,-210.08,0,5.4551e+06,-51.355,11052,12943,1,12943,1,8.093e-05,2.3096e-09,0,8.093e-05,3.1122e-06,7.6999e+06,361.15,0,9.2268e+06,24.04,12942,1091.8,0,1091.8,0,5.6023e-05,3.2696e-09,0,3.5779e-05,1.0431e-05,1.0438e+07,386.55,0,5.6868e+06,168.4,1091.8,1
3780,0.35,11998,1,11998,1,3.3339e-05,-1.1682e-11,0,5.5492e-05,-6.082e-06,73.415,5.7454,0,9.0068e+06,10.697,11997,13888,1,13888,1,0.00012974,4.1486e-08,0,0.00012974,1.1871e-05,9.7422e+06,2643.7,0,2.5626e+07,2233.7,13887,11998,1,11998,1,3.3338e-05,1.2248e-10,0,4.9955e-05,-6.0779e-06,5.5614e+06,28.612,0,7.9251e+06,4.1434,11997,10083,1,10083,1,-6.3014e-05,-3.4332e-08,0,1.2236e-06,-2.406e-05,-2.5626e+07,-2224.7,0,2.1486e+05,-2393.5,10082,11053,1,11053,1,-1.6616e-05,-1.5378e-09,0,2.4978e-05,-1.5372e-05,-6.7518e+06,-248.87,0,5.6143e+06,-23.251,11052,12943,1,12943,1,8.3297e-05,1.5448e-09,0,8.3297e-05,3.2032e-06,7.9251e+06,251.11,0,9.4954e+06,46.664,12942,1091.8,0,1091.8,0,5.7656e-05,3.8434e-09,0,3.6822e-05,1.0735e-05,1.0742e+07,361.1,0,5.8527e+06,228.48,1091.8,1
3780,0.36,11998,1,11998,1,3.4295e-05,-3.3586e-10,0,5.7083e-05,-6.2564e-06,85.212,-45.553,0,9.265e+06,-3.3032,11997,13888,1,13888,1,0.00013344,4.6093e-08,0,0.00013344,1.2211e-05,1.0021e+07,2941.5,0,2.6361e+07,3313.9,13887,11998,1,11998,1,3.4292e-05,-4.8876e-11,0,5.1385e-05,-6.2505e-06,5.7206e+06,-8.5335,0,8.1518e+06,11.795,11997,10083,1,10083,1,-6.4821e-05,-7.1445e-08,0,1.2566e-06,-2.4753e-05,-2.6361e+07,-4520.3,0,2.2051e+05,-5488.1,10082,11053,1,11053,1,-1.7093e-05,-1.8231e-09,0,2.5694e-05,-1.5811e-05,-6.9453e+06,-280.57,0,5.775e+06,-40.471,11052,12943,1,12943,1,8.568e-05,1.0935e-09,0,8.568e-05,3.2958e-06,8.1518e+06,190.63,0,9.7662e+06,57.163,12942,1091.8,0,1091.8,0,5.9309e-05,4.1176e-09,0,3.7878e-05,1.1044e-05,1.105e+07,375.55,0,6.0205e+06,348.5,1091.8,1
3780,0.37,11998,1,11998,1,3.5249e-05,-3.9673e-10,0,5.867e-05,-6.4305e-06,95.482,-43.008,0,9.5227e+06,-9.1754,11997,13888,1,13888,1,0.00013715,3.2537e-08,0,0.00013715,1.2551e-05,1.0299e+07,2073.1,0,2.7094e+07,2443.9,13887,11998,1,11998,1,3.5246e-05,1.5267e-11,0,5.2815e-05,-6.4255e-06,5.8798e+06,3.3056,0,8.3786e+06,-3.7998,11997,10083,1,10083,1,-6.6623e-05,-3.5156e-08,0,1.293e-06,-2.5439e-05,-2.7094e+07,-2234.7,0,2.2701e+05,-3253,10082,11053,1,11053,1,-1.7568e-05,-2.081e-09,0,2.6408e-05,-1.6252e-05,-7.1385e+06,-300.19,0,5.9358e+06,-41.122,11052,12943,1,12943,1,8.8063e-05,1.3029e-09,0,8.8063e-05,3.3868e-06,8.3786e+06,233.64,0,1.004e+07,25.29,12942,1091.8,0,1091.8,0,6.0959e-05,3.3539e-09,0,3.8932e-05,1.1351e-05,1.1358e+07,366.93,0,6.1879e+06,208.48,1091.8,1
3780,0.38,11998,1,11998,1,3.6197e-05,-1.4542e-09,0,6.0248e-05,-6.6032e-06,36.707,-97.107,0,9.7787e+06,36.685,11997,13888,1,13888,1,0.0001409,2.4916e-07,0,0.0001409,1.2889e-05,1.0581e+07,15820,0,2.7823e+07,5537.9,13887,11998,1,11998,1,3.6183e-05,-6.2161e-10,0,5.4222e-05,-6.5928e-06,6.0364e+06,-85.506,0,8.6038e+06,16.803,11997,10083,1,10083,1,-6.8415e-05,-1.8383e-07,0,1.3187e-06,-2.6136e-05,-2.7823e+07,-11726,0,2.3043e+05,-21167,10082,11053,1,11053,1,-1.8042e-05,-2.461e-09,0,2.7119e-05,-1.6686e-05,-7.3308e+06,-334.45,0,6.094e+06,-28.496,11052,12943,1,12943,1,9.0431e-05,5.5286e-10,0,9.0431e-05,3.4792e-06,8.6038e+06,105.4,0,1.0293e+07,87.633,12942,1091.8,0,1091.8,0,6.2599e-05,1.202e-08,0,3.998e-05,1.1656e-05,1.1663e+07,894.39,0,6.3543e+06,972.66,1091.8,1
3780,0.39,11998,1,11998,1,3.7145e-05,2.1257e-10,0,6.1825e-05,-6.776e-06,151.55,9.6774,0,1.0035e+07,71.2,11997,13888,1,13888,1,0.00014452,3.0005e-08,0,0.00014452,1.3224e-05,1.0852e+07,1899.1,0,2.8548e+07,2892.3,13887,11998,1,11998,1,3.7143e-05,-3.9322e-12,0,5.5658e-05,-6.7693e-06,6.1963e+06,-0.93878,0,8.8301e+06,13.626,11997,10083,1,10083,1,-7.0199e-05,-2.1281e-08,0,1.3615e-06,-2.6801e-05,-2.8548e+07,-1350.3,0,2.3901e+05,-2672.6,10082,11053,1,11053,1,-1.8514e-05,-5.8912e-10,0,2.7829e-05,-1.7126e-05,-7.5228e+06,-79.132,0,6.2553e+06,-9.0643,11052,12943,1,12943,1,9.2809e-05,3.8842e-10,0,9.2809e-05,3.5702e-06,8.8301e+06,55.473,0,1.0581e+07,74.704,12942,1091.8,0,1091.8,0,6.4237e-05,2.5077e-09,0,4.1025e-05,1.1961e-05,1.1968e+07,188.87,0,6.5205e+06,245.89,1091.8,1
3780,0.4,11998,1,11998,1,3.8098e-05,-2.9315e-10,0,6.3413e-05,-6.9501e-06,66.18,-51.837,0,1.0292e+07,12.528,11997,13888,1,13888,1,0.00014823,2.568e-08,0,0.00014823,1.3565e-05,1.1131e+07,1677.2,0,2.9283e+07,833.37,13887,11998,1,11998,1,3.8094e-05,-6.1504e-11,0,5.7083e-05,-6.9446e-06,6.3549e+06,-8.1319,0,9.0557e+06,9.937,11997,10083,1,10083,1,-7.2007e-05,-3.0528e-08,0,1.3965e-06,-2.7487e-05,-2.9283e+07,-1929.4,0,2.4504e+05,-1629.8,10082,11053,1,11053,1,-1.8988e-05,-1.6804e-09,0,2.8543e-05,-1.7566e-05,-7.7157e+06,-267.91,0,6.4154e+06,-25.23,11052,12943,1,12943,1,9.5181e-05,1.0126e-09,0,9.5181e-05,3.6607e-06,9.0557e+06,163.48,0,1.0851e+07,45.289,12942,1091.8,0,1091.8,0,6.5886e-05,2.3865e-09,0,4.2079e-05,1.2268e-05,1.2276e+07,307.37,0,6.6881e+06,125.32,1091.8,1
3780,0.41,11998,1,11998,1,3.9052e-05,1.0168e-10,0,6.5e-05,-7.1242e-06,144.83,30.218,0,1.055e+07,-4.5488,11997,13888,1,13888,1,0.00015196,2.6809e-08,0,0.00015196,1.3905e-05,1.1411e+07,1690.6,0,3.0016e+07,3685.1,13887,11998,1,11998,1,3.905e-05,1.2824e-10,0,5.8514e-05,-7.1197e-06,6.5143e+06,34.663,0,9.2825e+06,-2.1483,11997,10083,1,10083,1,-7.3809e-05,-1.8377e-07,0,1.4336e-06,-2.8182e-05,-3.0016e+07,-11632,0,2.5177e+05,-6581.2,10082,11053,1,11053,1,-1.9463e-05,-1.2566e-09,0,2.9257e-05,-1.8007e-05,-7.9086e+06,-194.96,0,6.5762e+06,-18.781,11052,12943,1,12943,1,9.7565e-05,1.549e-09,0,9.7565e-05,3.7521e-06,9.2825e+06,255.96,0,1.1117e+07,15.895,12942,1091.8,0,1091.8,0,6.7535e-05,4.2906e-09,0,4.3132e-05,1.2575e-05,1.2583e+07,371.35,0,6.8554e+06,228.96,1091.8,1
3780,0.42,11998,1,11998,1,4.0004e-05,-3.1277e-10,0,6.6583e-05,-7.2978e-06,231.86,-39.498,0,1.0807e+07,-10.417,11997,13888,1,13888,1,0.00015564,4.4978e-08,0,0.00015564,1.4243e-05,1.1688e+07,2845.7,0,3.0746e+07,1437,13887,11998,1,11998,1,4.0001e-05,-7.3649e-11,0,5.994e-05,-7.2922e-06,6.6731e+06,-16.38,0,9.508e+06,0.58947,11997,10083,1,10083,1,-7.5604e-05,-6.33e-08,0,1.4676e-06,-2.8861e-05,-3.0746e+07,-4474.1,0,2.5769e+05,-3905.6,10082,11053,1,11053,1,-1.9937e-05,-1.367e-09,0,2.997e-05,-1.8445e-05,-8.1012e+06,-192.97,0,6.7363e+06,-37.921,11052,12943,1,12943,1,9.9935e-05,6.9882e-10,0,9.9935e-05,3.8439e-06,9.508e+06,116.83,0,1.1393e+07,30.289,12942,1091.8,0,1091.8,0,6.918e-05,4.3357e-09,0,4.4183e-05,1.2881e-05,1.2889e+07,347.76,0,7.0223e+06,261.89,1091.8,1
3780,0.43,11998,1,11998,1,4.0956e-05,3.2463e-10,0,6.817e-05,-7.4715e-06,35.109,48.591,0,1.1065e+07,19.762,11997,13888,1,13888,1,0.00015933,3.4985e-09,0,0.00015933,1.4583e-05,1.1964e+07,633.09,0,3.148e+07,667.74,13887,11998,1,11998,1,4.0954e-05,1.901e-10,0,6.1368e-05,-7.466e-06,6.832e+06,42.849,0,9.7352e+06,5.8188,11997,10083,1,10083,1,-7.7408e-05,-1.3597e-08,0,1.503e-06,-2.9546e-05,-3.148e+07,-862.34,0,2.6395e+05,-622.7,10082,11053,1,11053,1,-2.0413e-05,-8.8076e-10,0,3.0684e-05,-1.8883e-05,-8.2945e+06,-138.68,0,6.897e+06,-12.985,11052,12943,1,12943,1,0.00010232,1.4662e-09,0,0.00010232,3.9354e-06,9.7352e+06,238.71,0,1.1666e+07,24.257,12942,1091.8,0,1091.8,0,7.0829e-05,1.7155e-09,0,4.5235e-05,1.3188e-05,1.3197e+07,245.32,0,7.1898e+06,78.866,1091.8,1
3780,0.44,11998,1,11998,1,4.191e-05,-2.3463e-10,0,6.9757e-05,-7.6454e-06,18.613,-38.468,0,1.1322e+07,4.1185,11997,13888,1,13888,1,0.00016303,1.3643e-08,0,0.00016303,1.4922e-05,1.2242e+07,861.93,0,3.2212e+07,879.06,13887,11998,1,11998,1,4.1906e-05,-2.0691e-11,0,6.2796e-05,-7.6392e-06,6.9909e+06,-2.5862,0,9.962e+06,-10.538,11997,10083,1,10083,1,-7.9208e-05,-2.7757e-08,0,1.5366e-06,-3.0232e-05,-3.2212e+07,-1816.1,0,2.6968e+05,-2255.7,10082,11053,1,11053,1,-2.0889e-05,-1.0159e-09,0,3.1399e-05,-1.9323e-05,-8.4878e+06,-162.56,0,7.0575e+06,-23.043,11052,12943,1,12943,1,0.00010471,5.5382e-10,0,0.00010471,4.0273e-06,9.962e+06,92.358,0,1.1937e+07,4.466,12942,1091.8,0,1091.8,0,7.2478e-05,1.5085e-09,0,4.6288e-05,1.3495e-05,1.3504e+07,206.22,0,7.3572e+06,105.96,1091.8,1
3780,0.45,11998,1,11998,1,4.2862e-05,-1.2525e-10,0,7.1342e-05,-7.8191e-06,39.51,-34.391,0,1.1579e+07,20.842,11997,13888,1,13888,1,0.00016676,2.0025e-08,0,0.00016676,1.5261e-05,1.2522e+07,1278.8,0,3.2945e+07,1008.9,13887,11998,1,11998,1,4.2857e-05,7.7035e-11,0,6.4221e-05,-7.8129e-06,7.1495e+06,15.416,0,1.0188e+07,23.593,11997,10083,1,10083,1,-8.101e-05,-1.8787e-08,0,1.5706e-06,-3.0922e-05,-3.2945e+07,-1229.5,0,2.7554e+05,-1087.6,10082,11053,1,11053,1,-2.1363e-05,-1.5373e-09,0,3.2112e-05,-1.9763e-05,-8.6806e+06,-230.99,0,7.2176e+06,-11.379,11052,12943,1,12943,1,0.00010708,1.1765e-09,0,0.00010708,4.1187e-06,1.0188e+07,173.85,0,1.2209e+07,54.935,12942,1091.8,0,1091.8,0,7.4124e-05,2.1369e-09,0,4.734e-05,1.3802e-05,1.3811e+07,295.84,0,7.5243e+06,102.68,1091.8,1
3780,0.46,11998,1,11998,1,4.381e-05,-7.3233e-10,0,7.292e-05,-7.9921e-06,64.806,-107.71,0,1.1835e+07,-0.40372,11997,13888,1,13888,1,0.00017045,2.5897e-08,0,0.00017045,1.5599e-05,1.28e+07,1695.6,0,3.3673e+07,2006.4,13887,11998,1,11998,1,4.3807e-05,-1.2164e-10,0,6.5643e-05,-7.9868e-06,7.3078e+06,-21.057,0,1.0413e+07,3.4048,11997,10083,1,10083,1,-8.2801e-05,-2.8129e-08,0,1.6078e-06,-3.1609e-05,-3.3673e+07,-1840.2,0,2.8233e+05,-1877.2,10082,11053,1,11053,1,-2.1835e-05,-2.2933e-09,0,3.2821e-05,-2.0199e-05,-8.8721e+06,-359.73,0,7.3775e+06,-17.862,11052,12943,1,12943,1,0.00010945,7.8517e-10,0,0.00010945,4.2091e-06,1.0413e+07,134.22,0,1.2479e+07,17.192,12942,1091.8,0,1091.8,0,7.5764e-05,2.7598e-09,0,4.8387e-05,1.4107e-05,1.4116e+07,322.07,0,7.6908e+06,146.66,1091.8,1
3780,0.47,11998,1,11998,1,4.4768e-05,1.8007e-10,0,7.4515e-05,-8.1669e-06,4.5038,24.126,0,1.2094e+07,18.011,11997,13888,1,13888,1,0.00017416,2.2508e-08,0,0.00017416,1.5939e-05,1.3078e+07,1433.8,0,3.4407e+07,1953.5,13887,11998,1,11998,1,4.4767e-05,3.8175e-12,0,6.7081e-05,-8.1614e-06,7.468e+06,1.1295,0,1.0641e+07,10.939,11997,10083,1,10083,1,-8.4607e-05,-2.518e-08,0,1.6425e-06,-3.2295e-05,-3.4407e+07,-1590.2,0,2.8835e+05,-1151.3,10082,11053,1,11053,1,-2.2314e-05,-2.9019e-10,0,3.3541e-05,-2.0642e-05,-9.067e+06,-38.081,0,7.5393e+06,-3.0065,11052,12943,1,12943,1,0.00011185,4.8987e-10,0,0.00011185,4.3018e-06,1.0641e+07,69.726,0,1.2751e+07,32.724,12942,1091.8,0,1091.8,0,7.7422e-05,1.3447e-09,0,4.9445e-05,1.4416e-05,1.4425e+07,152.34,0,7.8591e+06,93.508,1091.8,1
3780,0.48,11998,1,11998,1,4.5718e-05,-2.8641e-10,0,7.6095e-05,-8.3402e-06,198.58,-38.277,0,1.2351e+07,24.007,11997,13888,1,13888,1,0.00017785,9.7316e-09,0,0.00017785,1.6277e-05,1.3355e+07,679.12,0,3.5137e+07,1271.7,13887,11998,1,11998,1,4.5716e-05,-6.9964e-11,0,6.8502e-05,-8.3338e-06,7.6263e+06,-15.859,0,1.0867e+07,-0.11432,11997,10083,1,10083,1,-8.6401e-05,-2.4226e-08,0,1.6769e-06,-3.2979e-05,-3.5137e+07,-1534.5,0,2.9433e+05,-967.27,10082,11053,1,11053,1,-2.2786e-05,-8.5557e-10,0,3.4251e-05,-2.1078e-05,-9.2585e+06,-120.55,0,7.6988e+06,-18.038,11052,12943,1,12943,1,0.00011422,3.8507e-10,0,0.00011422,4.3928e-06,1.0867e+07,55.457,0,1.3021e+07,23.16,12942,1091.8,0,1091.8,0,7.9063e-05,1.3964e-09,0,5.0494e-05,1.4721e-05,1.4731e+07,183.49,0,8.0255e+06,117.01,1091.8,1
3780,0.49,11998,1,11998,1,4.6669e-05,1.4713e-11,0,7.7678e-05,-8.5135e-06,55.428,4.0496,0,1.2608e+07,36.606,11997,13888,1,13888,1,0.00018155,1.5846e-08,0,0.00018155,1.6616e-05,1.3633e+07,1003.8,0,3.5869e+07,547.95,13887,11998,1,11998,1,4.6668e-05,2.0148e-10,0,6.9929e-05,-8.5078e-06,7.7851e+06,37.925,0,1.1093e+07,31.427,11997,10083,1,10083,1,-8.8202e-05,-1.6755e-08,0,1.7133e-06,-3.3665e-05,-3.5869e+07,-1060.8,0,3.0087e+05,-747.5,10082,11053,1,11053,1,-2.3261e-05,-8.8083e-10,0,3.4964e-05,-2.1517e-05,-9.4515e+06,-143.74,0,7.8592e+06,6.7091,11052,12943,1,12943,1,0.0001166,1.1621e-09,0,0.0001166,4.484e-06,1.1093e+07,178.16,0,1.3293e+07,68.765,12942,1091.8,0,1091.8,0,8.0708e-05,1.7457e-09,0,5.1544e-05,1.5028e-05,1.5037e+07,241.7,0,8.1926e+06,56.348,1091.8,1
3780,0.5,11998,1,11998,1,4.7618e-05,-7.4468e-10,0,7.9258e-05,-8.6868e-06,12.058,-110.18,0,1.2864e+07,21.65,11997,13888,1,13888,1,0.00018524,1.7502e-08,0,0.00018524,1.6954e-05,1.391e+07,1105.3,0,3.66e+07,2207.3,13887,11998,1,11998,1,4.7617e-05,-6.3112e-10,0,7.1353e-05,-8.6816e-06,7.9435e+06,-109.87,0,1.1319e+07,18.748,11997,10083,1,10083,1,-8.9998e-05,-2.5127e-08,0,1.748e-06,-3.4352e-05,-3.66e+07,-1589.4,0,3.0692e+05,-825.88,10082,11053,1,11053,1,-2.3734e-05,-1.5053e-09,0,3.5676e-05,-2.1956e-05,-9.644e+06,-208.94,0,8.0193e+06,-6.7086,11052,12943,1,12943,1,0.00011897,-1.3615e-10,0,0.00011897,4.5752e-06,1.1319e+07,-19.373,0,1.3563e+07,54.105,12942,1091.8,0,1091.8,0,8.235e-05,1.5375e-09,0,5.2593e-05,1.5333e-05,1.5343e+07,161.53,0,8.3594e+06,97.84,1091.8,1
3780,0.51,11998,1,11998,1,4.8578e-05,8.7203e-11,0,8.0855e-05,-8.862e-06,262.94,4.8049,0,1.3123e+07,-14.273,11997,13888,1,13888,1,0.00018897,5.1034e-09,0,0.00018897,1.7296e-05,1.419e+07,737.96,0,3.7337e+07,718.28,13887,11998,1,11998,1,4.8575e-05,1.1455e-10,0,7.2787e-05,-8.8552e-06,8.1034e+06,21.641,0,1.1547e+07,-23.374,11997,10083,1,10083,1,-9.1811e-05,-4.9927e-09,0,1.7834e-06,-3.5043e-05,-3.7337e+07,-992.55,0,3.1329e+05,-134.72,10082,11053,1,11053,1,-2.421e-05,-1.4649e-09,0,3.6394e-05,-2.2397e-05,-9.8374e+06,-235.14,0,8.1803e+06,-41.91,11052,12943,1,12943,1,0.00012136,1.4591e-09,0,0.00012136,4.6673e-06,1.1547e+07,242.09,0,1.3836e+07,-10.713,12942,1091.8,0,1091.8,0,8.4008e-05,2.2124e-09,0,5.3652e-05,1.5642e-05,1.5652e+07,331.78,0,8.5275e+06,80.246,1091.8,1
3780,0.52,11998,1,11998,1,4.9522e-05,-8.6739e-11,0,8.2428e-05,-9.0342e-06,18.126,-21.027,0,1.3379e+07,8.9611,11997,13888,1,13888,1,0.00019265,2.6435e-08,0,0.00019265,1.7632e-05,1.4466e+07,1673.7,0,3.8061e+07,400.68,13887,11998,1,11998,1,4.9521e-05,-8.8453e-11,0,7.4205e-05,-9.0283e-06,8.2611e+06,-18.986,0,1.1772e+07,8.9811,11997,10083,1,10083,1,-9.3592e-05,-2.3904e-08,0,1.8178e-06,-3.5723e-05,-3.8061e+07,-1515.3,0,3.1923e+05,-1029.3,10082,11053,1,11053,1,-2.4684e-05,-6.303e-10,0,3.7103e-05,-2.2834e-05,-1.003e+07,-78.377,0,8.3399e+06,-5.5806,11052,12943,1,12943,1,0.00012373,3.3344e-10,0,0.00012373,4.7583e-06,1.1772e+07,52.187,0,1.4105e+07,27.108,12942,1091.8,0,1091.8,0,8.5643e-05,1.2868e-09,0,5.4696e-05,1.5947e-05,1.5957e+07,139.88,0,8.6936e+06,57.572,1091.8,1
3780,0.53,11998,1,11998,1,5.0472e-05,1.0549e-10,0,8.4009e-05,-9.2074e-06,25.107,17.604,0,1.3635e+07,24.257,11997,13888,1,13888,1,0.00019636,3.3959e-08,0,0.00019636,1.797e-05,1.4745e+07,2151.6,0,3.8792e+07,2380.8,13887,11998,1,11998,1,5.0471e-05,1.314e-10,0,7.5629e-05,-9.201e-06,8.4196e+06,28.353,0,1.1997e+07,12.097,11997,10083,1,10083,1,-9.5388e-05,-2.8075e-08,0,1.8524e-06,-3.6414e-05,-3.8792e+07,-1769.8,0,3.2531e+05,-2088,10082,11053,1,11053,1,-2.5157e-05,-7.5727e-10,0,3.7814e-05,-2.3272e-05,-1.0222e+07,-108.31,0,8.4999e+06,-2.5789,11052,12943,1,12943,1,0.00012609,1.1034e-09,0,0.00012609,4.8502e-06,1.1997e+07,147.46,0,1.4374e+07,46.241,12942,1091.8,0,1091.8,0,8.7285e-05,2.2266e-09,0,5.5745e-05,1.6252e-05,1.6263e+07,204.9,0,8.8603e+06,187.98,1091.8,1
3780,0.54,11998,1,11998,1,5.1429e-05,3.8201e-10,0,8.5601e-05,-9.3819e-06,80.089,27.41,0,1.3894e+07,60.457,11997,13888,1,13888,1,0.00020008,1.7963e-08,0,0.00020008,1.831e-05,1.5024e+07,1492.5,0,3.9526e+07,1540.7,13887,11998,1,11998,1,5.1425e-05,2.5504e-11,0,7.7059e-05,-9.3734e-06,8.5787e+06,3.6895,0,1.2225e+07,20.633,11997,10083,1,10083,1,-9.7195e-05,-1.1068e-08,0,1.8845e-06,-3.7103e-05,-3.9526e+07,-1425.6,0,3.3063e+05,-574.42,10082,11053,1,11053,1,-2.5634e-05,-1.8558e-10,0,3.8531e-05,-2.3711e-05,-1.0416e+07,-28.676,0,8.6606e+06,0.46509,11052,12943,1,12943,1,0.00012849,5.6272e-10,0,0.00012849,4.9425e-06,1.2225e+07,82.497,0,1.4649e+07,49.194,12942,1091.8,0,1091.8,0,8.894e-05,1.5757e-09,0,5.6802e-05,1.6561e-05,1.6571e+07,200.94,0,9.0282e+06,165.72,1091.8,1
3780,0.55,11998,1,11998,1,5.2377e-05,-1.1169e-10,0,8.7178e-05,-9.5549e-06,57.075,-18.156,0,1.415e+07,12.695,11997,13888,1,13888,1,0.00020374,6.844e-09,0,0.00020374,1.8648e-05,1.53e+07,432.75,0,4.0255e+07,929.11,13887,11998,1,11998,1,5.2376e-05,-9.5631e-11,0,7.8482e-05,-9.549e-06,8.7373e+06,-18.038,0,1.245e+07,8.4948,11997,10083,1,10083,1,-9.8986e-05,-1.6663e-08,0,1.923e-06,-3.7782e-05,-4.0255e+07,-1089.9,0,3.377e+05,-1128.4,10082,11053,1,11053,1,-2.6106e-05,-8.0627e-10,0,3.9241e-05,-2.415e-05,-1.0608e+07,-118.29,0,8.8206e+06,-1.8323,11052,12943,1,12943,1,0.00013086,4.65e-10,0,0.00013086,5.0325e-06,1.245e+07,74.491,0,1.4918e+07,28.451,12942,1091.8,0,1091.8,0,9.0579e-05,1.1957e-09,0,5.7848e-05,1.6866e-05,1.6876e+07,147.59,0,9.1946e+06,51.656,1091.8,1
3780,0.56,11998,1,11998,1,5.3335e-05,-4.9608e-10,0,8.8774e-05,-9.7297e-06,27.889,-77.782,0,1.4409e+07,16.013,11997,13888,1,13888,1,0.00020748,2.9322e-09,0,0.00020748,1.899e-05,1.558e+07,458.31,0,4.0994e+07,476.79,13887,11998,1,11998,1,5.3332e-05,8.1849e-13,0,7.9916e-05,-9.7227e-06,8.8969e+06,0.091119,0,1.2677e+07,13.543,11997,10083,1,10083,1,-0.0001008,-4.8218e-09,0,1.9573e-06,-3.8474e-05,-4.0994e+07,-812.31,0,3.4371e+05,-126.23,10082,11053,1,11053,1,-2.6583e-05,-1.7628e-09,0,3.9958e-05,-2.459e-05,-1.0801e+07,-293.97,0,8.9817e+06,-2.3335,11052,12943,1,12943,1,0.00013325,8.1799e-10,0,0.00013325,5.1245e-06,1.2677e+07,138.23,0,1.5191e+07,29.859,12942,1091.8,0,1091.8,0,9.2237e-05,2.001e-09,0,5.8907e-05,1.7174e-05,1.7185e+07,291.97,0,9.363e+06,53.178,1091.8,1
3780,0.57,11998,1,11998,1,5.4285e-05,-7.7829e-10,0,9.0354e-05,-9.9028e-06,53.187,-92.62,0,1.4665e+07,62.06,11997,13888,1,13888,1,0.00021119,3.7079e-08,0,0.00021119,1.9327e-05,1.5858e+07,2360.7,0,4.1722e+07,1097.9,13887,11998,1,11998,1,5.4281e-05,-4.8339e-10,0,8.134e-05,-9.8946e-06,9.0552e+06,-87.606,0,1.2903e+07,30.946,11997,10083,1,10083,1,-0.00010259,-2.8181e-08,0,1.9883e-06,-3.9161e-05,-4.1722e+07,-1787,0,3.4871e+05,-1949.8,10082,11053,1,11053,1,-2.7058e-05,-1.1459e-09,0,4.067e-05,-2.503e-05,-1.0994e+07,-157.06,0,9.1419e+06,2.1028,11052,12943,1,12943,1,0.00013562,-1.1268e-10,0,0.00013562,5.217e-06,1.2903e+07,-15.485,0,1.5462e+07,89.905,12942,1091.8,0,1091.8,0,9.3878e-05,2.4613e-09,0,5.9956e-05,1.748e-05,1.7491e+07,220.06,0,9.5295e+06,187.43,1091.8,1
3780,0.58,11998,1,11998,1,5.5234e-05,-5.6639e-10,0,9.1934e-05,-1.0076e-05,63.717,-82.71,0,1.4922e+07,-2.4678,11997,13888,1,13888,1,0.00021486,1.3999e-08,0,0.00021486,1.9665e-05,1.6134e+07,884.73,0,4.2451e+07,561.86,13887,11998,1,11998,1,5.5232e-05,-3.8069e-10,0,8.2763e-05,-1.007e-05,9.2139e+06,-69.063,0,1.3129e+07,-1.8499,11997,10083,1,10083,1,-0.00010439,-1.5441e-08,0,2.0281e-06,-3.9844e-05,-4.2451e+07,-1010.2,0,3.5616e+05,-1329.4,10082,11053,1,11053,1,-2.753e-05,-1.3003e-09,0,4.1381e-05,-2.5467e-05,-1.1186e+07,-179.73,0,9.3016e+06,-13.781,11052,12943,1,12943,1,0.000138,5.6146e-11,0,0.000138,5.3069e-06,1.3129e+07,9.893,0,1.5732e+07,18.914,12942,1091.8,0,1091.8,0,9.552e-05,1.3413e-09,0,6.1004e-05,1.7786e-05,1.7797e+07,155.75,0,9.6962e+06,76.835,1091.8,1
3780,0.59,11998,1,11998,1,5.6187e-05,-9.2158e-11,0,9.3521e-05,-1.025e-05,38.459,-13.956,0,1.5179e+07,8.9485,11997,13888,1,13888,1,0.00021857,2.4992e-09,0,0.00021857,2.0004e-05,1.6412e+07,415.17,0,4.3184e+07,361.27,13887,11998,1,11998,1,5.6185e-05,6.4227e-11,0,8.4191e-05,-1.0243e-05,9.3728e+06,8.9397,0,1.3356e+07,4.7342,11997,10083,1,10083,1,-0.00010619,-2.8456e-09,0,2.0623e-06,-4.053e-05,-4.3184e+07,-520.71,0,3.6213e+05,-55.037,10082,11053,1,11053,1,-2.8005e-05,-7.7296e-10,0,4.2096e-05,-2.5906e-05,-1.1379e+07,-131.6,0,9.4622e+06,-9.6121,11052,12943,1,12943,1,0.00014038,6.2687e-10,0,0.00014038,5.3987e-06,1.3356e+07,103.15,0,1.6004e+07,17.878,12942,1091.8,0,1091.8,0,9.7168e-05,1.2005e-09,0,6.2057e-05,1.8093e-05,1.8104e+07,175.33,0,9.8635e+06,37.884,1091.8,1
3780,0.6,11998,1,11998,1,5.7137e-05,-1.5454e-10,0,9.5103e-05,-1.0423e-05,47.504,-25.491,0,1.5436e+07,4.7098,11997,13888,1,13888,1,0.00022226,1.557e-09,0,0.00022226,2.0343e-05,1.669e+07,313.15,0,4.3914e+07,266.28,13887,11998,1,11998,1,5.7136e-05,1.7386e-11,0,8.5615e-05,-1.0417e-05,9.5314e+06,2.2238,0,1.3582e+07,1.7179,11997,10083,1,10083,1,-0.00010798,-3.0307e-09,0,2.0976e-06,-4.1215e-05,-4.3914e+07,-598.42,0,3.6833e+05,-54.044,10082,11053,1,11053,1,-2.8479e-05,-6.5183e-10,0,4.2808e-05,-2.6344e-05,-1.1572e+07,-103.72,0,9.6222e+06,-12.458,11052,12943,1,12943,1,0.00014275,5.5421e-10,0,0.00014275,5.49e-06,1.3582e+07,80.47,0,1.6275e+07,19.159,12942,1091.8,0,1091.8,0,9.8812e-05,9.7484e-10,0,6.3107e-05,1.8399e-05,1.841e+07,147.71,0,1.003e+07,31.005,1091.8,1
3780,0.61,11998,1,11998,1,5.809e-05,7.8868e-11,0,9.6688e-05,-1.0597e-05,118.1,7.1793,0,1.5693e+07,-1.2806,11997,13888,1,13888,1,0.00022598,9.4133e-09,0,0.00022598,2.0683e-05,1.6969e+07,595.62,0,4.4648e+07,455.42,13887,11998,1,11998,1,5.8089e-05,9.1448e-11,0,8.7042e-05,-1.059e-05,9.6903e+06,19.625,0,1.3808e+07,-3.481,11997,10083,1,10083,1,-0.00010979,-3.7535e-09,0,2.1326e-06,-4.1905e-05,-4.4648e+07,-575.25,0,3.7452e+05,-329.8,10082,11053,1,11053,1,-2.8952e-05,-1.2599e-09,0,4.3521e-05,-2.6784e-05,-1.1764e+07,-214.65,0,9.7825e+06,-24.124,11052,12943,1,12943,1,0.00014513,1.2814e-09,0,0.00014513,5.5814e-06,1.3808e+07,218.52,0,1.6546e+07,11.882,12942,1091.8,0,1091.8,0,0.00010046,1.9282e-09,0,6.4158e-05,1.8705e-05,1.8717e+07,277.74,0,1.0198e+07,55.908,1091.8,1
3780,0.62,11998,1,11998,1,5.9042e-05,-3.6248e-10,0,9.8272e-05,-1.0771e-05,143.96,-56.95,0,1.595e+07,-1.0136,11997,13888,1,13888,1,0.00022967,1.3176e-09,0,0.00022967,2.102e-05,1.7246e+07,242.29,0,4.5377e+07,245.53,13887,11998,1,11998,1,5.904e-05,-6.3226e-11,0,8.8468e-05,-1.0764e-05,9.8491e+06,-11.521,0,1.4034e+07,-2.5009,11997,10083,1,10083,1,-0.00011158,-3.2565e-09,0,2.1678e-06,-4.2589e-05,-4.5377e+07,-632.52,0,3.8071e+05,-68.99,10082,11053,1,11053,1,-2.9427e-05,-7.902e-10,0,4.4233e-05,-2.7222e-05,-1.1957e+07,-121.21,0,9.9429e+06,-12.542,11052,12943,1,12943,1,0.00014751,1.7223e-10,0,0.00014751,5.6727e-06,1.4034e+07,28.75,0,1.6817e+07,10.147,12942,1091.8,0,1091.8,0,0.00010211,9.0303e-10,0,6.521e-05,1.9012e-05,1.9024e+07,139.73,0,1.0365e+07,27.218,1091.8,1
3780,0.63,11998,1,11998,1,5.9994e-05,-3.6877e-10,0,9.9857e-05,-1.0945e-05,50.442,-57.177,0,1.6208e+07,-0.97925,11997,13888,1,13888,1,0.00023338,2.6627e-09,0,0.00023338,2.136e-05,1.7525e+07,430.96,0,4.6111e+07,328.78,13887,11998,1,11998,1,5.9991e-05,-1.5074e-12,0,8.9894e-05,-1.0937e-05,1.0008e+07,-0.12782,0,1.426e+07,-1.7639,11997,10083,1,10083,1,-0.00011338,-3.9817e-09,0,2.2019e-06,-4.3277e-05,-4.6111e+07,-621.8,0,3.8665e+05,-101.31,10082,11053,1,11053,1,-2.9902e-05,-1.4194e-09,0,4.4947e-05,-2.7661e-05,-1.215e+07,-243.29,0,1.0103e+07,-12.679,11052,12943,1,12943,1,0.00014989,7.2175e-10,0,0.00014989,5.7643e-06,1.426e+07,120.37,0,1.7088e+07,6.3094,12942,1091.8,0,1091.8,0,0.00010375,1.6801e-09,0,6.6261e-05,1.9318e-05,1.9331e+07,245.58,0,1.0532e+07,37.959,1091.8,1
3780,0.64,11998,1,11998,1,6.0948e-05,-9.3763e-11,0,0.00010145,-1.1119e-05,38.11,-15.125,0,1.6465e+07,3.7625,11997,13888,1,13888,1,0.00023708,2.6583e-09,0,0.00023708,2.1699e-05,1.7803e+07,470.17,0,4.6843e+07,345.82,13887,11998,1,11998,1,6.0947e-05,-2.2557e-12,0,9.1325e-05,-1.1111e-05,1.0167e+07,-0.38776,0,1.4487e+07,-0.4526,11997,10083,1,10083,1,-0.00011518,-2.7087e-09,0,2.2375e-06,-4.3964e-05,-4.6843e+07,-531.63,0,3.9296e+05,-69.075,10082,11053,1,11053,1,-3.0378e-05,-6.3092e-10,0,4.5662e-05,-2.8101e-05,-1.2344e+07,-100.69,0,1.0264e+07,-11.234,11052,12943,1,12943,1,0.00015227,3.5394e-10,0,0.00015227,5.8562e-06,1.4487e+07,57.296,0,1.736e+07,9.0186,12942,1091.8,0,1091.8,0,0.0001054,9.4811e-10,0,6.7315e-05,1.9626e-05,1.9638e+07,145.12,0,1.0699e+07,35.56,1091.8,1
3780,0.65,11998,1,11998,1,6.19e-05,1.3544e-10,0,0.00010303,-1.1292e-05,11.589,18.993,0,1.6722e+07,4.8393,11997,13888,1,13888,1,0.0002408,3.7215e-09,0,0.0002408,2.2039e-05,1.8082e+07,575.91,0,4.7577e+07,296.98,13887,11998,1,11998,1,6.1898e-05,1.6821e-10,0,9.2752e-05,-1.1285e-05,1.0326e+07,37.874,0,1.4714e+07,5.2738,11997,10083,1,10083,1,-0.00011699,-3.8615e-09,0,2.2716e-06,-4.4652e-05,-4.7577e+07,-620.54,0,3.9884e+05,-113.6,10082,11053,1,11053,1,-3.0852e-05,-1.2482e-09,0,4.6376e-05,-2.854e-05,-1.2536e+07,-218.43,0,1.0424e+07,-9.4651,11052,12943,1,12943,1,0.00015465,1.4724e-09,0,0.00015465,5.9475e-06,1.4714e+07,254.55,0,1.7631e+07,18.32,12942,1091.8,0,1091.8,0,0.00010705,2.0848e-09,0,6.8366e-05,1.9932e-05,1.9945e+07,297.7,0,1.0866e+07,37.994,1091.8,1
3780,0.66,11998,1,11998,1,6.2851e-05,-9.4747e-12,0,0.00010461,-1.1466e-05,29.426,-3.8251,0,1.698e+07,-7.8808,11997,13888,1,13888,1,0.00024449,3.9376e-09,0,0.00024449,2.2378e-05,1.8359e+07,609.31,0,4.8307e+07,280.44,13887,11998,1,11998,1,6.2849e-05,9.4207e-11,0,9.4177e-05,-1.1458e-05,1.0485e+07,18.995,0,1.494e+07,-8.872,11997,10083,1,10083,1,-0.00011879,-3.8906e-09,0,2.307e-06,-4.5338e-05,-4.8307e+07,-684.43,0,4.0511e+05,-92.127,10082,11053,1,11053,1,-3.1327e-05,-1.2352e-09,0,4.7088e-05,-2.8979e-05,-1.2729e+07,-206.18,0,1.0584e+07,-19.885,11052,12943,1,12943,1,0.00015703,1.1618e-09,0,0.00015703,6.0389e-06,1.494e+07,190.97,0,1.7902e+07,0.29524,12942,1091.8,0,1091.8,0,0.00010869,1.8801e-09,0,6.9417e-05,2.0239e-05,2.0251e+07,272.57,0,1.1033e+07,32.784,1091.8,1
3780,0.67,11998,1,11998,1,6.3805e-05,3.4542e-10,0,0.0001062,-1.164e-05,40.298,48.847,0,1.7237e+07,-7.4405,11997,13888,1,13888,1,0.00024821,4.2201e-09,0,0.00024821,2.2717e-05,1.8638e+07,649.16,0,4.904e+07,284.33,13887,11998,1,11998,1,6.3803e-05,2.5048e-10,0,9.5605e-05,-1.1632e-05,1.0644e+07,55.195,0,1.5166e+07,-6.5724,11997,10083,1,10083,1,-0.00012059,-3.7688e-09,0,2.342e-06,-4.6026e-05,-4.904e+07,-676.93,0,4.1127e+05,-102.41,10082,11053,1,11053,1,-3.1801e-05,-1.1454e-09,0,4.7802e-05,-2.9418e-05,-1.2922e+07,-183.99,0,1.0745e+07,-24.441,11052,12943,1,12943,1,0.00015941,1.7868e-09,0,0.00015941,6.1305e-06,1.5166e+07,292.43,0,1.8173e+07,5.6771,12942,1091.8,0,1091.8,0,0.00011034,2.1244e-09,0,7.047e-05,2.0546e-05,2.0559e+07,307.06,0,1.1201e+07,37.068,1091.8,1
3780,0.68,11998,1,11998,1,6.4764e-05,-3.5342e-11,0,0.0001078,-1.1815e-05,67.687,-7.197,0,1.7496e+07,-12.808,11997,13888,1,13888,1,0.00025194,6.5393e-09,0,0.00025194,2.3059e-05,1.8919e+07,999.39,0,4.9778e+07,328.27,13887,11998,1,11998,1,6.4761e-05,1.1265e-10,0,9.7042e-05,-1.1807e-05,1.0804e+07,18.086,0,1.5394e+07,-8.6373,11997,10083,1,10083,1,-0.0001224,-5.6758e-09,0,2.3773e-06,-4.6719e-05,-4.9778e+07,-901.3,0,4.1751e+05,-163.03,10082,11053,1,11053,1,-3.2279e-05,-2.0302e-09,0,4.852e-05,-2.986e-05,-1.3116e+07,-348.38,0,1.0906e+07,-30.784,11052,12943,1,12943,1,0.0001618,1.8579e-09,0,0.0001618,6.2224e-06,1.5394e+07,304.64,0,1.8447e+07,5.9529,12942,1091.8,0,1091.8,0,0.000112,3.0398e-09,0,7.153e-05,2.0854e-05,2.0868e+07,438.47,0,1.1369e+07,46.761,1091.8,1
3780,0.69,11998,1,11998,1,6.5706e-05,-2.8763e-10,0,0.00010936,-1.1987e-05,9.4385,-46.252,0,1.7751e+07,-6.0112,11997,13888,1,13888,1,0.0002556,3.1013e-09,0,0.0002556,2.3394e-05,1.9193e+07,468.24,0,5.0501e+07,265.93,13887,11998,1,11998,1,6.5703e-05,-1.4232e-11,0,9.8453e-05,-1.1979e-05,1.0961e+07,-1.9938,0,1.5618e+07,-6.6395,11997,10083,1,10083,1,-0.00012418,-3.7795e-09,0,2.4116e-06,-4.7397e-05,-5.0501e+07,-585.23,0,4.2346e+05,-100.4,10082,11053,1,11053,1,-3.2749e-05,-1.3966e-09,0,4.9227e-05,-3.0295e-05,-1.3307e+07,-237.86,0,1.1065e+07,-18.662,11052,12943,1,12943,1,0.00016416,8.054e-10,0,0.00016416,6.3131e-06,1.5618e+07,137.93,0,1.8715e+07,4.1341,12942,1091.8,0,1091.8,0,0.00011363,1.7286e-09,0,7.257e-05,2.1158e-05,2.1171e+07,250.07,0,1.1535e+07,32.337,1091.8,1
3780,0.7,11998,1,11998,1,6.6661e-05,2.5504e-10,0,0.00011095,-1.2161e-05,31.116,36.951,0,1.8009e+07,-8.8954,11997,13888,1,13888,1,0.00025931,4.9844e-09,0,0.00025931,2.3734e-05,1.9472e+07,751.29,0,5.1235e+07,303.24,13887,11998,1,11998,1,6.6659e-05,1.4983e-10,0,9.9885e-05,-1.2153e-05,1.112e+07,31.734,0,1.5845e+07,-12.012,11997,10083,1,10083,1,-0.00012599,-3.4112e-09,0,2.4469e-06,-4.8086e-05,-5.1235e+07,-562.98,0,4.2968e+05,-97.512,10082,11053,1,11053,1,-3.3225e-05,-1.0053e-09,0,4.9943e-05,-3.0735e-05,-1.3501e+07,-171.58,0,1.1226e+07,-25.927,11052,12943,1,12943,1,0.00016654,1.345e-09,0,0.00016654,6.4049e-06,1.5845e+07,224.01,0,1.8987e+07,2.1964,12942,1091.8,0,1091.8,0,0.00011528,1.9231e-09,0,7.3625e-05,2.1465e-05,2.1479e+07,274.76,0,1.1702e+07,37.263,1091.8,1
3780,0.71,11998,1,11998,1,6.7613e-05,1.643e-10,0,0.00011254,-1.2335e-05,32.292,22.085,0,1.8266e+07,-11.681,11997,13888,1,13888,1,0.00026302,4.6434e-09,0,0.00026302,2.4073e-05,1.975e+07,708.36,0,5.1967e+07,279.48,13887,11998,1,11998,1,6.7611e-05,1.5583e-10,0,0.00010131,-1.2327e-05,1.1279e+07,32.885,0,1.6071e+07,-12.776,11997,10083,1,10083,1,-0.00012779,-3.8864e-09,0,2.4819e-06,-4.8773e-05,-5.1967e+07,-653.21,0,4.3584e+05,-99.383,10082,11053,1,11053,1,-3.37e-05,-1.1933e-09,0,5.0656e-05,-3.1174e-05,-1.3693e+07,-198.85,0,1.1386e+07,-27.065,11052,12943,1,12943,1,0.00016892,1.4135e-09,0,0.00016892,6.4964e-06,1.6071e+07,233.88,0,1.9258e+07,-0.56676,12942,1091.8,0,1091.8,0,0.00011693,2.0376e-09,0,7.4676e-05,2.1772e-05,2.1786e+07,294.72,0,1.1869e+07,34.27,1091.8,1
3780,0.72,11998,1,11998,1,6.8566e-05,-4.9251e-10,0,0.00011412,-1.2508e-05,26.798,-77.78,0,1.8523e+07,-11.91,11997,13888,1,13888,1,0.00026672,3.9363e-09,0,0.00026672,2.4412e-05,2.0029e+07,598.48,0,5.2699e+07,301.78,13887,11998,1,11998,1,6.8563e-05,-8.459e-11,0,0.00010274,-1.25e-05,1.1438e+07,-10.88,0,1.6298e+07,-12.674,11997,10083,1,10083,1,-0.00012959,-4.8119e-09,0,2.5167e-06,-4.946e-05,-5.2699e+07,-766.75,0,4.4195e+05,-118.5,10082,11053,1,11053,1,-3.4174e-05,-1.8375e-09,0,5.1369e-05,-3.1613e-05,-1.3886e+07,-313.58,0,1.1547e+07,-26.309,11052,12943,1,12943,1,0.0001713,8.4986e-10,0,0.0001713,6.5878e-06,1.6298e+07,144.95,0,1.9529e+07,-0.19439,12942,1091.8,0,1091.8,0,0.00011858,2.1744e-09,0,7.5729e-05,2.2079e-05,2.2093e+07,314.46,0,1.2037e+07,37.249,1091.8,1
3780,0.73,11998,1,11998,1,6.9514e-05,1.7672e-10,0,0.0001157,-1.2681e-05,114.63,25.046,0,1.8779e+07,-8.6363,11997,13888,1,13888,1,0.0002704,2.5681e-09,0,0.0002704,2.4749e-05,2.0305e+07,413.36,0,5.3426e+07,195.26,13887,11998,1,11998,1,6.9513e-05,1.1276e-10,0,0.00010416,-1.2673e-05,1.1596e+07,19.535,0,1.6523e+07,-11.908,11997,10083,1,10083,1,-0.00013137,-2.0363e-09,0,2.5525e-06,-5.0142e-05,-5.3426e+07,-444.83,0,4.4829e+05,-45.573,10082,11053,1,11053,1,-3.4647e-05,-3.8903e-10,0,5.2081e-05,-3.2051e-05,-1.4078e+07,-62.423,0,1.1706e+07,-19.732,11052,12943,1,12943,1,0.00017367,6.8143e-10,0,0.00017367,6.679e-06,1.6523e+07,111.47,0,1.98e+07,-3.3061,12942,1091.8,0,1091.8,0,0.00012022,9.113e-10,0,7.6776e-05,2.2384e-05,2.2398e+07,136.37,0,1.2203e+07,21.379,1091.8,1
3780,0.74,11998,1,11998,1,7.0471e-05,-1.6445e-10,0,0.0001173,-1.2856e-05,16.24,-27.499,0,1.9038e+07,-16.775,11997,13888,1,13888,1,0.00027413,4.1771e-09,0,0.00027413,2.509e-05,2.0585e+07,622.03,0,5.4163e+07,254.39,13887,11998,1,11998,1,7.0469e-05,-4.8831e-12,0,0.00010559,-1.2848e-05,1.1756e+07,-0.99074,0,1.6751e+07,-19.724,11997,10083,1,10083,1,-0.00013319,-3.9252e-09,0,2.5869e-06,-5.0834e-05,-5.4163e+07,-698.47,0,4.5428e+05,-85.234,10082,11053,1,11053,1,-3.5124e-05,-1.2777e-09,0,5.2797e-05,-3.2492e-05,-1.4272e+07,-215.85,0,1.1868e+07,-29.589,11052,12943,1,12943,1,0.00017606,8.6293e-10,0,0.00017606,6.7709e-06,1.6751e+07,144.01,0,2.0072e+07,-9.4492,12942,1091.8,0,1091.8,0,0.00012187,1.8003e-09,0,7.7833e-05,2.2692e-05,2.2707e+07,259.65,0,1.2371e+07,29.136,1091.8,1
3780,0.75,11998,1,11998,1,7.142e-05,-1.3982e-09,0,0.00011888,-1.3029e-05,13.817,-215.46,0,1.9294e+07,-5.8425,11997,13888,1,13888,1,0.00027783,2.0271e-09,0,0.00027783,2.5429e-05,2.0863e+07,294.31,0,5.4893e+07,280.22,13887,11998,1,11998,1,7.1415e-05,-7.1929e-10,0,0.00010701,-1.302e-05,1.1913e+07,-117.91,0,1.6976e+07,-6.4397,11997,10083,1,10083,1,-0.00013498,-5.9123e-09,0,2.6213e-06,-5.1519e-05,-5.4893e+07,-906.44,0,4.6031e+05,-110.05,10082,11053,1,11053,1,-3.5596e-05,-2.6518e-09,0,5.3506e-05,-3.2929e-05,-1.4464e+07,-431.95,0,1.2027e+07,-19.083,11052,12943,1,12943,1,0.00017843,7.5842e-11,0,0.00017843,6.8619e-06,1.6976e+07,13.175,0,2.0342e+07,6.3767,12942,1091.8,0,1091.8,0,0.00012351,2.0752e-09,0,7.8881e-05,2.2998e-05,2.3012e+07,301.88,0,1.2538e+07,34.586,1091.8,1
3780,0.76,11998,1,11998,1,7.2371e-05,2.4016e-11,0,0.00012046,-1.3202e-05,132.02,-1.251,0,1.9551e+07,-3.8697,11997,13888,1,13888,1,0.00028152,2.4127e-09,0,0.00028152,2.5766e-05,2.114e+07,404.59,0,5.5621e+07,151.89,13887,11998,1,11998,1,7.237e-05,1.2598e-11,0,0.00010844,-1.3194e-05,1.2073e+07,1.6034,0,1.7202e+07,-3.7959,11997,10083,1,10083,1,-0.00013677,-2.3994e-09,0,2.6573e-06,-5.2203e-05,-5.5621e+07,-512.01,0,4.6669e+05,-46.774,10082,11053,1,11053,1,-3.6071e-05,-6.6515e-10,0,5.4221e-05,-3.3368e-05,-1.4657e+07,-105.49,0,1.2188e+07,-16.212,11052,12943,1,12943,1,0.00018081,6.1565e-10,0,0.00018081,6.9534e-06,1.7202e+07,102.92,0,2.0614e+07,5.6117,12942,1091.8,0,1091.8,0,0.00012516,1.0296e-09,0,7.9931e-05,2.3304e-05,2.3318e+07,153.67,0,1.2704e+07,19.496,1091.8,1
3780,0.77,11998,1,11998,1,7.3326e-05,4.1022e-10,0,0.00012205,-1.3377e-05,79.871,60.356,0,1.9809e+07,-14.208,11997,13888,1,13888,1,0.00028524,4.5412e-09,0,0.00028524,2.6107e-05,2.1419e+07,705.75,0,5.6358e+07,281.88,13887,11998,1,11998,1,7.3324e-05,2.9842e-10,0,0.00010987,-1.3368e-05,1.2232e+07,57.829,0,1.7429e+07,-14.212,11997,10083,1,10083,1,-0.00013858,-3.2254e-09,0,2.692e-06,-5.2894e-05,-5.6358e+07,-568.88,0,4.7276e+05,-109.58,10082,11053,1,11053,1,-3.6547e-05,-9.6645e-10,0,5.4936e-05,-3.3809e-05,-1.485e+07,-157.43,0,1.2348e+07,-26.332,11052,12943,1,12943,1,0.0001832,1.688e-09,0,0.0001832,7.0453e-06,1.7429e+07,273.09,0,2.0886e+07,-5.5694,12942,1091.8,0,1091.8,0,0.00012681,1.9596e-09,0,8.0987e-05,2.3612e-05,2.3626e+07,284.17,0,1.2872e+07,34.526,1091.8,1
3780,0.78,11998,1,11998,1,7.428e-05,-9.4433e-10,0,0.00012364,-1.3551e-05,16.393,-146.88,0,2.0067e+07,-9.2168,11997,13888,1,13888,1,0.00028896,4.2369e-09,0,0.00028896,2.6447e-05,2.1698e+07,608.84,0,5.7091e+07,308.21,13887,11998,1,11998,1,7.4276e-05,-3.4644e-10,0,0.0001113,-1.3542e-05,1.2391e+07,-66.474,0,1.7656e+07,-10.322,11997,10083,1,10083,1,-0.00014039,-5.7798e-09,0,2.7264e-06,-5.3583e-05,-5.7091e+07,-975.6,0,4.7878e+05,-125.83,10082,11053,1,11053,1,-3.7022e-05,-2.4308e-09,0,5.5649e-05,-3.4248e-05,-1.5043e+07,-401.4,0,1.2509e+07,-27.069,11052,12943,1,12943,1,0.00018558,6.1893e-10,0,0.00018558,7.1367e-06,1.7656e+07,100.53,0,2.1157e+07,5.2261,12942,1091.8,0,1091.8,0,0.00012846,2.4568e-09,0,8.204e-05,2.3919e-05,2.3934e+07,356.99,0,1.304e+07,38.259,1091.8,1
3780,0.79,11998,1,11998,1,7.5233e-05,-1.542e-10,0,0.00012522,-1.3725e-05,30.156,-26.48,0,2.0324e+07,-20.382,11997,13888,1,13888,1,0.00029266,4.6851e-09,0,0.00029266,2.6786e-05,2.1976e+07,704.49,0,5.7823e+07,295.1,13887,11998,1,11998,1,7.523e-05,2.5553e-11,0,0.00011273,-1.3716e-05,1.255e+07,2.3442,0,1.7882e+07,-21.502,11997,10083,1,10083,1,-0.00014219,-4.6216e-09,0,2.7617e-06,-5.4269e-05,-5.7823e+07,-796.24,0,4.8498e+05,-109.61,10082,11053,1,11053,1,-3.7497e-05,-1.4646e-09,0,5.6364e-05,-3.4688e-05,-1.5236e+07,-251.12,0,1.2669e+07,-36.563,11052,12943,1,12943,1,0.00018796,1.0877e-09,0,0.00018796,7.2284e-06,1.7882e+07,183.08,0,2.1429e+07,-11.819,12942,1091.8,0,1091.8,0,0.00013011,2.1334e-09,0,8.3092e-05,2.4226e-05,2.4241e+07,305.49,0,1.3207e+07,35.769,1091.8,1
3780,0.8,11998,1,11998,1,7.6178e-05,1.1392e-10,0,0.00012679,-1.3897e-05,15.382,14.685,0,2.058e+07,-8.0902,11997,13888,1,13888,1,0.00029633,3.6244e-09,0,0.00029633,2.7122e-05,2.2252e+07,565,0,5.8548e+07,296.78,13887,11998,1,11998,1,7.6176e-05,1.051e-10,0,0.00011415,-1.3888e-05,1.2708e+07,23.706,0,1.8107e+07,-9.4581,11997,10083,1,10083,1,-0.00014397,-2.9149e-09,0,2.7963e-06,-5.495e-05,-5.8548e+07,-526.68,0,4.9106e+05,-79.601,10082,11053,1,11053,1,-3.7969e-05,-9.7149e-10,0,5.7073e-05,-3.5124e-05,-1.5428e+07,-160.36,0,1.2829e+07,-21.208,11052,12943,1,12943,1,0.00019032,1.11e-09,0,0.00019032,7.3194e-06,1.8107e+07,184.68,0,2.1698e+07,-1.8989,12942,1091.8,0,1091.8,0,0.00013174,1.6241e-09,0,8.4136e-05,2.453e-05,2.4545e+07,235.42,0,1.3373e+07,32.435,1091.8,1
3780,0.81,11998,1,11998,1,7.7132e-05,-2.6839e-10,0,0.00012838,-1.4071e-05,14.938,-44.424,0,2.0837e+07,-5.9217,11997,13888,1,13888,1,0.00030004,3.8244e-09,0,0.00030004,2.7462e-05,2.2531e+07,552.05,0,5.9282e+07,291.28,13887,11998,1,11998,1,7.7129e-05,-4.4073e-11,0,0.00011557,-1.4062e-05,1.2867e+07,-5.3575,0,1.8334e+07,-7.3238,11997,10083,1,10083,1,-0.00014577,-3.7353e-09,0,2.8313e-06,-5.5639e-05,-5.9282e+07,-653.63,0,4.972e+05,-92.314,10082,11053,1,11053,1,-3.8444e-05,-1.4681e-09,0,5.7787e-05,-3.5563e-05,-1.5621e+07,-244.65,0,1.2989e+07,-20.906,11052,12943,1,12943,1,0.0001927,8.6969e-10,0,0.0001927,7.4109e-06,1.8334e+07,145.59,0,2.197e+07,3.7253,12942,1091.8,0,1091.8,0,0.00013339,1.861e-09,0,8.5189e-05,2.4837e-05,2.4853e+07,269.39,0,1.354e+07,34.411,1091.8,1
3780,0.82,11998,1,11998,1,7.8091e-05,2.014e-10,0,0.00012998,-1.4246e-05,4.1022,27.833,0,2.1097e+07,-18.191,11997,13888,1,13888,1,0.00030378,5.9775e-09,0,0.00030378,2.7804e-05,2.2811e+07,898,0,6.002e+07,325.87,13887,11998,1,11998,1,7.8089e-05,1.9497e-10,0,0.00011701,-1.4237e-05,1.3027e+07,40.452,0,1.8562e+07,-17.426,11997,10083,1,10083,1,-0.00014759,-4.4591e-09,0,2.8664e-06,-5.6331e-05,-6.002e+07,-797.61,0,5.0334e+05,-129.58,10082,11053,1,11053,1,-3.8922e-05,-1.5267e-09,0,5.8506e-05,-3.6006e-05,-1.5815e+07,-249.98,0,1.3151e+07,-35.312,11052,12943,1,12943,1,0.0001951,1.7611e-09,0,0.0001951,7.503e-06,1.8562e+07,291.36,0,2.2243e+07,-6.294,12942,1091.8,0,1091.8,0,0.00013505,2.5585e-09,0,8.6249e-05,2.5146e-05,2.5162e+07,370.44,0,1.3709e+07,38.858,1091.8,1
3780,0.83,11998,1,11998,1,7.9039e-05,-5.1938e-10,0,0.00013156,-1.4419e-05,3.5656,-82.059,0,2.1353e+07,-15.328,11997,13888,1,13888,1,0.00030746,4.244e-09,0,0.00030746,2.8141e-05,2.3088e+07,645.57,0,6.0749e+07,347.22,13887,11998,1,11998,1,7.9035e-05,-7.7188e-11,0,0.00011843,-1.4409e-05,1.3185e+07,-7.4072,0,1.8787e+07,-15.311,11997,10083,1,10083,1,-0.00014938,-5.3798e-09,0,2.901e-06,-5.7015e-05,-6.0749e+07,-854.67,0,5.0941e+05,-133.99,10082,11053,1,11053,1,-3.9394e-05,-2.0251e-09,0,5.9215e-05,-3.6442e-05,-1.6007e+07,-345.02,0,1.331e+07,-31.881,11052,12943,1,12943,1,0.00019747,9.8713e-10,0,0.00019747,7.5941e-06,1.8787e+07,168.34,0,2.2513e+07,-2.5765,12942,1091.8,0,1091.8,0,0.00013669,2.4149e-09,0,8.7296e-05,2.5451e-05,2.5467e+07,349.15,0,1.3875e+07,42.098,1091.8,1
3780,0.84,11998,1,11998,1,7.9993e-05,1.7367e-10,0,0.00013314,-1.4593e-05,23.152,23.861,0,2.161e+07,-13.739,11997,13888,1,13888,1,0.00031118,4.9587e-09,0,0.00031118,2.8481e-05,2.3367e+07,758.51,0,6.1482e+07,343.3,13887,11998,1,11998,1,7.9991e-05,1.7755e-10,0,0.00011986,-1.4584e-05,1.3344e+07,40.949,0,1.9014e+07,-14.144,11997,10083,1,10083,1,-0.00015118,-4.0507e-09,0,2.9364e-06,-5.7703e-05,-6.1482e+07,-683.5,0,5.1566e+05,-126.88,10082,11053,1,11053,1,-3.987e-05,-1.3746e-09,0,5.9931e-05,-3.6883e-05,-1.6201e+07,-226.09,0,1.3471e+07,-28.712,11052,12943,1,12943,1,0.00019985,1.6214e-09,0,0.00019985,7.6859e-06,1.9014e+07,269.42,0,2.2785e+07,-3.8474,12942,1091.8,0,1091.8,0,0.00013834,2.2971e-09,0,8.835e-05,2.5758e-05,2.5775e+07,331.63,0,1.4043e+07,40.276,1091.8,1
3780,0.85,11998,1,11998,1,8.0942e-05,-6.5373e-10,0,0.00013472,-1.4766e-05,152.41,-100.3,0,2.1867e+07,-2.2334,11997,13888,1,13888,1,0.00031486,1.6411e-09,0,0.00031486,2.8818e-05,2.3643e+07,298.32,0,6.2209e+07,195.57,13887,11998,1,11998,1,8.094e-05,-3.9769e-10,0,0.00012128,-1.4757e-05,1.3502e+07,-62.485,0,1.9239e+07,-2.6182,11997,10083,1,10083,1,-0.00015297,-3.6348e-09,0,2.9724e-06,-5.8386e-05,-6.2209e+07,-746.25,0,5.2206e+05,-63.035,10082,11053,1,11053,1,-4.0342e-05,-1.2716e-09,0,6.0641e-05,-3.732e-05,-1.6392e+07,-197.17,0,1.3631e+07,-17.643,11052,12943,1,12943,1,0.00020222,3.1609e-11,0,0.00020222,7.7767e-06,1.9239e+07,7.1103,0,2.3055e+07,9.6924,12942,1091.8,0,1091.8,0,0.00013998,1.0831e-09,0,8.9398e-05,2.6064e-05,2.608e+07,165.1,0,1.4209e+07,24.111,1091.8,1
3780,0.86,11998,1,11998,1,8.1894e-05,-7.6123e-10,0,0.00013631,-1.494e-05,16.195,-119.3,0,2.2124e+07,-13.08,11997,13888,1,13888,1,0.00031857,3.3936e-09,0,0.00031857,2.9157e-05,2.3922e+07,524.08,0,6.2942e+07,329.87,13887,11998,1,11998,1,8.189e-05,-1.9717e-10,0,0.00012271,-1.493e-05,1.3661e+07,-36.51,0,1.9465e+07,-14.811,11997,10083,1,10083,1,-0.00015477,-5.2458e-09,0,3.0061e-06,-5.9074e-05,-6.2942e+07,-850.86,0,5.2789e+05,-112.76,10082,11053,1,11053,1,-4.0817e-05,-2.0654e-09,0,6.1354e-05,-3.7758e-05,-1.6585e+07,-346.87,0,1.3791e+07,-28.004,11052,12943,1,12943,1,0.0002046,6.2079e-10,0,0.0002046,7.8683e-06,1.9465e+07,108.57,0,2.3326e+07,-3.5384,12942,1091.8,0,1091.8,0,0.00014162,2.1949e-09,0,9.0449e-05,2.637e-05,2.6387e+07,318.67,0,1.4376e+07,39.027,1091.8,1
3780,0.87,11998,1,11998,1,8.2844e-05,-3.9489e-10,0,0.00013789,-1.5113e-05,37.108,-60.083,0,2.238e+07,-2.6244,11997,13888,1,13888,1,0.00032226,1.6355e-09,0,0.00032226,2.9495e-05,2.4199e+07,305.56,0,6.3671e+07,236.59,13887,11998,1,11998,1,8.2842e-05,-1.5593e-10,0,0.00012413,-1.5103e-05,1.382e+07,-25.957,0,1.9692e+07,-5.4612,11997,10083,1,10083,1,-0.00015656,-2.7339e-09,0,3.0417e-06,-5.9758e-05,-6.3671e+07,-565.78,0,5.3421e+05,-40.175,10082,11053,1,11053,1,-4.1291e-05,-9.4402e-10,0,6.2067e-05,-3.8197e-05,-1.6778e+07,-153.3,0,1.3951e+07,-12.551,11052,12943,1,12943,1,0.00020698,1.8066e-10,0,0.00020698,7.9597e-06,1.9692e+07,28.45,0,2.3597e+07,1.0949,12942,1091.8,0,1091.8,0,0.00014327,9.4342e-10,0,9.1499e-05,2.6676e-05,2.6693e+07,143.49,0,1.4543e+07,22.53,1091.8,1
3780,0.88,11998,1,11998,1,8.3793e-05,-9.6823e-11,0,0.00013947,-1.5286e-05,152.84,-14.904,0,2.2637e+07,-3.5877,11997,13888,1,13888,1,0.00032594,1.826e-09,0,0.00032594,2.9832e-05,2.4476e+07,321.09,0,6.4399e+07,236.05,13887,11998,1,11998,1,8.3792e-05,2.8654e-12,0,0.00012556,-1.5277e-05,1.3978e+07,0.30577,0,1.9917e+07,-6.0307,11997,10083,1,10083,1,-0.00015836,-1.634e-09,0,3.0771e-06,-6.0442e-05,-6.4399e+07,-359.31,0,5.4044e+05,-57.341,10082,11053,1,11053,1,-4.1763e-05,-5.8319e-10,0,6.2778e-05,-3.8635e-05,-1.697e+07,-101.63,0,1.4111e+07,-15.188,11052,12943,1,12943,1,0.00020935,3.5823e-10,0,0.00020935,8.0509e-06,1.9917e+07,58.513,0,2.3867e+07,1.7169,12942,1091.8,0,1091.8,0,0.00014491,7.7938e-10,0,9.2546e-05,2.6982e-05,2.6999e+07,117.14,0,1.4709e+07,25.923,1091.8,1
3780,0.89,11998,1,11998,1,8.475e-05,-1.3445e-10,0,0.00014106,-1.5461e-05,9.0371,-23.599,0,2.2895e+07,-13.327,11997,13888,1,13888,1,0.00032968,3.7326e-09,0,0.00032968,3.0174e-05,2.4756e+07,581.71,0,6.5137e+07,328.53,13887,11998,1,11998,1,8.4748e-05,2.2955e-11,0,0.00012699,-1.5451e-05,1.4138e+07,2.5131,0,2.0145e+07,-15.294,11997,10083,1,10083,1,-0.00016017,-3.5619e-09,0,3.1111e-06,-6.1134e-05,-6.5137e+07,-648.27,0,5.4634e+05,-97.805,10082,11053,1,11053,1,-4.2241e-05,-1.2955e-09,0,6.3495e-05,-3.9076e-05,-1.7164e+07,-219.62,0,1.4272e+07,-28.518,11052,12943,1,12943,1,0.00021174,9.5003e-10,0,0.00021174,8.143e-06,2.0145e+07,161.34,0,2.414e+07,-6.1089,12942,1091.8,0,1091.8,0,0.00014656,1.8217e-09,0,9.3604e-05,2.729e-05,2.7307e+07,262.6,0,1.4878e+07,36.965,1091.8,1
3780,0.9,11998,1,11998,1,8.5703e-05,-5.1769e-11,0,0.00014265,-1.5635e-05,20.284,-12.463,0,2.3153e+07,-11.549,11997,13888,1,13888,1,0.00033338,4.1903e-09,0,0.00033338,3.0513e-05,2.5034e+07,633.25,0,6.5869e+07,305.39,13887,11998,1,11998,1,8.5701e-05,4.2254e-11,0,0.00012842,-1.5625e-05,1.4297e+07,5.8228,0,2.0371e+07,-12.794,11997,10083,1,10083,1,-0.00016197,-3.737e-09,0,3.1463e-06,-6.1821e-05,-6.5869e+07,-705.84,0,5.5254e+05,-92.333,10082,11053,1,11053,1,-4.2716e-05,-1.3603e-09,0,6.4209e-05,-3.9515e-05,-1.7357e+07,-226.37,0,1.4433e+07,-26.843,11052,12943,1,12943,1,0.00021412,1.1411e-09,0,0.00021412,8.2345e-06,2.0371e+07,192,0,2.4411e+07,-3.6637,12942,1091.8,0,1091.8,0,0.00014821,1.9779e-09,0,9.4656e-05,2.7597e-05,2.7614e+07,286.95,0,1.5045e+07,34.963,1091.8,1
3780,0.91,11998,1,11998,1,8.665e-05,-1.5227e-10,0,0.00014422,-1.5807e-05,19.52,-25.748,0,2.3409e+07,-7.3043,11997,13888,1,13888,1,0.00033706,2.8964e-09,0,0.00033706,3.085e-05,2.5311e+07,465.5,0,6.6596e+07,308.92,13887,11998,1,11998,1,8.6648e-05,2.5442e-11,0,0.00012984,-1.5797e-05,1.4455e+07,2.8782,0,2.0596e+07,-9.8384,11997,10083,1,10083,1,-0.00016376,-3.2708e-09,0,3.1811e-06,-6.2504e-05,-6.6596e+07,-626.23,0,5.5866e+05,-69.846,10082,11053,1,11053,1,-4.3188e-05,-1.1054e-09,0,6.4918e-05,-3.9952e-05,-1.7549e+07,-181.8,0,1.4592e+07,-18.842,11052,12943,1,12943,1,0.00021649,7.7047e-10,0,0.00021649,8.3255e-06,2.0596e+07,128.48,0,2.4681e+07,-3.5109,12942,1091.8,0,1091.8,0,0.00014985,1.4956e-09,0,9.5702e-05,2.7902e-05,2.7919e+07,219.31,0,1.5211e+07,31.454,1091.8,1
3780,0.92,11998,1,11998,1,8.7604e-05,-3.6197e-10,0,0.00014581,-1.5981e-05,86.062,-55.159,0,2.3666e+07,-1.5437,11997,13888,1,13888,1,0.00034077,1.4715e-09,0,0.00034077,3.1189e-05,2.5589e+07,295.69,0,6.7329e+07,261.1,13887,11998,1,11998,1,8.7602e-05,1.4058e-12,0,0.00013127,-1.5971e-05,1.4614e+07,0.2251,0,2.0823e+07,-2.1995,11997,10083,1,10083,1,-0.00016556,-2.894e-09,0,3.2168e-06,-6.3191e-05,-6.7329e+07,-624.52,0,5.65e+05,-75.945,10082,11053,1,11053,1,-4.3663e-05,-1.0261e-09,0,6.5633e-05,-4.0392e-05,-1.7742e+07,-171.55,0,1.4753e+07,-11.226,11052,12943,1,12943,1,0.00021887,4.1893e-10,0,0.00021887,8.417e-06,2.0823e+07,69.12,0,2.4952e+07,6.4751,12942,1091.8,0,1091.8,0,0.0001515,1.118e-09,0,9.6756e-05,2.8209e-05,2.8227e+07,169.35,0,1.5379e+07,27.891,1091.8,1
3780,0.93,11998,1,11998,1,8.8555e-05,-6.119e-10,0,0.00014739,-1.6155e-05,134.69,-93.873,0,2.3923e+07,2.1926,11997,13888,1,13888,1,0.00034447,7.8492e-10,0,0.00034447,3.1528e-05,2.5867e+07,168.09,0,6.8059e+07,236.12,13887,11998,1,11998,1,8.8553e-05,-2.7771e-10,0,0.00013269,-1.6145e-05,1.4772e+07,-45.39,0,2.1049e+07,-0.64845,11997,10083,1,10083,1,-0.00016736,-2.6792e-09,0,3.252e-06,-6.3877e-05,-6.8059e+07,-581.83,0,5.7117e+05,-62.348,10082,11053,1,11053,1,-4.4137e-05,-1.1121e-09,0,6.6345e-05,-4.083e-05,-1.7934e+07,-179.28,0,1.4913e+07,-7.3182,11052,12943,1,12943,1,0.00022124,8.1796e-12,0,0.00022124,8.5083e-06,2.1049e+07,1.2474,0,2.5223e+07,9.0692,12942,1091.8,0,1091.8,0,0.00015314,8.4451e-10,0,9.7806e-05,2.8515e-05,2.8533e+07,130.27,0,1.5545e+07,24.27,1091.8,1
3780,0.94,11998,1,11998,1,8.9507e-05,-7.1063e-10,0,0.00014898,-1.6328e-05,7.797,-107.83,0,2.418e+07,6.2235,11997,13888,1,13888,1,0.00034817,9.0769e-10,0,0.00034817,3.1867e-05,2.6145e+07,186.35,0,6.8792e+07,279.3,13887,11998,1,11998,1,8.9504e-05,-4.4192e-10,0,0.00013412,-1.6318e-05,1.4931e+07,-68.577,0,2.1275e+07,3.5292,11997,10083,1,10083,1,-0.00016916,-3.2126e-09,0,3.2862e-06,-6.4564e-05,-6.8792e+07,-666.85,0,5.7714e+05,-48.161,10082,11053,1,11053,1,-4.4612e-05,-1.1765e-09,0,6.7059e-05,-4.1269e-05,-1.8127e+07,-185.94,0,1.5073e+07,-4.4043,11052,12943,1,12943,1,0.00022362,-2.8747e-11,0,0.00022362,8.5999e-06,2.1275e+07,-4.2468,0,2.5494e+07,9.1171,12942,1091.8,0,1091.8,0,0.00015479,9.1002e-10,0,9.8857e-05,2.8822e-05,2.884e+07,140.03,0,1.5713e+07,24.506,1091.8,1
3780,0.95,11998,1,11998,1,9.046e-05,-2.4074e-10,0,0.00015057,-1.6502e-05,78.596,-39.77,0,2.4438e+07,1.4988,11997,13888,1,13888,1,0.00035188,1.4149e-09,0,0.00035188,3.2206e-05,2.6423e+07,262.54,0,6.9523e+07,217.31,13887,11998,1,11998,1,9.0458e-05,-8.2974e-11,0,0.00013555,-1.6492e-05,1.509e+07,-14.978,0,2.1502e+07,-2.1799,11997,10083,1,10083,1,-0.00017096,-1.9449e-09,0,3.3218e-06,-6.5251e-05,-6.9523e+07,-469.89,0,5.8343e+05,-45.545,10082,11053,1,11053,1,-4.5087e-05,-7.9443e-10,0,6.7773e-05,-4.1709e-05,-1.832e+07,-131.36,0,1.5234e+07,-9.3213,11052,12943,1,12943,1,0.000226,2.9989e-10,0,0.000226,8.6914e-06,2.1502e+07,51.829,0,2.5766e+07,7.8851,12942,1091.8,0,1091.8,0,0.00015644,8.313e-10,0,9.9909e-05,2.9129e-05,2.9147e+07,127.08,0,1.588e+07,24.655,1091.8,1
3780,0.96,11998,1,11998,1,9.1411e-05,-5.4109e-10,0,0.00015215,-1.6676e-05,13.504,-85.139,0,2.4695e+07,1.9995,11997,13888,1,13888,1,0.00035558,1.39e-09,0,0.00035558,3.2545e-05,2.6701e+07,247.01,0,7.0255e+07,248.66,13887,11998,1,11998,1,9.1409e-05,-3.057e-10,0,0.00013697,-1.6665e-05,1.5249e+07,-48.869,0,2.1728e+07,-2.6012,11997,10083,1,10083,1,-0.00017276,-2.5952e-09,0,3.3563e-06,-6.5938e-05,-7.0255e+07,-575.66,0,5.8947e+05,-33.493,10082,11053,1,11053,1,-4.5561e-05,-1.204e-09,0,6.8486e-05,-4.2147e-05,-1.8513e+07,-182.82,0,1.5394e+07,-8.9421,11052,12943,1,12943,1,0.00022838,8.8869e-11,0,0.00022838,8.7829e-06,2.1728e+07,14.244,0,2.6037e+07,7.0584,12942,1091.8,0,1091.8,0,0.00015808,9.4571e-10,0,0.00010096,2.9435e-05,2.9453e+07,143.68,0,1.6047e+07,24.993,1091.8,1
3780,0.97,11998,1,11998,1,9.2367e-05,-7.9823e-10,0,0.00015374,-1.685e-05,42.612,-124.86,0,2.4953e+07,-12.613,11997,13888,1,13888,1,0.00035931,3.7307e-09,0,0.00035931,3.2886e-05,2.6981e+07,596.13,0,7.0992e+07,395.83,13887,11998,1,11998,1,9.2363e-05,-1.8575e-10,0,0.0001384,-1.6839e-05,1.5408e+07,-35.72,0,2.1955e+07,-14.178,11997,10083,1,10083,1,-0.00017457,-5.7398e-09,0,3.3908e-06,-6.6629e-05,-7.0992e+07,-906.33,0,5.955e+05,-128.73,10082,11053,1,11053,1,-4.6036e-05,-2.2298e-09,0,6.9201e-05,-4.2587e-05,-1.8706e+07,-377.76,0,1.5555e+07,-30.692,11052,12943,1,12943,1,0.00023077,7.1375e-10,0,0.00023077,8.8745e-06,2.1955e+07,123.84,0,2.6309e+07,-1.0106,12942,1091.8,0,1091.8,0,0.00015974,2.4064e-09,0,0.00010202,2.9743e-05,2.9761e+07,348.54,0,1.6215e+07,47.076,1091.8,1
3780,0.98,11998,1,11998,1,9.332e-05,-5.6681e-10,0,0.00015533,-1.7024e-05,14.51,-89.699,0,2.521e+07,-12.186,11997,13888,1,13888,1,0.00036301,4.0284e-09,0,0.00036301,3.3225e-05,2.7259e+07,610.64,0,7.1724e+07,359.78,13887,11998,1,11998,1,9.3317e-05,-1.8513e-10,0,0.00013983,-1.7013e-05,1.5567e+07,-33.93,0,2.2181e+07,-13.779,11997,10083,1,10083,1,-0.00017637,-4.8969e-09,0,3.4258e-06,-6.7316e-05,-7.1724e+07,-780.73,0,6.0163e+05,-108.51,10082,11053,1,11053,1,-4.6512e-05,-1.9218e-09,0,6.9915e-05,-4.3027e-05,-1.8899e+07,-321.4,0,1.5715e+07,-30,11052,12943,1,12943,1,0.00023315,7.4323e-10,0,0.00023315,8.9662e-06,2.2181e+07,126.67,0,2.658e+07,-1.9851,12942,1091.8,0,1091.8,0,0.00016138,2.1479e-09,0,0.00010307,3.005e-05,3.0068e+07,311.31,0,1.6382e+07,40.355,1091.8,1
3780,0.99,11998,1,11998,1,9.4269e-05,-5.2243e-10,0,0.00015691,-1.7197e-05,33.687,-79.952,0,2.5467e+07,2.905,11997,13888,1,13888,1,0.0003667,1.397e-09,0,0.0003667,3.3562e-05,2.7536e+07,268.78,0,7.2451e+07,283.7,13887,11998,1,11998,1,9.4266e-05,-1.292e-10,0,0.00014125,-1.7186e-05,1.5725e+07,-20.502,0,2.2407e+07,0.32601,11997,10083,1,10083,1,-0.00017816,-3.0635e-09,0,3.4613e-06,-6.7998e-05,-7.2451e+07,-658.05,0,6.0793e+05,-58.189,10082,11053,1,11053,1,-4.6985e-05,-1.1466e-09,0,7.0626e-05,-4.3465e-05,-1.9092e+07,-191.19,0,1.5875e+07,-7.3716,11052,12943,1,12943,1,0.00023552,2.1446e-10,0,0.00023552,9.0574e-06,2.2407e+07,34.958,0,2.6851e+07,7.9587,12942,1091.8,0,1091.8,0,0.00016302,1.0994e-09,0,0.00010412,3.0355e-05,3.0374e+07,167.34,0,1.6549e+07,27.174,1091.8,1
3780,1,11998,1,11998,1,9.5217e-05,-2.2628e-10,0,0.00015848,-1.737e-05,67.907,-35.972,0,2.5723e+07,1.3393,11997,13888,1,13888,1,0.00037038,1.0632e-09,0,0.00037038,3.3899e-05,2.7813e+07,216.11,0,7.3179e+07,265.59,13887,11998,1,11998,1,9.5216e-05,-6.0448e-11,0,0.00014267,-1.7359e-05,1.5884e+07,-8.1797,0,2.2632e+07,-2.1822,11997,10083,1,10083,1,-0.00017995,-1.9119e-09,0,3.4965e-06,-6.8682e-05,-7.3179e+07,-436.69,0,6.1414e+05,-39.841,10082,11053,1,11053,1,-4.7458e-05,-6.2725e-10,0,7.1337e-05,-4.3902e-05,-1.9284e+07,-104.61,0,1.6035e+07,-7.4947,11052,12943,1,12943,1,0.00023789,2.0709e-10,0,0.00023789,9.1486e-06,2.2632e+07,33.928,0,2.7121e+07,2.3998,12942,1091.8,0,1091.8,0,0.00016466,6.592e-10,0,0.00010516,3.066e-05,3.0679e+07,102.75,0,1.6715e+07,25.05,1091.8,1
3780,1.01,11998,1,11998,1,9.6173e-05,-8.9322e-11,0,0.00016008,-1.7545e-05,35.19,-17.043,0,2.5981e+07,-2.5187,11997,13888,1,13888,1,0.0003741,2.6114e-09,0,0.0003741,3.424e-05,2.8092e+07,437.79,0,7.3914e+07,247.75,13887,11998,1,11998,1,9.6172e-05,-4.4399e-11,0,0.00014411,-1.7534e-05,1.6043e+07,-5.7539,0,2.286e+07,-5.5382,11997,10083,1,10083,1,-0.00018175,-2.4732e-09,0,3.5315e-06,-6.9372e-05,-7.3914e+07,-558.82,0,6.2028e+05,-34.924,10082,11053,1,11053,1,-4.7935e-05,-7.9595e-10,0,7.2054e-05,-4.4343e-05,-1.9478e+07,-128.39,0,1.6196e+07,-14.204,11052,12943,1,12943,1,0.00024028,5.1663e-10,0,0.00024028,9.2405e-06,2.286e+07,85.816,0,2.7393e+07,2.2403,12942,1091.8,0,1091.8,0,0.00016632,1.0674e-09,0,0.00010622,3.0968e-05,3.0988e+07,160.95,0,1.6883e+07,24.495,1091.8,1
3780,1.02,11998,1,11998,1,9.7124e-05,-2.7545e-10,0,0.00016166,-1.7718e-05,76.427,-43.717,0,2.6238e+07,-2.1455,11997,13888,1,13888,1,0.0003778,1.5303e-09,0,0.0003778,3.4578e-05,2.837e+07,283.3,0,7.4644e+07,275.11,13887,11998,1,11998,1,9.7122e-05,-6.0093e-11,0,0.00014553,-1.7707e-05,1.6202e+07,-9.1309,0,2.3086e+07,-5.1029,11997,10083,1,10083,1,-0.00018355,-2.2262e-09,0,3.5666e-06,-7.0057e-05,-7.4644e+07,-514.77,0,6.2648e+05,-56.563,10082,11053,1,11053,1,-4.8408e-05,-8.3803e-10,0,7.2765e-05,-4.4781e-05,-1.967e+07,-138.99,0,1.6356e+07,-11.664,11052,12943,1,12943,1,0.00024265,3.0888e-10,0,0.00024265,9.3317e-06,2.3086e+07,51.347,0,2.7664e+07,0.59464,12942,1091.8,0,1091.8,0,0.00016796,8.993e-10,0,0.00010727,3.1274e-05,3.1294e+07,137.07,0,1.705e+07,27.213,1091.8,1
3780,1.03,11998,1,11998,1,9.8077e-05,2.1339e-10,0,0.00016324,-1.7892e-05,20.994,29.089,0,2.6495e+07,-9.7086,11997,13888,1,13888,1,0.00038151,3.9029e-09,0,0.00038151,3.4918e-05,2.8648e+07,618.4,0,7.5378e+07,361.1,13887,11998,1,11998,1,9.8075e-05,1.595e-10,0,0.00014696,-1.7881e-05,1.6361e+07,33.385,0,2.3312e+07,-11.955,11997,10083,1,10083,1,-0.00018535,-2.9619e-09,0,3.6009e-06,-7.0746e-05,-7.5378e+07,-583.96,0,6.3243e+05,-88.549,10082,11053,1,11053,1,-4.8883e-05,-9.864e-10,0,7.3479e-05,-4.5221e-05,-1.9863e+07,-161.01,0,1.6516e+07,-23.904,11052,12943,1,12943,1,0.00024503,1.3047e-09,0,0.00024503,9.4234e-06,2.3312e+07,215.14,0,2.7935e+07,-4.1691,12942,1091.8,0,1091.8,0,0.00016961,1.754e-09,0,0.00010832,3.1581e-05,3.1601e+07,255.34,0,1.7217e+07,38.193,1091.8,1
3780,1.04,11998,1,11998,1,9.9029e-05,1.0744e-12,0,0.00016483,-1.8066e-05,74.851,-1.7113,0,2.6753e+07,-3.3194,11997,13888,1,13888,1,0.00038521,1.9033e-09,0,0.00038521,3.5257e-05,2.8926e+07,341.42,0,7.6109e+07,294.85,13887,11998,1,11998,1,9.9028e-05,5.7858e-11,0,0.00014839,-1.8054e-05,1.652e+07,10.214,0,2.3539e+07,-6.4961,11997,10083,1,10083,1,-0.00018715,-1.9881e-09,0,3.6366e-06,-7.1432e-05,-7.6109e+07,-448.92,0,6.3877e+05,-50.809,10082,11053,1,11053,1,-4.9358e-05,-5.9834e-10,0,7.4193e-05,-4.566e-05,-2.0056e+07,-99.617,0,1.6677e+07,-12.623,11052,12943,1,12943,1,0.00024742,5.8225e-10,0,0.00024742,9.5149e-06,2.3539e+07,97.379,0,2.8207e+07,-1.624,12942,1091.8,0,1091.8,0,0.00017126,9.0558e-10,0,0.00010937,3.1888e-05,3.1908e+07,137.09,0,1.7384e+07,28.597,1091.8,1
3780,1.05,11998,1,11998,1,9.9979e-05,-4.0613e-10,0,0.00016641,-1.8239e-05,67.118,-63.335,0,2.7009e+07,1.0006,11997,13888,1,13888,1,0.00038891,1.1699e-09,0,0.00038891,3.5595e-05,2.9204e+07,235.2,0,7.6839e+07,278.72,13887,11998,1,11998,1,9.9977e-05,-2.0231e-10,0,0.00014981,-1.8227e-05,1.6678e+07,-32.495,0,2.3764e+07,-3.7434,11997,10083,1,10083,1,-0.00018895,-2.4599e-09,0,3.6716e-06,-7.2117e-05,-7.6839e+07,-555.65,0,6.4492e+05,-39.655,10082,11053,1,11053,1,-4.9831e-05,-8.8217e-10,0,7.4904e-05,-4.6098e-05,-2.0248e+07,-138.86,0,1.6837e+07,-10.351,11052,12943,1,12943,1,0.00024979,9.2886e-11,0,0.00024979,9.606e-06,2.3764e+07,15.014,0,2.8477e+07,1.6799,12942,1091.8,0,1091.8,0,0.0001729,7.7153e-10,0,0.00011042,3.2194e-05,3.2214e+07,120.84,0,1.7551e+07,27.061,1091.8,1
3780,1.06,11998,1,11998,1,0.00010093,-3.3498e-10,0,0.000168,-1.8413e-05,20.255,-57.285,0,2.7267e+07,-12.467,11997,13888,1,13888,1,0.00039263,3.8959e-09,0,0.00039263,3.5936e-05,2.9483e+07,604.28,0,7.7575e+07,377.8,13887,11998,1,11998,1,0.00010093,-5.8411e-11,0,0.00015124,-1.8401e-05,1.6837e+07,-7.0156,0,2.3991e+07,-14.312,11997,10083,1,10083,1,-0.00019076,-4.4615e-09,0,3.7058e-06,-7.2808e-05,-7.7575e+07,-787.92,0,6.5086e+05,-104.58,10082,11053,1,11053,1,-5.0307e-05,-1.7072e-09,0,7.562e-05,-4.6538e-05,-2.0442e+07,-284.18,0,1.6998e+07,-28.934,11052,12943,1,12943,1,0.00025217,9.8737e-10,0,0.00025217,9.6979e-06,2.3991e+07,167.84,0,2.8749e+07,-4.1135,12942,1091.8,0,1091.8,0,0.00017455,2.1447e-09,0,0.00011148,3.2502e-05,3.2522e+07,310.95,0,1.7719e+07,42.294,1091.8,1
3780,1.07,11998,1,11998,1,0.00010188,6.2678e-11,0,0.00016958,-1.8586e-05,8.6713,8.1246,0,2.7524e+07,0.88384,11997,13888,1,13888,1,0.00039631,2.0132e-09,0,0.00039631,3.6273e-05,2.976e+07,352.85,0,7.8302e+07,291.3,13887,11998,1,11998,1,0.00010188,1.4508e-11,0,0.00015266,-1.8575e-05,1.6996e+07,2.2192,0,2.4217e+07,-3.0369,11997,10083,1,10083,1,-0.00019254,-1.3409e-09,0,3.7411e-06,-7.3491e-05,-7.8302e+07,-345.48,0,6.5706e+05,-34.175,10082,11053,1,11053,1,-5.0781e-05,-3.3216e-10,0,7.6332e-05,-4.6976e-05,-2.0634e+07,-54.834,0,1.7158e+07,-7.7816,11052,12943,1,12943,1,0.00025455,3.4906e-10,0,0.00025455,9.7893e-06,2.4217e+07,56.726,0,2.902e+07,0.9295,12942,1091.8,0,1091.8,0,0.00017619,6.2797e-10,0,0.00011253,3.2807e-05,3.2827e+07,95.733,0,1.7885e+07,26.984,1091.8,1
3780,1.08,11998,1,11998,1,0.00010284,-5.4582e-10,0,0.00017117,-1.8761e-05,17.767,-86.288,0,2.7782e+07,-14.154,11997,13888,1,13888,1,0.00040004,3.8994e-09,0,0.00040004,3.6614e-05,3.004e+07,610.41,0,7.9039e+07,368.81,13887,11998,1,11998,1,0.00010284,-1.1639e-10,0,0.00015409,-1.8749e-05,1.7155e+07,-18.189,0,2.4444e+07,-14.583,11997,10083,1,10083,1,-0.00019436,-4.6679e-09,0,3.7758e-06,-7.4182e-05,-7.9039e+07,-848.55,0,6.6316e+05,-101.88,10082,11053,1,11053,1,-5.1256e-05,-1.8409e-09,0,7.7047e-05,-4.7416e-05,-2.0827e+07,-306.97,0,1.7318e+07,-32.361,11052,12943,1,12943,1,0.00025693,7.4085e-10,0,0.00025693,9.8807e-06,2.4444e+07,126.71,0,2.9292e+07,-5.6052,12942,1091.8,0,1091.8,0,0.00017785,2.115e-09,0,0.00011358,3.3115e-05,3.3135e+07,309.13,0,1.8053e+07,39.93,1091.8,1
3780,1.09,11998,1,11998,1,0.00010379,-1.6517e-10,0,0.00017275,-1.8934e-05,13.631,-27.934,0,2.8038e+07,0.25708,11997,13888,1,13888,1,0.00040372,1.6301e-09,0,0.00040372,3.6951e-05,3.0316e+07,301.69,0,7.9766e+07,304.03,13887,11998,1,11998,1,0.00010379,-1.3346e-11,0,0.00015552,-1.8922e-05,1.7313e+07,-1.8194,0,2.4669e+07,-1.9978,11997,10083,1,10083,1,-0.00019614,-2.0618e-09,0,3.811e-06,-7.4864e-05,-7.9766e+07,-474.96,0,6.6937e+05,-54.596,10082,11053,1,11053,1,-5.173e-05,-7.9563e-10,0,7.7758e-05,-4.7854e-05,-2.102e+07,-133.2,0,1.7478e+07,-9.4536,11052,12943,1,12943,1,0.0002593,4.628e-10,0,0.0002593,9.9721e-06,2.4669e+07,77.089,0,2.9562e+07,2.3173,12942,1091.8,0,1091.8,0,0.00017949,9.6203e-10,0,0.00011463,3.342e-05,3.3441e+07,145.05,0,1.8219e+07,30.64,1091.8,1
3780,1.1,11998,1,11998,1,0.00010474,-4.9407e-10,0,0.00017434,-1.9108e-05,23.809,-78.845,0,2.8296e+07,-12.696,11997,13888,1,13888,1,0.00040745,3.4713e-09,0,0.00040745,3.7292e-05,3.0596e+07,552.49,0,8.0502e+07,372.04,13887,11998,1,11998,1,0.00010474,-6.4355e-11,0,0.00015695,-1.9096e-05,1.7473e+07,-7.3729,0,2.4896e+07,-14.974,11997,10083,1,10083,1,-0.00019795,-4.7194e-09,0,3.8458e-06,-7.5555e-05,-8.0502e+07,-867.14,0,6.7546e+05,-101.38,10082,11053,1,11053,1,-5.2205e-05,-1.7879e-09,0,7.8473e-05,-4.8294e-05,-2.1213e+07,-298.33,0,1.7639e+07,-27.958,11052,12943,1,12943,1,0.00026169,8.2199e-10,0,0.00026169,1.0064e-05,2.4896e+07,139.4,0,2.9834e+07,-5.1374,12942,1091.8,0,1091.8,0,0.00018114,2.0928e-09,0,0.00011569,3.3728e-05,3.3749e+07,306.71,0,1.8387e+07,40.348,1091.8,1
3780,1.11,11998,1,11998,1,0.00010569,-2.1439e-10,0,0.00017592,-1.9281e-05,44.504,-35.576,0,2.8552e+07,-1.714,11997,13888,1,13888,1,0.00041113,1.6935e-09,0,0.00041113,3.7628e-05,3.0872e+07,302.01,0,8.1229e+07,294.62,13887,11998,1,11998,1,0.00010569,-6.0081e-11,0,0.00015837,-1.9269e-05,1.7631e+07,-8.8159,0,2.5122e+07,-4.8985,11997,10083,1,10083,1,-0.00019974,-2.2464e-09,0,3.8813e-06,-7.6237e-05,-8.1229e+07,-529.32,0,6.8176e+05,-40.315,10082,11053,1,11053,1,-5.2678e-05,-7.9506e-10,0,7.9184e-05,-4.8732e-05,-2.1405e+07,-130.85,0,1.7799e+07,-11.96,11052,12943,1,12943,1,0.00026406,3.4464e-10,0,0.00026406,1.0155e-05,2.5122e+07,58.406,0,3.0104e+07,-0.54108,12942,1091.8,0,1091.8,0,0.00018278,9.0307e-10,0,0.00011673,3.4033e-05,3.4054e+07,137.19,0,1.8554e+07,28.236,1091.8,1
3780,1.12,11998,1,11998,1,0.00010664,-2.3538e-10,0,0.0001775,-1.9455e-05,52.156,-38.214,0,2.8809e+07,-1.8646,11997,13888,1,13888,1,0.00041483,1.5761e-09,0,0.00041483,3.7967e-05,3.115e+07,281.48,0,8.196e+07,301.84,13887,11998,1,11998,1,0.00010664,-1.0455e-10,0,0.00015979,-1.9442e-05,1.779e+07,-17.156,0,2.5348e+07,-5.9545,11997,10083,1,10083,1,-0.00020154,-2.0648e-09,0,3.9163e-06,-7.6924e-05,-8.196e+07,-489.91,0,6.8792e+05,-33.386,10082,11053,1,11053,1,-5.3153e-05,-7.0475e-10,0,7.9897e-05,-4.917e-05,-2.1598e+07,-114.6,0,1.7959e+07,-12.046,11052,12943,1,12943,1,0.00026644,2.1e-10,0,0.00026644,1.0246e-05,2.5348e+07,34.234,0,3.0375e+07,-1.8122,12942,1091.8,0,1091.8,0,0.00018442,7.6178e-10,0,0.00011778,3.434e-05,3.4361e+07,117.02,0,1.8721e+07,28.236,1091.8,1
3780,1.13,11998,1,11998,1,0.0001076,1.9589e-10,0,0.00017909,-1.9628e-05,18.122,27.654,0,2.9067e+07,0.36248,11997,13888,1,13888,1,0.00041853,1.9771e-09,0,0.00041853,3.8306e-05,3.1428e+07,358.7,0,8.2692e+07,310.54,13887,11998,1,11998,1,0.00010759,1.3086e-10,0,0.00016122,-1.9616e-05,1.7949e+07,22.896,0,2.5574e+07,-3.7741,11997,10083,1,10083,1,-0.00020334,-1.7582e-09,0,3.9512e-06,-7.7611e-05,-8.2692e+07,-433.7,0,6.9401e+05,-34.035,10082,11053,1,11053,1,-5.3628e-05,-2.7177e-10,0,8.0611e-05,-4.961e-05,-2.1791e+07,-42.501,0,1.812e+07,-9.0207,11052,12943,1,12943,1,0.00026882,6.6026e-10,0,0.00026882,1.0338e-05,2.5574e+07,105.03,0,3.0647e+07,0.36417,12942,1091.8,0,1091.8,0,0.00018607,7.4851e-10,0,0.00011884,3.4646e-05,3.4668e+07,115.58,0,1.8888e+07,27.785,1091.8,1
3780,1.14,11998,1,11998,1,0.00010855,-1.3012e-10,0,0.00018067,-1.9802e-05,71.525,-22.436,0,2.9324e+07,2.201,11997,13888,1,13888,1,0.00042223,1.4114e-09,0,0.00042223,3.8645e-05,3.1706e+07,265.62,0,8.3423e+07,300.74,13887,11998,1,11998,1,0.00010855,-4.5338e-11,0,0.00016265,-1.979e-05,1.8107e+07,-6.8606,0,2.5801e+07,-1.6902,11997,10083,1,10083,1,-0.00020514,-1.645e-09,0,3.9865e-06,-7.8297e-05,-8.3423e+07,-418.35,0,7.0027e+05,-37.833,10082,11053,1,11053,1,-5.4102e-05,-5.7406e-10,0,8.1324e-05,-5.0048e-05,-2.1983e+07,-96.577,0,1.828e+07,-8.8003,11052,12943,1,12943,1,0.00027119,2.8594e-10,0,0.00027119,1.0429e-05,2.5801e+07,47.142,0,3.0918e+07,3.8743,12942,1091.8,0,1091.8,0,0.00018772,6.7527e-10,0,0.00011989,3.4953e-05,3.4974e+07,104.55,0,1.9055e+07,29.437,1091.8,1
3780,1.15,11998,1,11998,1,0.0001095,-4.4451e-10,0,0.00018226,-1.9977e-05,61.986,-68.365,0,2.9582e+07,-3.5928,11997,13888,1,13888,1,0.00042596,1.9799e-09,0,0.00042596,3.8986e-05,3.1986e+07,353.18,0,8.4159e+07,312.7,13887,11998,1,11998,1,0.0001095,-1.8025e-10,0,0.00016408,-1.9964e-05,1.8267e+07,-29.918,0,2.6028e+07,-6.6923,11997,10083,1,10083,1,-0.00020695,-2.8478e-09,0,4.0216e-06,-7.8988e-05,-8.4159e+07,-631.78,0,7.0644e+05,-55.344,10082,11053,1,11053,1,-5.4578e-05,-1.1035e-09,0,8.204e-05,-5.0489e-05,-2.2177e+07,-181.04,0,1.8441e+07,-15.696,11052,12943,1,12943,1,0.00027358,2.3609e-10,0,0.00027358,1.0521e-05,2.6028e+07,36.903,0,3.119e+07,-0.06891,12942,1091.8,0,1091.8,0,0.00018937,1.0967e-09,0,0.00012094,3.5261e-05,3.5282e+07,167.51,0,1.9223e+07,29.782,1091.8,1
3780,1.16,11998,1,11998,1,0.00011045,-4.3834e-10,0,0.00018384,-2.0149e-05,109.21,-68.571,0,2.9838e+07,-1.4876,11997,13888,1,13888,1,0.00042964,9.0513e-10,0,0.00042964,3.9323e-05,3.2262e+07,189.41,0,8.4886e+07,305.26,13887,11998,1,11998,1,0.00011045,-1.8979e-10,0,0.0001655,-2.0137e-05,1.8425e+07,-31.08,0,2.6253e+07,-5.0442,11997,10083,1,10083,1,-0.00020873,-2.5562e-09,0,4.0567e-06,-7.967e-05,-8.4886e+07,-554.04,0,7.1259e+05,-45.592,10082,11053,1,11053,1,-5.505e-05,-8.6843e-10,0,8.275e-05,-5.0926e-05,-2.2369e+07,-139.51,0,1.86e+07,-12.25,11052,12943,1,12943,1,0.00027595,7.0668e-11,0,0.00027595,1.0612e-05,2.6253e+07,11.864,0,3.146e+07,-0.10951,12942,1091.8,0,1091.8,0,0.00019101,7.6329e-10,0,0.00012199,3.5566e-05,3.5588e+07,118.95,0,1.9389e+07,29.451,1091.8,1
3780,1.17,11998,1,11998,1,0.00011141,-4.1953e-10,0,0.00018543,-2.0324e-05,14.882,-68.259,0,3.0097e+07,-11.501,11997,13888,1,13888,1,0.00043337,3.6796e-09,0,0.00043337,3.9665e-05,3.2543e+07,587.56,0,8.5624e+07,413.89,13887,11998,1,11998,1,0.00011141,-5.2426e-11,0,0.00016693,-2.0311e-05,1.8585e+07,-6.0851,0,2.648e+07,-14.919,11997,10083,1,10083,1,-0.00021055,-4.6838e-09,0,4.0907e-06,-8.0363e-05,-8.5624e+07,-826.07,0,7.1851e+05,-104.69,10082,11053,1,11053,1,-5.5527e-05,-1.7503e-09,0,8.3467e-05,-5.1367e-05,-2.2562e+07,-291.64,0,1.8761e+07,-28.489,11052,12943,1,12943,1,0.00027834,8.9727e-10,0,0.00027834,1.0704e-05,2.648e+07,153.88,0,3.1733e+07,-3.8195,12942,1091.8,0,1091.8,0,0.00019266,2.1219e-09,0,0.00012305,3.5874e-05,3.5896e+07,309.12,0,1.9557e+07,44.547,1091.8,1
3780,1.18,11998,1,11998,1,0.00011236,-4.5408e-11,0,0.00018701,-2.0497e-05,85.517,-9.74,0,3.0353e+07,-4.4128,11997,13888,1,13888,1,0.00043706,2.2732e-09,0,0.00043706,4.0002e-05,3.2819e+07,395.87,0,8.6352e+07,303.16,13887,11998,1,11998,1,0.00011236,-8.1332e-12,0,0.00016836,-2.0484e-05,1.8743e+07,-1.0802,0,2.6706e+07,-8.0338,11997,10083,1,10083,1,-0.00021234,-2.0727e-09,0,4.1268e-06,-8.1046e-05,-8.6352e+07,-503.71,0,7.249e+05,-42.526,10082,11053,1,11053,1,-5.6001e-05,-6.4479e-10,0,8.4179e-05,-5.1806e-05,-2.2755e+07,-103.97,0,1.8921e+07,-15.584,11052,12943,1,12943,1,0.00028072,4.6745e-10,0,0.00028072,1.0795e-05,2.6706e+07,75.681,0,3.2003e+07,-3.6508,12942,1091.8,0,1091.8,0,0.00019431,9.0718e-10,0,0.00012409,3.618e-05,3.6202e+07,138.83,0,1.9724e+07,29.331,1091.8,1
3780,1.19,11998,1,11998,1,0.00011331,-2.1966e-10,0,0.00018859,-2.067e-05,47.142,-36.29,0,3.061e+07,0.55687,11997,13888,1,13888,1,0.00044075,1.3022e-09,0,0.00044075,4.034e-05,3.3097e+07,245.22,0,8.7082e+07,323.08,13887,11998,1,11998,1,0.00011331,-5.7796e-11,0,0.00016978,-2.0657e-05,1.8902e+07,-8.9056,0,2.6932e+07,-4.2543,11997,10083,1,10083,1,-0.00021413,-2.0074e-09,0,4.1612e-06,-8.1731e-05,-8.7082e+07,-493.16,0,7.3096e+05,-44.092,10082,11053,1,11053,1,-5.6474e-05,-7.2434e-10,0,8.489e-05,-5.2243e-05,-2.2947e+07,-120.31,0,1.9081e+07,-9.2733,11052,12943,1,12943,1,0.00028309,2.9536e-10,0,0.00028309,1.0887e-05,2.6932e+07,50.525,0,3.2274e+07,1.0535,12942,1091.8,0,1091.8,0,0.00019595,7.9709e-10,0,0.00012514,3.6485e-05,3.6508e+07,122.45,0,1.989e+07,31.236,1091.8,1
3780,1.2,11998,1,11998,1,0.00011426,-1.0106e-11,0,0.00019019,-2.0845e-05,19.018,-5.6308,0,3.0868e+07,-10.682,11997,13888,1,13888,1,0.00044448,4.0817e-09,0,0.00044448,4.0681e-05,3.3377e+07,656.46,0,8.7819e+07,424.41,13887,11998,1,11998,1,0.00011426,8.1821e-11,0,0.00017121,-2.0832e-05,1.9061e+07,17.565,0,2.7159e+07,-13.261,11997,10083,1,10083,1,-0.00021594,-3.9382e-09,0,4.1958e-06,-8.2422e-05,-8.7819e+07,-724.28,0,7.3697e+05,-105.49,10082,11053,1,11053,1,-5.6951e-05,-1.3572e-09,0,8.5607e-05,-5.2684e-05,-2.3141e+07,-221.58,0,1.9242e+07,-26.705,11052,12943,1,12943,1,0.00028548,1.253e-09,0,0.00028548,1.0979e-05,2.7159e+07,207.83,0,3.2546e+07,-3.9062,12942,1091.8,0,1091.8,0,0.0001976,2.0374e-09,0,0.0001262,3.6794e-05,3.6816e+07,296.87,0,2.0058e+07,44.976,1091.8,1
3780,1.21,11998,1,11998,1,0.00011521,-9.3492e-11,0,0.00019177,-2.1018e-05,25.028,-16.378,0,3.1125e+07,-1.6058,11997,13888,1,13888,1,0.00044817,2.0333e-09,0,0.00044817,4.1018e-05,3.3654e+07,356.62,0,8.8547e+07,322.48,13887,11998,1,11998,1,0.00011521,-2.5536e-11,0,0.00017264,-2.1005e-05,1.922e+07,-2.6581,0,2.7385e+07,-5.466,11997,10083,1,10083,1,-0.00021774,-2.1952e-09,0,4.2313e-06,-8.3106e-05,-8.8547e+07,-522.32,0,7.4326e+05,-35.172,10082,11053,1,11053,1,-5.7424e-05,-6.2568e-10,0,8.6319e-05,-5.3122e-05,-2.3333e+07,-102.2,0,1.9402e+07,-12.914,11052,12943,1,12943,1,0.00028785,3.8725e-10,0,0.00028785,1.107e-05,2.7385e+07,62.073,0,3.2817e+07,-1.1098,12942,1091.8,0,1091.8,0,0.00019925,8.5081e-10,0,0.00012725,3.7099e-05,3.7122e+07,130.3,0,2.0225e+07,30.151,1091.8,1
3780,1.22,11998,1,11998,1,0.00011617,-2.782e-10,0,0.00019335,-2.1192e-05,6.9848,-45.166,0,3.1382e+07,0.7555,11997,13888,1,13888,1,0.00045187,1.8814e-09,0,0.00045187,4.1357e-05,3.3932e+07,335.08,0,8.9279e+07,341.58,13887,11998,1,11998,1,0.00011616,-7.6371e-11,0,0.00017406,-2.1178e-05,1.9378e+07,-14.007,0,2.7611e+07,-2.4464,11997,10083,1,10083,1,-0.00021953,-2.3946e-09,0,4.266e-06,-8.3792e-05,-8.9279e+07,-534.05,0,7.4932e+05,-55.083,10082,11053,1,11053,1,-5.7898e-05,-9.6965e-10,0,8.7031e-05,-5.3561e-05,-2.3526e+07,-161.96,0,1.9563e+07,-11.198,11052,12943,1,12943,1,0.00029023,4.0841e-10,0,0.00029023,1.1161e-05,2.7611e+07,68.729,0,3.3088e+07,2.9284,12942,1091.8,0,1091.8,0,0.00020089,1.0689e-09,0,0.0001283,3.7406e-05,3.7429e+07,161.56,0,2.0392e+07,34.425,1091.8,1
3780,1.23,11998,1,11998,1,0.00011711,-1.3822e-10,0,0.00019493,-2.1365e-05,7.6994,-23.74,0,3.1638e+07,-1.8248,11997,13888,1,13888,1,0.00045556,2.1999e-09,0,0.00045556,4.1695e-05,3.4209e+07,374.36,0,9.0008e+07,384.55,13887,11998,1,11998,1,0.00011711,2.3859e-11,0,0.00017548,-2.1351e-05,1.9536e+07,2.864,0,2.7836e+07,-5.797,11997,10083,1,10083,1,-0.00022133,-2.5692e-09,0,4.3006e-06,-8.4477e-05,-9.0008e+07,-547.44,0,7.554e+05,-65.309,10082,11053,1,11053,1,-5.8371e-05,-9.4025e-10,0,8.7742e-05,-5.3998e-05,-2.3718e+07,-152.98,0,1.9722e+07,-14.611,11052,12943,1,12943,1,0.0002926,6.3698e-10,0,0.0002926,1.1252e-05,2.7836e+07,104.88,0,3.3358e+07,-0.043324,12942,1091.8,0,1091.8,0,0.00020253,1.2263e-09,0,0.00012935,3.7711e-05,3.7734e+07,182.32,0,2.0559e+07,38.393,1091.8,1
3780,1.24,11998,1,11998,1,0.00011807,-3.9274e-10,0,0.00019652,-2.1539e-05,8.1154,-62.034,0,3.1896e+07,3.3888,11997,13888,1,13888,1,0.00045927,1.0524e-09,0,0.00045927,4.2035e-05,3.4487e+07,211.52,0,9.0741e+07,343.31,13887,11998,1,11998,1,0.00011807,-1.2654e-10,0,0.00017691,-2.1525e-05,1.9696e+07,-22.033,0,2.8063e+07,-0.65967,11997,10083,1,10083,1,-0.00022313,-2.3446e-09,0,4.336e-06,-8.5165e-05,-9.0741e+07,-556.5,0,7.6164e+05,-41.496,10082,11053,1,11053,1,-5.8847e-05,-9.0987e-10,0,8.8457e-05,-5.4438e-05,-2.3911e+07,-149.26,0,1.9883e+07,-6.6998,11052,12943,1,12943,1,0.00029498,1.8219e-10,0,0.00029498,1.1344e-05,2.8063e+07,31.271,0,3.363e+07,2.9344,12942,1091.8,0,1091.8,0,0.00020418,8.4833e-10,0,0.0001304,3.8019e-05,3.8042e+07,130.89,0,2.0726e+07,32.494,1091.8,1
3780,1.25,11998,1,11998,1,0.00011902,-5.1971e-11,0,0.00019811,-2.1713e-05,42.771,-12.414,0,3.2154e+07,-1.4702,11997,13888,1,13888,1,0.00046298,2.081e-09,0,0.00046298,4.2375e-05,3.4766e+07,368.59,0,9.1475e+07,320.09,13887,11998,1,11998,1,0.00011902,-2.093e-11,0,0.00017835,-2.17e-05,1.9855e+07,-3.1837,0,2.829e+07,-5.2659,11997,10083,1,10083,1,-0.00022493,-1.9651e-09,0,4.3715e-06,-8.5854e-05,-9.1475e+07,-503.02,0,7.6792e+05,-43.471,10082,11053,1,11053,1,-5.9323e-05,-6.8805e-10,0,8.9173e-05,-5.4879e-05,-2.4105e+07,-115.48,0,2.0044e+07,-12.411,11052,12943,1,12943,1,0.00029737,5.1671e-10,0,0.00029737,1.1436e-05,2.829e+07,87.562,0,3.3902e+07,-1.1796,12942,1091.8,0,1091.8,0,0.00020583,9.5271e-10,0,0.00013146,3.8326e-05,3.835e+07,144.17,0,2.0894e+07,32.288,1091.8,1
3780,1.26,11998,1,11998,1,0.00011998,-3.5875e-10,0,0.00019969,-2.1887e-05,39.92,-56.885,0,3.2411e+07,-10.465,11997,13888,1,13888,1,0.00046669,3.2525e-09,0,0.00046669,4.2714e-05,3.5045e+07,533.03,0,9.2208e+07,421.63,13887,11998,1,11998,1,0.00011997,-1.2611e-11,0,0.00017977,-2.1873e-05,2.0014e+07,-1.0364,0,2.8516e+07,-13.74,11997,10083,1,10083,1,-0.00022674,-3.9973e-09,0,4.406e-06,-8.6542e-05,-9.2208e+07,-760.64,0,7.7394e+05,-94.634,10082,11053,1,11053,1,-5.9797e-05,-1.5051e-09,0,8.9885e-05,-5.5317e-05,-2.4297e+07,-250.2,0,2.0204e+07,-26.145,11052,12943,1,12943,1,0.00029975,7.7589e-10,0,0.00029975,1.1527e-05,2.8516e+07,130.69,0,3.4173e+07,-5.9395,12942,1091.8,0,1091.8,0,0.00020748,1.8255e-09,0,0.00013251,3.8633e-05,3.8656e+07,269.27,0,2.1061e+07,43.626,1091.8,1
3780,1.27,11998,1,11998,1,0.00012093,1.2463e-10,0,0.00020128,-2.2061e-05,14.821,16.394,0,3.2668e+07,1.6731,11997,13888,1,13888,1,0.00047039,2.5096e-09,0,0.00047039,4.3053e-05,3.5323e+07,439.48,0,9.2938e+07,357,13887,11998,1,11998,1,0.00012093,5.2066e-11,0,0.0001812,-2.2047e-05,2.0173e+07,7.9999,0,2.8743e+07,-3.6039,11997,10083,1,10083,1,-0.00022853,-1.987e-09,0,4.4412e-06,-8.7227e-05,-9.2938e+07,-475.56,0,7.8014e+05,-35.686,10082,11053,1,11053,1,-6.0272e-05,-4.9732e-10,0,9.06e-05,-5.5757e-05,-2.4491e+07,-82.466,0,2.0365e+07,-11.42,11052,12943,1,12943,1,0.00030213,6.4237e-10,0,0.00030213,1.1619e-05,2.8743e+07,105.88,0,3.4444e+07,3.0211,12942,1091.8,0,1091.8,0,0.00020913,9.4232e-10,0,0.00013356,3.8939e-05,3.8963e+07,142.04,0,2.1228e+07,33.618,1091.8,1
3780,1.28,11998,1,11998,1,0.00012188,-2.7285e-10,0,0.00020286,-2.2234e-05,11.345,-45.077,0,3.2924e+07,1.0943,11997,13888,1,13888,1,0.00047408,1.3778e-09,0,0.00047408,4.339e-05,3.56e+07,255.67,0,9.3667e+07,351.87,13887,11998,1,11998,1,0.00012187,-7.4905e-11,0,0.00018262,-2.222e-05,2.0331e+07,-12.454,0,2.8968e+07,-3.0963,11997,10083,1,10083,1,-0.00023033,-2.2336e-09,0,4.476e-06,-8.7912e-05,-9.3667e+07,-541.65,0,7.8627e+05,-43.016,10082,11053,1,11053,1,-6.0745e-05,-8.4731e-10,0,9.131e-05,-5.6194e-05,-2.4683e+07,-139.23,0,2.0524e+07,-9.3118,11052,12943,1,12943,1,0.0003045,3.0944e-10,0,0.0003045,1.171e-05,2.8968e+07,52.444,0,3.4714e+07,0.70479,12942,1091.8,0,1091.8,0,0.00021077,8.9836e-10,0,0.00013461,3.9245e-05,3.9269e+07,137.22,0,2.1395e+07,34.255,1091.8,1
3780,1.29,11998,1,11998,1,0.00012283,-2.1523e-10,0,0.00020444,-2.2408e-05,61.464,-35.812,0,3.3182e+07,-1.7648,11997,13888,1,13888,1,0.00047779,1.7327e-09,0,0.00047779,4.3729e-05,3.5878e+07,311.95,0,9.4399e+07,333.35,13887,11998,1,11998,1,0.00012283,-1.1456e-10,0,0.00018405,-2.2393e-05,2.049e+07,-18.717,0,2.9195e+07,-6.2255,11997,10083,1,10083,1,-0.00023213,-2.2057e-09,0,4.5116e-06,-8.8599e-05,-9.4399e+07,-534.84,0,7.9257e+05,-32.118,10082,11053,1,11053,1,-6.1219e-05,-7.2554e-10,0,9.2024e-05,-5.6634e-05,-2.4875e+07,-114.79,0,2.0685e+07,-13.338,11052,12943,1,12943,1,0.00030688,2.4786e-10,0,0.00030688,1.1801e-05,2.9195e+07,39.751,0,3.4986e+07,-2.1264,12942,1091.8,0,1091.8,0,0.00021242,7.9357e-10,0,0.00013566,3.9552e-05,3.9576e+07,123.23,0,2.1562e+07,31.402,1091.8,1
3780,1.3,11998,1,11998,1,0.00012378,-2.1938e-11,0,0.00020603,-2.2581e-05,10.166,-7.9404,0,3.3439e+07,-5.7907,11997,13888,1,13888,1,0.0004815,2.9638e-09,0,0.0004815,4.4069e-05,3.6156e+07,494.31,0,9.5132e+07,410.67,13887,11998,1,11998,1,0.00012378,4.2447e-11,0,0.00018547,-2.2567e-05,2.0649e+07,8.7018,0,2.9421e+07,-9.6576,11997,10083,1,10083,1,-0.00023393,-2.9132e-09,0,4.5458e-06,-8.9287e-05,-9.5132e+07,-630.07,0,7.9851e+05,-75.469,10082,11053,1,11053,1,-6.1694e-05,-1.0459e-09,0,9.2738e-05,-5.7073e-05,-2.5068e+07,-171.07,0,2.0845e+07,-19.933,11052,12943,1,12943,1,0.00030926,9.2683e-10,0,0.00030926,1.1893e-05,2.9421e+07,154.81,0,3.5257e+07,-2.5379,12942,1091.8,0,1091.8,0,0.00021406,1.5314e-09,0,0.00013671,3.9858e-05,3.9883e+07,225.2,0,2.1729e+07,41.624,1091.8,1
3780,1.31,11998,1,11998,1,0.00012473,-1.5399e-10,0,0.00020761,-2.2755e-05,50.949,-26.423,0,3.3696e+07,-0.2082,11997,13888,1,13888,1,0.00048519,1.6232e-09,0,0.00048519,4.4407e-05,3.6434e+07,298.66,0,9.5863e+07,351.4,13887,11998,1,11998,1,0.00012473,-2.4488e-11,0,0.0001869,-2.2741e-05,2.0808e+07,-3.0736,0,2.9647e+07,-4.3747,11997,10083,1,10083,1,-0.00023572,-1.9872e-09,0,4.5815e-06,-8.9972e-05,-9.5863e+07,-503.23,0,8.0484e+05,-48.884,10082,11053,1,11053,1,-6.2168e-05,-7.224e-10,0,9.3451e-05,-5.7512e-05,-2.5261e+07,-120.22,0,2.1005e+07,-10.477,11052,12943,1,12943,1,0.00031163,3.955e-10,0,0.00031163,1.1984e-05,2.9647e+07,66.953,0,3.5528e+07,-0.21392,12942,1091.8,0,1091.8,0,0.00021571,8.6547e-10,0,0.00013776,4.0165e-05,4.0189e+07,132.52,0,2.1896e+07,34.242,1091.8,1
3780,1.32,11998,1,11998,1,0.00012569,-1.9401e-10,0,0.0002092,-2.2929e-05,17.181,-33.521,0,3.3955e+07,-11.908,11997,13888,1,13888,1,0.00048892,4.2561e-09,0,0.00048892,4.4749e-05,3.6714e+07,684.47,0,9.66e+07,445.24,13887,11998,1,11998,1,0.00012569,3.9249e-11,0,0.00018833,-2.2915e-05,2.0967e+07,4.3806,0,2.9874e+07,-14.138,11997,10083,1,10083,1,-0.00023754,-4.3678e-09,0,4.6159e-06,-9.0664e-05,-9.66e+07,-859.84,0,8.1083e+05,-103.97,10082,11053,1,11053,1,-6.2645e-05,-1.5979e-09,0,9.4167e-05,-5.7952e-05,-2.5455e+07,-262.97,0,2.1166e+07,-30.244,11052,12943,1,12943,1,0.00031402,1.135e-09,0,0.00031402,1.2076e-05,2.9874e+07,189.13,0,3.58e+07,-4.6975,12942,1091.8,0,1091.8,0,0.00021736,2.1592e-09,0,0.00013882,4.0473e-05,4.0497e+07,316.74,0,2.2064e+07,45.689,1091.8,1
3780,1.33,11998,1,11998,1,0.00012664,-2.2016e-10,0,0.00021078,-2.3102e-05,27.123,-36.678,0,3.4211e+07,-6.773,11997,13888,1,13888,1,0.00049261,2.7776e-09,0,0.00049261,4.5086e-05,3.6991e+07,467.95,0,9.7328e+07,436.74,13887,11998,1,11998,1,0.00012664,2.9174e-11,0,0.00018975,-2.3088e-05,2.1125e+07,3.5992,0,3.01e+07,-11.289,11997,10083,1,10083,1,-0.00023933,-3.4975e-09,0,4.6509e-06,-9.1347e-05,-9.7328e+07,-713,0,8.1701e+05,-92.157,10082,11053,1,11053,1,-6.3117e-05,-1.2756e-09,0,9.4877e-05,-5.8389e-05,-2.5647e+07,-208.18,0,2.1326e+07,-20.338,11052,12943,1,12943,1,0.00031639,8.1581e-10,0,0.00031639,1.2167e-05,3.01e+07,135.45,0,3.6071e+07,-3.0473,12942,1091.8,0,1091.8,0,0.000219,1.626e-09,0,0.00013987,4.0778e-05,4.0803e+07,240.58,0,2.2231e+07,43.721,1091.8,1
3780,1.34,11998,1,11998,1,0.00012759,2.3217e-11,0,0.00021237,-2.3276e-05,74.62,0.37162,0,3.4468e+07,-3.057,11997,13888,1,13888,1,0.00049631,2.2438e-09,0,0.00049631,4.5425e-05,3.7269e+07,395.1,0,9.8059e+07,358.97,13887,11998,1,11998,1,0.00012759,4.273e-11,0,0.00019118,-2.3262e-05,2.1284e+07,6.9163,0,3.0326e+07,-6.872,11997,10083,1,10083,1,-0.00024112,-2.0865e-09,0,4.6867e-06,-9.2034e-05,-9.8059e+07,-511.41,0,8.2338e+05,-56.125,10082,11053,1,11053,1,-6.3592e-05,-6.6971e-10,0,9.5591e-05,-5.8829e-05,-2.584e+07,-111.08,0,2.1487e+07,-14.019,11052,12943,1,12943,1,0.00031877,6.5239e-10,0,0.00031877,1.2259e-05,3.0326e+07,108.73,0,3.6342e+07,-3.0928,12942,1091.8,0,1091.8,0,0.00022065,1.0204e-09,0,0.00014092,4.1085e-05,4.111e+07,154.33,0,2.2398e+07,35.048,1091.8,1
3780,1.35,11998,1,11998,1,0.00012854,-5.6138e-10,0,0.00021395,-2.345e-05,66.75,-87.273,0,3.4725e+07,-0.019204,11997,13888,1,13888,1,0.00050001,1.1752e-09,0,0.00050001,4.5763e-05,3.7547e+07,237.25,0,9.879e+07,367.56,13887,11998,1,11998,1,0.00012854,-2.7843e-10,0,0.00019261,-2.3435e-05,2.1443e+07,-44.21,0,3.0552e+07,-5.0125,11997,10083,1,10083,1,-0.00024292,-2.876e-09,0,4.7216e-06,-9.272e-05,-9.879e+07,-654.61,0,8.295e+05,-46.721,10082,11053,1,11053,1,-6.4066e-05,-1.0609e-09,0,9.6303e-05,-5.9267e-05,-2.6032e+07,-171.98,0,2.1647e+07,-10.967,11052,12943,1,12943,1,0.00032115,2.9647e-11,0,0.00032115,1.235e-05,3.0552e+07,5.2695,0,3.6613e+07,0.42906,12942,1091.8,0,1091.8,0,0.00022229,8.9676e-10,0,0.00014197,4.1391e-05,4.1416e+07,139.9,0,2.2565e+07,34.108,1091.8,1
3780,1.36,11998,1,11998,1,0.0001295,-6.1178e-10,0,0.00021554,-2.3624e-05,21.019,-96.003,0,3.4983e+07,-10.384,11997,13888,1,13888,1,0.00050373,3.4886e-09,0,0.00050373,4.6104e-05,3.7826e+07,572.02,0,9.9526e+07,477.06,13887,11998,1,11998,1,0.00012949,-1.0091e-10,0,0.00019404,-2.3609e-05,2.1602e+07,-17.557,0,3.0779e+07,-13.657,11997,10083,1,10083,1,-0.00024473,-4.9983e-09,0,4.7558e-06,-9.341e-05,-9.9526e+07,-918.01,0,8.3544e+05,-108.74,10082,11053,1,11053,1,-6.4542e-05,-1.9149e-09,0,9.7019e-05,-5.9707e-05,-2.6225e+07,-319.57,0,2.1807e+07,-27.884,11052,12943,1,12943,1,0.00032353,7.2677e-10,0,0.00032353,1.2442e-05,3.0779e+07,123.61,0,3.6885e+07,-4.6825,12942,1091.8,0,1091.8,0,0.00022395,2.1467e-09,0,0.00014303,4.1699e-05,4.1724e+07,315.9,0,2.2733e+07,48.304,1091.8,1
3780,1.37,11998,1,11998,1,0.00013045,-1.9859e-11,0,0.00021712,-2.3798e-05,35.01,-6.1516,0,3.524e+07,-8.9559,11997,13888,1,13888,1,0.00050743,3.6869e-09,0,0.00050743,4.6443e-05,3.8104e+07,603.18,0,1.0026e+08,469.35,13887,11998,1,11998,1,0.00013045,9.8453e-11,0,0.00019546,-2.3782e-05,2.1761e+07,16.607,0,3.1005e+07,-11.83,11997,10083,1,10083,1,-0.00024653,-3.7591e-09,0,4.791e-06,-9.4096e-05,-1.0026e+08,-657.77,0,8.4163e+05,-114.49,10082,11053,1,11053,1,-6.5016e-05,-1.3327e-09,0,9.7732e-05,-6.0147e-05,-2.6418e+07,-219.05,0,2.1968e+07,-25.314,11052,12943,1,12943,1,0.00032591,1.2123e-09,0,0.00032591,1.2533e-05,3.1005e+07,203.1,0,3.7156e+07,-2.6586,12942,1091.8,0,1091.8,0,0.00022559,1.9523e-09,0,0.00014408,4.2005e-05,4.2031e+07,286.69,0,2.2899e+07,49.332,1091.8,1
3780,1.38,11998,1,11998,1,0.0001314,-1.4498e-10,0,0.0002187,-2.3971e-05,8.7032,-24.74,0,3.5496e+07,3.0904,11997,13888,1,13888,1,0.00051111,1.4231e-09,0,0.00051111,4.678e-05,3.838e+07,269.03,0,1.0098e+08,369.53,13887,11998,1,11998,1,0.0001314,-2.6662e-11,0,0.00019689,-2.3955e-05,2.1919e+07,-3.8324,0,3.1231e+07,-2.78,11997,10083,1,10083,1,-0.00024832,-2.0159e-09,0,4.8263e-06,-9.4779e-05,-1.0098e+08,-516.49,0,8.4785e+05,-26.312,10082,11053,1,11053,1,-6.549e-05,-5.8135e-10,0,9.8443e-05,-6.0584e-05,-2.6611e+07,-93.462,0,2.2128e+07,-8.1151,11052,12943,1,12943,1,0.00032828,2.7874e-10,0,0.00032828,1.2625e-05,3.1231e+07,45.234,0,3.7426e+07,0.54624,12942,1091.8,0,1091.8,0,0.00022723,6.9363e-10,0,0.00014512,4.231e-05,4.2336e+07,109.9,0,2.3066e+07,34.343,1091.8,1
3780,1.39,11998,1,11998,1,0.00013235,-1.8186e-10,0,0.00022029,-2.4145e-05,26.315,-30.237,0,3.5754e+07,0.11877,11997,13888,1,13888,1,0.00051482,1.6264e-09,0,0.00051482,4.7119e-05,3.8659e+07,306.9,0,1.0172e+08,380.54,13887,11998,1,11998,1,0.00013235,-2.963e-11,0,0.00019831,-2.4129e-05,2.2078e+07,-4.0136,0,3.1457e+07,-5.5972,11997,10083,1,10083,1,-0.00025012,-2.1229e-09,0,4.8614e-06,-9.5467e-05,-1.0172e+08,-529.6,0,8.5404e+05,-42.441,10082,11053,1,11053,1,-6.5964e-05,-7.3145e-10,0,9.9157e-05,-6.1024e-05,-2.6804e+07,-120.86,0,2.2288e+07,-10.942,11052,12943,1,12943,1,0.00033067,3.5521e-10,0,0.00033067,1.2716e-05,3.1457e+07,58.588,0,3.7698e+07,-1.3638,12942,1091.8,0,1091.8,0,0.00022888,8.5832e-10,0,0.00014618,4.2617e-05,4.2643e+07,132.66,0,2.3233e+07,36.355,1091.8,1
3780,1.4,11998,1,11998,1,0.0001333,-1.1513e-10,0,0.00022187,-2.4318e-05,48.271,-20.609,0,3.6011e+07,-1.7003,11997,13888,1,13888,1,0.00051853,2.0613e-09,0,0.00051853,4.7458e-05,3.8937e+07,365.79,0,1.0245e+08,387.77,13887,11998,1,11998,1,0.0001333,1.8501e-11,0,0.00019974,-2.4303e-05,2.2237e+07,1.3448,0,3.1684e+07,-6.2529,11997,10083,1,10083,1,-0.00025192,-2.2244e-09,0,4.8966e-06,-9.6154e-05,-1.0245e+08,-518.17,0,8.6024e+05,-66.258,10082,11053,1,11053,1,-6.6439e-05,-8.2875e-10,0,9.9871e-05,-6.1463e-05,-2.6996e+07,-138.25,0,2.2449e+07,-13.624,11052,12943,1,12943,1,0.00033305,5.6641e-10,0,0.00033305,1.2808e-05,3.1684e+07,94.588,0,3.7969e+07,-0.33522,12942,1091.8,0,1091.8,0,0.00023053,1.0644e-09,0,0.00014723,4.2924e-05,4.295e+07,160.72,0,2.34e+07,38.929,1091.8,1
3780,1.41,11998,1,11998,1,0.00013425,-1.8504e-10,0,0.00022346,-2.4492e-05,63.546,-30.485,0,3.6268e+07,-0.60657,11997,13888,1,13888,1,0.00052223,1.7696e-09,0,0.00052223,4.7797e-05,3.9215e+07,324.15,0,1.0318e+08,361.75,13887,11998,1,11998,1,0.00013425,-9.8846e-11,0,0.00020117,-2.4476e-05,2.2396e+07,-16.051,0,3.191e+07,-5.6932,11997,10083,1,10083,1,-0.00025372,-2.0019e-09,0,4.9318e-06,-9.684e-05,-1.0318e+08,-509.77,0,8.6648e+05,-32.658,10082,11053,1,11053,1,-6.6913e-05,-6.7715e-10,0,0.00010058,-6.1901e-05,-2.7189e+07,-109.86,0,2.2609e+07,-12.772,11052,12943,1,12943,1,0.00033542,2.4483e-10,0,0.00033542,1.2899e-05,3.191e+07,38.631,0,3.824e+07,-0.95392,12942,1091.8,0,1091.8,0,0.00023217,7.5774e-10,0,0.00014828,4.323e-05,4.3257e+07,118.76,0,2.3567e+07,34.526,1091.8,1
3780,1.42,11998,1,11998,1,0.00013521,-3.771e-10,0,0.00022504,-2.4665e-05,10.348,-59.878,0,3.6525e+07,1.692,11997,13888,1,13888,1,0.00052592,1.2335e-09,0,0.00052592,4.8135e-05,3.9493e+07,236.92,0,1.0391e+08,393.3,13887,11998,1,11998,1,0.0001352,-1.7088e-10,0,0.00020259,-2.465e-05,2.2554e+07,-28.071,0,3.2136e+07,-4.7024,11997,10083,1,10083,1,-0.00025551,-2.3577e-09,0,4.9662e-06,-9.7525e-05,-1.0391e+08,-570.64,0,8.7246e+05,-30.651,10082,11053,1,11053,1,-6.7387e-05,-8.3962e-10,0,0.0001013,-6.2339e-05,-2.7381e+07,-136.77,0,2.2769e+07,-10.703,11052,12943,1,12943,1,0.00033779,1.1833e-10,0,0.00033779,1.299e-05,3.2136e+07,19.713,0,3.8511e+07,-0.44301,12942,1091.8,0,1091.8,0,0.00023382,7.8704e-10,0,0.00014933,4.3536e-05,4.3563e+07,123.09,0,2.3734e+07,36.866,1091.8,1
3780,1.43,11998,1,11998,1,0.00013616,-2.3339e-10,0,0.00022663,-2.484e-05,59.702,-38.844,0,3.6783e+07,-12.712,11997,13888,1,13888,1,0.00052966,3.9047e-09,0,0.00052966,4.8477e-05,3.9773e+07,642.33,0,1.0465e+08,486.06,13887,11998,1,11998,1,0.00013616,3.6231e-11,0,0.00020402,-2.4824e-05,2.2714e+07,3.2661,0,3.2363e+07,-16.436,11997,10083,1,10083,1,-0.00025732,-4.3298e-09,0,5.0013e-06,-9.8217e-05,-1.0465e+08,-796.83,0,8.7865e+05,-116.89,10082,11053,1,11053,1,-6.7863e-05,-1.5925e-09,0,0.00010201,-6.278e-05,-2.7575e+07,-261.57,0,2.293e+07,-29.673,11052,12943,1,12943,1,0.00034018,1.0705e-09,0,0.00034018,1.3082e-05,3.2363e+07,179.6,0,3.8783e+07,-6.5687,12942,1091.8,0,1091.8,0,0.00023547,2.0951e-09,0,0.00015039,4.3844e-05,4.3871e+07,307.95,0,2.3902e+07,50.668,1091.8,1
3780,1.44,11998,1,11998,1,0.00013711,-1.8662e-10,0,0.00022821,-2.5013e-05,54.038,-30.958,0,3.7039e+07,-1.791,11997,13888,1,13888,1,0.00053333,1.3264e-09,0,0.00053333,4.8813e-05,4.0049e+07,253,0,1.0537e+08,389.5,13887,11998,1,11998,1,0.00013711,-4.5207e-11,0,0.00020544,-2.4997e-05,2.2872e+07,-7.4327,0,3.2588e+07,-8.6227,11997,10083,1,10083,1,-0.00025911,-1.8938e-09,0,5.0367e-06,-9.8899e-05,-1.0537e+08,-490.32,0,8.8489e+05,-36.785,10082,11053,1,11053,1,-6.8335e-05,-6.2087e-10,0,0.00010272,-6.3218e-05,-2.7767e+07,-102.31,0,2.3089e+07,-13.514,11052,12943,1,12943,1,0.00034255,2.4894e-10,0,0.00034255,1.3173e-05,3.2588e+07,40.294,0,3.9053e+07,-4.1453,12942,1091.8,0,1091.8,0,0.00023711,7.0326e-10,0,0.00015143,4.415e-05,4.4176e+07,109.89,0,2.4068e+07,37.152,1091.8,1
3780,1.45,11998,1,11998,1,0.00013807,-3.1721e-10,0,0.0002298,-2.5187e-05,48.561,-52.126,0,3.7297e+07,-8.9333,11997,13888,1,13888,1,0.00053705,3.2271e-09,0,0.00053705,4.9154e-05,4.0328e+07,528,0,1.0611e+08,452.27,13887,11998,1,11998,1,0.00013806,-4.8347e-11,0,0.00020687,-2.5171e-05,2.3031e+07,-4.9058,0,3.2815e+07,-13.27,11997,10083,1,10083,1,-0.00026092,-3.6675e-09,0,5.0714e-06,-9.9589e-05,-1.0611e+08,-736.52,0,8.9097e+05,-91.618,10082,11053,1,11053,1,-6.8811e-05,-1.4464e-09,0,0.00010344,-6.3658e-05,-2.796e+07,-239.42,0,2.325e+07,-25.408,11052,12943,1,12943,1,0.00034494,7.7496e-10,0,0.00034494,1.3265e-05,3.2815e+07,130.48,0,3.9325e+07,-4.7582,12942,1091.8,0,1091.8,0,0.00023876,1.7643e-09,0,0.00015249,4.4457e-05,4.4484e+07,260.16,0,2.4236e+07,46.807,1091.8,1
3780,1.46,11998,1,11998,1,0.00013902,1.7072e-10,0,0.00023138,-2.536e-05,9.6252,23.079,0,3.7554e+07,3.2991,11997,13888,1,13888,1,0.00054075,2.0542e-09,0,0.00054075,4.9491e-05,4.0606e+07,375.43,0,1.0684e+08,391.57,13887,11998,1,11998,1,0.00013901,8.6764e-11,0,0.0002083,-2.5344e-05,2.319e+07,15.163,0,3.3041e+07,-3.0079,11997,10083,1,10083,1,-0.00026271,-1.6965e-09,0,5.1066e-06,-0.00010027,-1.0684e+08,-462.02,0,8.9715e+05,-27.808,10082,11053,1,11053,1,-6.9286e-05,-3.4246e-10,0,0.00010415,-6.4097e-05,-2.8153e+07,-55.354,0,2.341e+07,-8.4767,11052,12943,1,12943,1,0.00034732,6.1082e-10,0,0.00034732,1.3357e-05,3.3041e+07,98.66,0,3.9596e+07,0.34997,12942,1091.8,0,1091.8,0,0.0002404,7.598e-10,0,0.00015354,4.4763e-05,4.479e+07,118.21,0,2.4403e+07,36.729,1091.8,1
3780,1.47,11998,1,11998,1,0.00013997,-1.9967e-10,0,0.00023297,-2.5534e-05,23.311,-34.988,0,3.7811e+07,-6.1657,11997,13888,1,13888,1,0.00054446,2.9346e-09,0,0.00054446,4.9832e-05,4.0885e+07,496.3,0,1.0757e+08,487.94,13887,11998,1,11998,1,0.00013997,1.056e-12,0,0.00020973,-2.5518e-05,2.3349e+07,0.044143,0,3.3268e+07,-10.901,11997,10083,1,10083,1,-0.00026452,-3.3496e-09,0,5.1413e-06,-0.00010096,-1.0757e+08,-695.32,0,9.0324e+05,-90.836,10082,11053,1,11053,1,-6.976e-05,-1.2543e-09,0,0.00010486,-6.4536e-05,-2.8346e+07,-209.54,0,2.3571e+07,-22.928,11052,12943,1,12943,1,0.0003497,8.0655e-10,0,0.0003497,1.3448e-05,3.3268e+07,135.67,0,3.9868e+07,-3.1011,12942,1091.8,0,1091.8,0,0.00024205,1.6217e-09,0,0.00015459,4.507e-05,4.5098e+07,239.78,0,2.457e+07,49.693,1091.8,1
3780,1.48,11998,1,11998,1,0.00014092,-3.8083e-10,0,0.00023455,-2.5707e-05,20.444,-60.222,0,3.8068e+07,3.1877,11997,13888,1,13888,1,0.00054815,1.1003e-09,0,0.00054815,5.0169e-05,4.1161e+07,225.71,0,1.083e+08,415.48,13887,11998,1,11998,1,0.00014092,-8.2419e-11,0,0.00021115,-2.5691e-05,2.3507e+07,-14.538,0,3.3493e+07,-2.7214,11997,10083,1,10083,1,-0.00026631,-2.5221e-09,0,5.1765e-06,-0.00010165,-1.083e+08,-600.01,0,9.0945e+05,-43.115,10082,11053,1,11053,1,-7.0234e-05,-8.8933e-10,0,0.00010558,-6.4974e-05,-2.8538e+07,-147.11,0,2.3731e+07,-8.0184,11052,12943,1,12943,1,0.00035207,1.9559e-10,0,0.00035207,1.3539e-05,3.3493e+07,33.229,0,4.0138e+07,1.2823,12942,1091.8,0,1091.8,0,0.0002437,8.7019e-10,0,0.00015564,4.5376e-05,4.5403e+07,135.59,0,2.4737e+07,38.917,1091.8,1
3780,1.49,11998,1,11998,1,0.00014187,-2.3694e-10,0,0.00023614,-2.5881e-05,18.635,-39.531,0,3.8325e+07,-6.127,11997,13888,1,13888,1,0.00055186,2.8358e-09,0,0.00055186,5.0509e-05,4.144e+07,478.93,0,1.0903e+08,486.76,13887,11998,1,11998,1,0.00014187,1.4856e-11,0,0.00021258,-2.5865e-05,2.3666e+07,1.5067,0,3.372e+07,-11.796,11997,10083,1,10083,1,-0.00026811,-3.5088e-09,0,5.2112e-06,-0.00010233,-1.0903e+08,-709.47,0,9.1553e+05,-89.368,10082,11053,1,11053,1,-7.0708e-05,-1.2829e-09,0,0.00010629,-6.5413e-05,-2.8731e+07,-210.07,0,2.3891e+07,-21.981,11052,12943,1,12943,1,0.00035445,7.8354e-10,0,0.00035445,1.3631e-05,3.372e+07,130.24,0,4.0409e+07,-3.1465,12942,1091.8,0,1091.8,0,0.00024534,1.6201e-09,0,0.00015669,4.5683e-05,4.5711e+07,239.96,0,2.4904e+07,48.38,1091.8,1
3780,1.5,11998,1,11998,1,0.00014282,-7.3017e-11,0,0.00023772,-2.6055e-05,74.075,-15.026,0,3.8583e+07,-9.6846,11997,13888,1,13888,1,0.00055557,3.0739e-09,0,0.00055557,5.0848e-05,4.1718e+07,519.58,0,1.0977e+08,469.74,13887,11998,1,11998,1,0.00014282,4.2476e-11,0,0.00021401,-2.6039e-05,2.3825e+07,4.765,0,3.3946e+07,-13.994,11997,10083,1,10083,1,-0.00026991,-3.1022e-09,0,5.2468e-06,-0.00010302,-1.0977e+08,-610.3,0,9.2184e+05,-97.759,10082,11053,1,11053,1,-7.1183e-05,-1.1308e-09,0,0.000107,-6.5852e-05,-2.8924e+07,-186.03,0,2.4052e+07,-25.648,11052,12943,1,12943,1,0.00035683,9.0814e-10,0,0.00035683,1.3722e-05,3.3946e+07,149.49,0,4.0681e+07,-6.043,12942,1091.8,0,1091.8,0,0.00024699,1.5801e-09,0,0.00015774,4.599e-05,4.6017e+07,233.27,0,2.5072e+07,48.36,1091.8,1
3780,1.51,11998,1,11998,1,0.00014377,-1.1802e-10,0,0.0002393,-2.6228e-05,25.709,-21.686,0,3.8839e+07,2.0083,11997,13888,1,13888,1,0.00055926,1.759e-09,0,0.00055926,5.1185e-05,4.1995e+07,321.72,0,1.1049e+08,406.81,13887,11998,1,11998,1,0.00014377,-5.0645e-11,0,0.00021543,-2.6212e-05,2.3984e+07,-7.1157,0,3.4172e+07,-4.9694,11997,10083,1,10083,1,-0.0002717,-2.0432e-09,0,5.2817e-06,-0.00010371,-1.1049e+08,-523.21,0,9.2797e+05,-29.644,10082,11053,1,11053,1,-7.1657e-05,-6.2493e-10,0,0.00010772,-6.6291e-05,-2.9117e+07,-101.99,0,2.4212e+07,-10.124,11052,12943,1,12943,1,0.00035921,3.3347e-10,0,0.00035921,1.3814e-05,3.4172e+07,56.358,0,4.0952e+07,-0.33943,12942,1091.8,0,1091.8,0,0.00024863,7.9304e-10,0,0.00015879,4.6295e-05,4.6323e+07,122.42,0,2.5238e+07,38.389,1091.8,1
3780,1.52,11998,1,11998,1,0.00014473,-1.8863e-10,0,0.00024089,-2.6402e-05,8.6084,-31.51,0,3.9096e+07,3.9525,11997,13888,1,13888,1,0.00056296,1.1756e-09,0,0.00056296,5.1524e-05,4.2273e+07,236.54,0,1.1123e+08,419.92,13887,11998,1,11998,1,0.00014472,-3.523e-11,0,0.00021686,-2.6385e-05,2.4143e+07,-4.6485,0,3.4398e+07,-3.2663,11997,10083,1,10083,1,-0.0002735,-1.9884e-09,0,5.3166e-06,-0.00010439,-1.1123e+08,-517.34,0,9.3408e+05,-29.857,10082,11053,1,11053,1,-7.2131e-05,-5.954e-10,0,0.00010843,-6.6729e-05,-2.9309e+07,-96.863,0,2.4372e+07,-8.3069,11052,12943,1,12943,1,0.00036158,2.3028e-10,0,0.00036158,1.3905e-05,3.4398e+07,37.739,0,4.1222e+07,0.05609,12942,1091.8,0,1091.8,0,0.00025028,6.7173e-10,0,0.00015984,4.6602e-05,4.663e+07,106.55,0,2.5405e+07,39.448,1091.8,1
3780,1.53,11998,1,11998,1,0.00014568,-2.1533e-10,0,0.00024248,-2.6576e-05,24.39,-36.574,0,3.9354e+07,-7.1678,11997,13888,1,13888,1,0.00056668,2.8579e-09,0,0.00056668,5.1865e-05,4.2553e+07,484.74,0,1.1196e+08,490.19,13887,11998,1,11998,1,0.00014568,1.7427e-11,0,0.00021829,-2.6559e-05,2.4302e+07,1.6832,0,3.4625e+07,-12.606,11997,10083,1,10083,1,-0.00027531,-3.6265e-09,0,5.3515e-06,-0.00010508,-1.1196e+08,-756.27,0,9.4022e+05,-84.802,10082,11053,1,11053,1,-7.2607e-05,-1.2719e-09,0,0.00010914,-6.7169e-05,-2.9503e+07,-208,0,2.4533e+07,-23.172,11052,12943,1,12943,1,0.00036397,8.2425e-10,0,0.00036397,1.3997e-05,3.4625e+07,136.83,0,4.1494e+07,-4.117,12942,1091.8,0,1091.8,0,0.00025193,1.6584e-09,0,0.0001609,4.691e-05,4.6938e+07,245.78,0,2.5573e+07,48.371,1091.8,1
3780,1.54,11998,1,11998,1,0.00014663,2.0178e-11,0,0.00024406,-2.675e-05,81.401,0.087647,0,3.9611e+07,-4.9567,11997,13888,1,13888,1,0.00057037,1.9764e-09,0,0.00057037,5.2202e-05,4.283e+07,356.72,0,1.1269e+08,414.04,13887,11998,1,11998,1,0.00014663,4.388e-11,0,0.00021971,-2.6733e-05,2.4461e+07,6.0771,0,3.4851e+07,-11.016,11997,10083,1,10083,1,-0.0002771,-2.0401e-09,0,5.3873e-06,-0.00010577,-1.1269e+08,-526.73,0,9.4659e+05,-41.902,10082,11053,1,11053,1,-7.308e-05,-4.889e-10,0,0.00010986,-6.7608e-05,-2.9695e+07,-79.23,0,2.4693e+07,-18.154,11052,12943,1,12943,1,0.00036634,4.8595e-10,0,0.00036634,1.4088e-05,3.4851e+07,78.434,0,4.1765e+07,-7.0141,12942,1091.8,0,1091.8,0,0.00025357,8.0966e-10,0,0.00016195,4.7215e-05,4.7244e+07,125.79,0,2.574e+07,39.125,1091.8,1
3780,1.55,11998,1,11998,1,0.00014759,-2.6891e-10,0,0.00024565,-2.6924e-05,22.539,-45.609,0,3.9869e+07,-3.8356,11997,13888,1,13888,1,0.00057409,2.3594e-09,0,0.00057409,5.2543e-05,4.3109e+07,408.66,0,1.1343e+08,482.22,13887,11998,1,11998,1,0.00014758,-1.9749e-11,0,0.00022114,-2.6907e-05,2.462e+07,-2.0695,0,3.5078e+07,-8.271,11997,10083,1,10083,1,-0.00027891,-3.3796e-09,0,5.4216e-06,-0.00010646,-1.1343e+08,-705.64,0,9.5256e+05,-87.586,10082,11053,1,11053,1,-7.3556e-05,-1.2795e-09,0,0.00011057,-6.8048e-05,-2.9888e+07,-212.29,0,2.4853e+07,-20.255,11052,12943,1,12943,1,0.00036873,7.4174e-10,0,0.00036873,1.418e-05,3.5078e+07,126.06,0,4.2037e+07,-0.99569,12942,1091.8,0,1091.8,0,0.00025523,1.5657e-09,0,0.000163,4.7523e-05,4.7551e+07,232.28,0,2.5907e+07,49.221,1091.8,1
3780,1.56,11998,1,11998,1,0.00014854,-8.6735e-11,0,0.00024723,-2.7097e-05,11.626,-16.43,0,4.0126e+07,-3.0364,11997,13888,1,13888,1,0.00057778,2.5587e-09,0,0.00057778,5.2881e-05,4.3387e+07,441.4,0,1.1416e+08,487.44,13887,11998,1,11998,1,0.00014853,6.2821e-11,0,0.00022257,-2.708e-05,2.4778e+07,11.755,0,3.5303e+07,-8.0689,11997,10083,1,10083,1,-0.00028071,-3.0048e-09,0,5.4565e-06,-0.00010714,-1.1416e+08,-638.29,0,9.5867e+05,-90.018,10082,11053,1,11053,1,-7.403e-05,-1.0821e-09,0,0.00011128,-6.8486e-05,-3.0081e+07,-174.8,0,2.5013e+07,-17.356,11052,12943,1,12943,1,0.0003711,8.7212e-10,0,0.0003711,1.4271e-05,3.5303e+07,145.46,0,4.2308e+07,-1.3138,12942,1091.8,0,1091.8,0,0.00025687,1.4779e-09,0,0.00016405,4.7829e-05,4.7858e+07,220.29,0,2.6074e+07,48.664,1091.8,1
3780,1.57,11998,1,11998,1,0.00014949,-3.2709e-10,0,0.00024881,-2.7271e-05,34.098,-52.95,0,4.0383e+07,-3.8398,11997,13888,1,13888,1,0.00058149,2.347e-09,0,0.00058149,5.322e-05,4.3665e+07,409.09,0,1.1489e+08,470.12,13887,11998,1,11998,1,0.00014949,-3.9476e-11,0,0.00022399,-2.7254e-05,2.4937e+07,-5.2927,0,3.553e+07,-9.0701,11997,10083,1,10083,1,-0.0002825,-3.0687e-09,0,5.4918e-06,-0.00010783,-1.1489e+08,-689.12,0,9.6491e+05,-75.689,10082,11053,1,11053,1,-7.4504e-05,-1.2037e-09,0,0.000112,-6.8925e-05,-3.0273e+07,-198.6,0,2.5174e+07,-19.389,11052,12943,1,12943,1,0.00037348,5.4198e-10,0,0.00037348,1.4362e-05,3.553e+07,90.147,0,4.2579e+07,-2.1307,12942,1091.8,0,1091.8,0,0.00025852,1.3826e-09,0,0.0001651,4.8135e-05,4.8164e+07,207.47,0,2.6241e+07,46.387,1091.8,1
3780,1.58,11998,1,11998,1,0.00015044,-2.7049e-10,0,0.00025039,-2.7444e-05,24.515,-44.512,0,4.0639e+07,1.3089,11997,13888,1,13888,1,0.00058518,1.4227e-09,0,0.00058518,5.3558e-05,4.3942e+07,267.97,0,1.1562e+08,432.95,13887,11998,1,11998,1,0.00015044,-7.799e-11,0,0.00022542,-2.7427e-05,2.5096e+07,-13.963,0,3.5756e+07,-5.6131,11997,10083,1,10083,1,-0.0002843,-2.2353e-09,0,5.527e-06,-0.00010851,-1.1562e+08,-569.07,0,9.7112e+05,-42.04,10082,11053,1,11053,1,-7.4978e-05,-7.9697e-10,0,0.00011271,-6.9363e-05,-3.0466e+07,-131.8,0,2.5334e+07,-11.165,11052,12943,1,12943,1,0.00037586,2.6498e-10,0,0.00037586,1.4454e-05,3.5756e+07,44.177,0,4.285e+07,-1.3578,12942,1091.8,0,1091.8,0,0.00026016,8.453e-10,0,0.00016615,4.8441e-05,4.8471e+07,131.07,0,2.6408e+07,41.432,1091.8,1
3780,1.59,11998,1,11998,1,0.00015139,-7.9412e-11,0,0.00025198,-2.7618e-05,91.312,-15.021,0,4.0897e+07,-2.8975,11997,13888,1,13888,1,0.00058888,1.6774e-09,0,0.00058888,5.3897e-05,4.422e+07,316.4,0,1.1635e+08,433.87,13887,11998,1,11998,1,0.00015139,2.0067e-11,0,0.00022684,-2.7601e-05,2.5255e+07,2.3909,0,3.5982e+07,-9.6314,11997,10083,1,10083,1,-0.0002861,-2.2834e-09,0,5.5625e-06,-0.0001092,-1.1635e+08,-559.69,0,9.7744e+05,-44.08,10082,11053,1,11053,1,-7.5452e-05,-5.6577e-10,0,0.00011342,-6.9803e-05,-3.0659e+07,-92.514,0,2.5494e+07,-16.011,11052,12943,1,12943,1,0.00037824,4.0708e-10,0,0.00037824,1.4545e-05,3.5982e+07,65.323,0,4.3121e+07,-4.7134,12942,1091.8,0,1091.8,0,0.00026181,8.1358e-10,0,0.0001672,4.8748e-05,4.8777e+07,127.23,0,2.6575e+07,41.044,1091.8,1
3780,1.6,11998,1,11998,1,0.00015235,-3.8167e-10,0,0.00025357,-2.7792e-05,29.804,-60.618,0,4.1155e+07,-5.6371,11997,13888,1,13888,1,0.00059261,2.9366e-09,0,0.00059261,5.4238e-05,4.45e+07,499.5,0,1.1708e+08,524.1,13887,11998,1,11998,1,0.00015234,-6.0878e-12,0,0.00022827,-2.7775e-05,2.5414e+07,-0.43985,0,3.6209e+07,-10.197,11997,10083,1,10083,1,-0.00028791,-4.2991e-09,0,5.5968e-06,-0.00010989,-1.1708e+08,-727.32,0,9.8337e+05,-119.66,10082,11053,1,11053,1,-7.5928e-05,-1.5602e-09,0,0.00011414,-7.0242e-05,-3.0852e+07,-263.23,0,2.5655e+07,-23.488,11052,12943,1,12943,1,0.00038062,8.1373e-10,0,0.00038062,1.4637e-05,3.6209e+07,137.02,0,4.3393e+07,-0.33253,12942,1091.8,0,1091.8,0,0.00026346,1.8471e-09,0,0.00016826,4.9056e-05,4.9085e+07,273.63,0,2.6743e+07,54.807,1091.8,1
3780,1.61,11998,1,11998,1,0.0001533,-3.8201e-10,0,0.00025516,-2.7966e-05,29.573,-63.207,0,4.1412e+07,-6.0091,11997,13888,1,13888,1,0.00059632,3.4794e-09,0,0.00059632,5.4577e-05,4.4779e+07,568.74,0,1.1782e+08,485.74,13887,11998,1,11998,1,0.0001533,-1.1967e-10,0,0.0002297,-2.7949e-05,2.5573e+07,-20.015,0,3.6435e+07,-11.818,11997,10083,1,10083,1,-0.00028971,-3.9498e-09,0,5.632e-06,-0.00011058,-1.1782e+08,-753.16,0,9.8959e+05,-89.85,10082,11053,1,11053,1,-7.6403e-05,-1.545e-09,0,0.00011485,-7.0682e-05,-3.1045e+07,-257.73,0,2.5816e+07,-27.494,11052,12943,1,12943,1,0.000383,7.1831e-10,0,0.000383,1.4729e-05,3.6435e+07,121.38,0,4.3665e+07,0.27815,12942,1091.8,0,1091.8,0,0.00026511,1.8218e-09,0,0.00016931,4.9363e-05,4.9392e+07,268.09,0,2.6911e+07,50.8,1091.8,1
3780,1.62,11998,1,11998,1,0.00015425,-1.2436e-10,0,0.00025673,-2.8139e-05,41.388,-22.945,0,4.1668e+07,0.79943,11997,13888,1,13888,1,0.00059999,1.1052e-09,0,0.00059999,5.4914e-05,4.5055e+07,221.69,0,1.1854e+08,432.73,13887,11998,1,11998,1,0.00015425,-3.2663e-11,0,0.00023112,-2.8122e-05,2.5731e+07,-4.6854,0,3.6661e+07,-7.8902,11997,10083,1,10083,1,-0.00029149,-1.9214e-09,0,5.6674e-06,-0.00011126,-1.1854e+08,-521.64,0,9.9585e+05,-28.354,10082,11053,1,11053,1,-7.6876e-05,-5.0492e-10,0,0.00011556,-7.112e-05,-3.1237e+07,-80.332,0,2.5975e+07,-11.411,11052,12943,1,12943,1,0.00038537,2.5603e-10,0,0.00038537,1.482e-05,3.6661e+07,41.752,0,4.3935e+07,-4.6391,12942,1091.8,0,1091.8,0,0.00026675,6.1122e-10,0,0.00017036,4.9668e-05,4.9698e+07,98.18,0,2.7077e+07,40.792,1091.8,1
3780,1.63,11998,1,11998,1,0.0001552,-4.6311e-10,0,0.00025832,-2.8313e-05,13.733,-75.015,0,4.1926e+07,-4.2132,11997,13888,1,13888,1,0.00060372,2.6079e-09,0,0.00060372,5.5254e-05,4.5334e+07,447.08,0,1.1928e+08,497.45,13887,11998,1,11998,1,0.0001552,-1.2064e-10,0,0.00023255,-2.8295e-05,2.589e+07,-21.872,0,3.6887e+07,-9.6934,11997,10083,1,10083,1,-0.0002933,-3.5786e-09,0,5.702e-06,-0.00011195,-1.1928e+08,-767.64,0,1.0019e+06,-75.104,10082,11053,1,11053,1,-7.7351e-05,-1.4237e-09,0,0.00011628,-7.1559e-05,-3.143e+07,-235.53,0,2.6136e+07,-22.324,11052,12943,1,12943,1,0.00038776,4.9292e-10,0,0.00038776,1.4911e-05,3.6887e+07,85.435,0,4.4206e+07,-1.8683,12942,1091.8,0,1091.8,0,0.0002684,1.5561e-09,0,0.00017141,4.9975e-05,5.0005e+07,231.97,0,2.7244e+07,49.345,1091.8,1
3780,1.64,11998,1,11998,1,0.00015615,-1.5658e-10,0,0.00025991,-2.8487e-05,15.732,-27.601,0,4.2183e+07,-3.962,11997,13888,1,13888,1,0.00060742,2.8239e-09,0,0.00060742,5.5593e-05,4.5612e+07,486.72,0,1.2001e+08,521.53,13887,11998,1,11998,1,0.00015615,3.4355e-11,0,0.00023398,-2.8469e-05,2.6049e+07,4.5638,0,3.7113e+07,-9.8848,11997,10083,1,10083,1,-0.0002951,-3.3309e-09,0,5.737e-06,-0.00011264,-1.2001e+08,-725.93,0,1.008e+06,-86.565,10082,11053,1,11053,1,-7.7826e-05,-1.1985e-09,0,0.00011699,-7.1998e-05,-3.1623e+07,-193.68,0,2.6296e+07,-20.063,11052,12943,1,12943,1,0.00039013,8.5089e-10,0,0.00039013,1.5003e-05,3.7113e+07,141.04,0,4.4477e+07,-1.8635,12942,1091.8,0,1091.8,0,0.00027004,1.5946e-09,0,0.00017247,5.0282e-05,5.0312e+07,237.25,0,2.7411e+07,50.967,1091.8,1
3780,1.65,11998,1,11998,1,0.00015711,-2.8724e-10,0,0.00026149,-2.866e-05,8.527,-47.052,0,4.244e+07,-0.42336,11997,13888,1,13888,1,0.00061111,2.1587e-09,0,0.00061111,5.5931e-05,4.5889e+07,381.97,0,1.2074e+08,503.54,13887,11998,1,11998,1,0.0001571,-2.3953e-11,0,0.0002354,-2.8642e-05,2.6207e+07,-3.0062,0,3.7339e+07,-7.0138,11997,10083,1,10083,1,-0.0002969,-2.9765e-09,0,5.772e-06,-0.00011332,-1.2074e+08,-678.79,0,1.0142e+06,-66.218,10082,11053,1,11053,1,-7.8299e-05,-1.0965e-09,0,0.0001177,-7.2436e-05,-3.1816e+07,-181.53,0,2.6456e+07,-16.381,11052,12943,1,12943,1,0.00039251,5.2431e-10,0,0.00039251,1.5094e-05,3.7339e+07,87.782,0,4.4748e+07,-0.24986,12942,1091.8,0,1091.8,0,0.00027169,1.294e-09,0,0.00017351,5.0588e-05,5.0618e+07,194.95,0,2.7578e+07,48.631,1091.8,1
3780,1.66,11998,1,11998,1,0.00015806,-2.8289e-10,0,0.00026307,-2.8834e-05,21.062,-46.329,0,4.2697e+07,2.6888,11997,13888,1,13888,1,0.0006148,1.4467e-09,0,0.0006148,5.6269e-05,4.6167e+07,270.44,0,1.2147e+08,460.82,13887,11998,1,11998,1,0.00015805,-1.143e-10,0,0.00023683,-2.8816e-05,2.6366e+07,-20.875,0,3.7565e+07,-4.4118,11997,10083,1,10083,1,-0.00029869,-2.1032e-09,0,5.8073e-06,-0.00011401,-1.2147e+08,-556.02,0,1.0204e+06,-37.61,10082,11053,1,11053,1,-7.8773e-05,-7.7207e-10,0,0.00011841,-7.2875e-05,-3.2008e+07,-127.08,0,2.6616e+07,-12.446,11052,12943,1,12943,1,0.00039488,2.0704e-10,0,0.00039488,1.5185e-05,3.7565e+07,32.704,0,4.5019e+07,-0.20539,12942,1091.8,0,1091.8,0,0.00027333,7.951e-10,0,0.00017456,5.0894e-05,5.0924e+07,123.51,0,2.7745e+07,43.859,1091.8,1
3780,1.67,11998,1,11998,1,0.00015901,-3.1877e-11,0,0.00026466,-2.9008e-05,36.426,-9.2972,0,4.2954e+07,-2.8924,11997,13888,1,13888,1,0.00061852,2.4445e-09,0,0.00061852,5.6609e-05,4.6445e+07,426.06,0,1.222e+08,492.57,13887,11998,1,11998,1,0.00015901,3.9302e-11,0,0.00023826,-2.8989e-05,2.6525e+07,7.088,0,3.7792e+07,-8.7597,11997,10083,1,10083,1,-0.00030049,-2.532e-09,0,5.8424e-06,-0.0001147,-1.222e+08,-603.36,0,1.0266e+06,-76.348,10082,11053,1,11053,1,-7.9248e-05,-9.1963e-10,0,0.00011913,-7.3315e-05,-3.2201e+07,-150.27,0,2.6777e+07,-18.859,11052,12943,1,12943,1,0.00039727,7.9401e-10,0,0.00039727,1.5277e-05,3.7792e+07,132.25,0,4.5291e+07,-1.8984,12942,1091.8,0,1091.8,0,0.00027498,1.3202e-09,0,0.00017562,5.1201e-05,5.1231e+07,196.71,0,2.7912e+07,49.16,1091.8,1
3780,1.68,11998,1,11998,1,0.00015996,-1.0712e-10,0,0.00026625,-2.9182e-05,14.019,-19.675,0,4.3212e+07,-2.5523,11997,13888,1,13888,1,0.00062223,2.7489e-09,0,0.00062223,5.6949e-05,4.6724e+07,476.11,0,1.2294e+08,527.19,13887,11998,1,11998,1,0.00015996,5.9802e-11,0,0.00023969,-2.9163e-05,2.6684e+07,11.046,0,3.8018e+07,-8.6976,11997,10083,1,10083,1,-0.0003023,-3.1499e-09,0,5.8772e-06,-0.00011538,-1.2294e+08,-708.79,0,1.0327e+06,-87.292,10082,11053,1,11053,1,-7.9723e-05,-1.1385e-09,0,0.00011984,-7.3754e-05,-3.2394e+07,-183.47,0,2.6937e+07,-19.231,11052,12943,1,12943,1,0.00039965,8.8724e-10,0,0.00039965,1.5369e-05,3.8018e+07,147.49,0,4.5562e+07,-0.78562,12942,1091.8,0,1091.8,0,0.00027663,1.5549e-09,0,0.00017667,5.1508e-05,5.1539e+07,231.78,0,2.808e+07,51.779,1091.8,1
3780,1.69,11998,1,11998,1,0.00016091,-4.3887e-11,0,0.00026783,-2.9355e-05,7.3306,-11.085,0,4.3469e+07,-0.7066,11997,13888,1,13888,1,0.00062593,2.5906e-09,0,0.00062593,5.7287e-05,4.7002e+07,445.22,0,1.2367e+08,502.09,13887,11998,1,11998,1,0.00016091,4.1776e-11,0,0.00024111,-2.9337e-05,2.6843e+07,6.9075,0,3.8245e+07,-7.0198,11997,10083,1,10083,1,-0.00030409,-2.731e-09,0,5.9123e-06,-0.00011607,-1.2367e+08,-603.16,0,1.0389e+06,-77.576,10082,11053,1,11053,1,-8.0198e-05,-9.6617e-10,0,0.00012056,-7.4193e-05,-3.2587e+07,-160.42,0,2.7098e+07,-17.288,11052,12943,1,12943,1,0.00040203,8.0855e-10,0,0.00040203,1.546e-05,3.8245e+07,135.91,0,4.5833e+07,1.2061,12942,1091.8,0,1091.8,0,0.00027827,1.3721e-09,0,0.00017772,5.1814e-05,5.1845e+07,203.75,0,2.8247e+07,50.712,1091.8,1
3780,1.7,11998,1,11998,1,0.00016187,-2.8543e-10,0,0.00026941,-2.9529e-05,13.747,-46.928,0,4.3726e+07,-5.4498,11997,13888,1,13888,1,0.00062964,2.859e-09,0,0.00062964,5.7627e-05,4.7281e+07,492.24,0,1.244e+08,541.16,13887,11998,1,11998,1,0.00016187,6.3476e-12,0,0.00024254,-2.951e-05,2.7002e+07,0.55622,0,3.8471e+07,-11.981,11997,10083,1,10083,1,-0.0003059,-3.8286e-09,0,5.9473e-06,-0.00011676,-1.244e+08,-826.8,0,1.0451e+06,-86.912,10082,11053,1,11053,1,-8.0672e-05,-1.3483e-09,0,0.00012127,-7.4632e-05,-3.278e+07,-219.84,0,2.7258e+07,-21.991,11052,12943,1,12943,1,0.0004044,7.7488e-10,0,0.0004044,1.5552e-05,3.8471e+07,129.18,0,4.6105e+07,-3.2786,12942,1091.8,0,1091.8,0,0.00027992,1.6836e-09,0,0.00017877,5.2121e-05,5.2152e+07,251.41,0,2.8414e+07,52.191,1091.8,1
3780,1.71,11998,1,11998,1,0.00016282,-2.1659e-10,0,0.000271,-2.9703e-05,55.26,-36.897,0,4.3983e+07,-5.5039,11997,13888,1,13888,1,0.00063334,2.4843e-09,0,0.00063334,5.7965e-05,4.7558e+07,435.77,0,1.2513e+08,516.5,13887,11998,1,11998,1,0.00016282,-6.3868e-12,0,0.00024396,-2.9684e-05,2.7161e+07,-0.67513,0,3.8697e+07,-12.449,11997,10083,1,10083,1,-0.00030769,-2.938e-09,0,5.9827e-06,-0.00011744,-1.2513e+08,-675.47,0,1.0513e+06,-80.304,10082,11053,1,11053,1,-8.1146e-05,-1.1168e-09,0,0.00012198,-7.5071e-05,-3.2972e+07,-184.54,0,2.7418e+07,-21.963,11052,12943,1,12943,1,0.00040678,6.5381e-10,0,0.00040678,1.5643e-05,3.8697e+07,109.62,0,4.6376e+07,-4.3358,12942,1091.8,0,1091.8,0,0.00028157,1.396e-09,0,0.00017983,5.2428e-05,5.2459e+07,209.02,0,2.8581e+07,51.377,1091.8,1
3780,1.72,11998,1,11998,1,0.00016377,-3.4872e-10,0,0.00027258,-2.9876e-05,12.171,-57.502,0,4.424e+07,0.61266,11997,13888,1,13888,1,0.00063703,1.5448e-09,0,0.00063703,5.8304e-05,4.7836e+07,284.25,0,1.2586e+08,495.45,13887,11998,1,11998,1,0.00016377,-7.1143e-11,0,0.00024539,-2.9857e-05,2.7319e+07,-12.727,0,3.8923e+07,-6.5736,11997,10083,1,10083,1,-0.00030949,-2.7515e-09,0,6.0175e-06,-0.00011813,-1.2586e+08,-670.68,0,1.0574e+06,-57.271,10082,11053,1,11053,1,-8.162e-05,-1.0369e-09,0,0.00012269,-7.5509e-05,-3.3165e+07,-172.67,0,2.7578e+07,-14.351,11052,12943,1,12943,1,0.00040916,3.7229e-10,0,0.00040916,1.5734e-05,3.8923e+07,63.229,0,4.6646e+07,-0.90514,12942,1091.8,0,1091.8,0,0.00028321,1.1133e-09,0,0.00018088,5.2734e-05,5.2765e+07,169.55,0,2.8748e+07,48.507,1091.8,1
3780,1.73,11998,1,11998,1,0.00016472,-1.4918e-10,0,0.00027416,-3.005e-05,8.3166,-27.041,0,4.4497e+07,2.7558,11997,13888,1,13888,1,0.00064073,1.7694e-09,0,0.00064073,5.8642e-05,4.8114e+07,320.98,0,1.2659e+08,496.1,13887,11998,1,11998,1,0.00016472,-1.7245e-11,0,0.00024681,-3.0031e-05,2.7478e+07,-1.4712,0,3.9149e+07,-4.2765,11997,10083,1,10083,1,-0.00031128,-2.2606e-09,0,6.0526e-06,-0.00011881,-1.2659e+08,-559.2,0,1.0636e+06,-58.914,10082,11053,1,11053,1,-8.2094e-05,-8.3893e-10,0,0.00012341,-7.5948e-05,-3.3358e+07,-140.49,0,2.7739e+07,-12.715,11052,12943,1,12943,1,0.00041153,5.158e-10,0,0.00041153,1.5826e-05,3.9149e+07,85.066,0,4.6917e+07,1.4288,12942,1091.8,0,1091.8,0,0.00028485,1.0456e-09,0,0.00018193,5.304e-05,5.3071e+07,157.95,0,2.8915e+07,49.295,1091.8,1
3780,1.74,11998,1,11998,1,0.00016567,-3.1457e-11,0,0.00027575,-3.0223e-05,24.363,-9.7436,0,4.4754e+07,-0.52444,11997,13888,1,13888,1,0.00064444,2.1569e-09,0,0.00064444,5.8981e-05,4.8392e+07,378.78,0,1.2732e+08,510.71,13887,11998,1,11998,1,0.00016567,2.8016e-11,0,0.00024824,-3.0204e-05,2.7637e+07,4.895,0,3.9375e+07,-7.3556,11997,10083,1,10083,1,-0.00031309,-2.4061e-09,0,6.0877e-06,-0.0001195,-1.2732e+08,-553.27,0,1.0698e+06,-72.59,10082,11053,1,11053,1,-8.2569e-05,-8.4205e-10,0,0.00012412,-7.6387e-05,-3.355e+07,-139.04,0,2.7899e+07,-17.288,11052,12943,1,12943,1,0.00041392,7.173e-10,0,0.00041392,1.5917e-05,3.9375e+07,120.7,0,4.7189e+07,-0.32753,12942,1091.8,0,1091.8,0,0.0002865,1.1945e-09,0,0.00018298,5.3346e-05,5.3378e+07,178.03,0,2.9082e+07,51.433,1091.8,1
3780,1.75,11998,1,11998,1,0.00016663,-1.001e-11,0,0.00027734,-3.0397e-05,74.503,-5.7198,0,4.5012e+07,-3.5311,11997,13888,1,13888,1,0.00064815,2.3684e-09,0,0.00064815,5.9321e-05,4.8671e+07,416.94,0,1.2806e+08,515.41,13887,11998,1,11998,1,0.00016663,5.1745e-11,0,0.00024967,-3.0378e-05,2.7796e+07,9.59,0,3.9602e+07,-9.7596,11997,10083,1,10083,1,-0.00031489,-2.4791e-09,0,6.1232e-06,-0.00012019,-1.2806e+08,-572.4,0,1.0761e+06,-81.883,10082,11053,1,11053,1,-8.3044e-05,-8.6314e-10,0,0.00012484,-7.6827e-05,-3.3743e+07,-143.76,0,2.8059e+07,-19.496,11052,12943,1,12943,1,0.0004163,7.7916e-10,0,0.0004163,1.6009e-05,3.9602e+07,129.26,0,4.746e+07,-3.398,12942,1091.8,0,1091.8,0,0.00028815,1.2529e-09,0,0.00018403,5.3654e-05,5.3685e+07,187.4,0,2.9249e+07,51.823,1091.8,1
3780,1.76,11998,1,11998,1,0.00016758,-2.8353e-10,0,0.00027892,-3.0571e-05,18.915,-45.207,0,4.5268e+07,3.6557,11997,13888,1,13888,1,0.00065184,1.3878e-09,0,0.00065184,5.9658e-05,4.8948e+07,267.08,0,1.2879e+08,484.38,13887,11998,1,11998,1,0.00016758,-1.2888e-10,0,0.00025109,-3.0551e-05,2.7954e+07,-21.282,0,3.9827e+07,-4.7635,11997,10083,1,10083,1,-0.00031668,-2.192e-09,0,6.158e-06,-0.00012087,-1.2879e+08,-578.98,0,1.0822e+06,-29.311,10082,11053,1,11053,1,-8.3517e-05,-6.8932e-10,0,0.00012555,-7.7265e-05,-3.3936e+07,-111.62,0,2.8219e+07,-9.8452,11052,12943,1,12943,1,0.00041867,1.2e-10,0,0.00041867,1.61e-05,3.9827e+07,18.921,0,4.7731e+07,-0.25486,12942,1091.8,0,1091.8,0,0.00028979,6.9518e-10,0,0.00018508,5.3959e-05,5.3991e+07,111.56,0,2.9416e+07,45.324,1091.8,1
3780,1.77,11998,1,11998,1,0.00016853,-8.0623e-11,0,0.00028051,-3.0745e-05,21.69,-16.253,0,4.5526e+07,-0.52132,11997,13888,1,13888,1,0.00065556,2.1158e-09,0,0.00065556,5.9999e-05,4.9227e+07,387.61,0,1.2952e+08,544.15,13887,11998,1,11998,1,0.00016853,6.5198e-11,0,0.00025252,-3.0726e-05,2.8114e+07,12.93,0,4.0054e+07,-7.6856,11997,10083,1,10083,1,-0.00031849,-3.2059e-09,0,6.193e-06,-0.00012156,-1.2952e+08,-732.15,0,1.0883e+06,-74.395,10082,11053,1,11053,1,-8.3993e-05,-9.2155e-10,0,0.00012626,-7.7705e-05,-3.4129e+07,-146.44,0,2.838e+07,-17.062,11052,12943,1,12943,1,0.00042106,8.2564e-10,0,0.00042106,1.6192e-05,4.0054e+07,132.05,0,4.8003e+07,0.077352,12942,1091.8,0,1091.8,0,0.00029145,1.3344e-09,0,0.00018613,5.4267e-05,5.4299e+07,201.83,0,2.9584e+07,52.128,1091.8,1
3780,1.78,11998,1,11998,1,0.00016948,-3.3725e-10,0,0.00028209,-3.0918e-05,26.974,-55.912,0,4.5783e+07,-1.0581,11997,13888,1,13888,1,0.00065925,1.8396e-09,0,0.00065925,6.0337e-05,4.9505e+07,331.89,0,1.3025e+08,521.37,13887,11998,1,11998,1,0.00016948,-8.714e-11,0,0.00025395,-3.0899e-05,2.8272e+07,-15.052,0,4.028e+07,-8.9548,11997,10083,1,10083,1,-0.00032028,-2.687e-09,0,6.2281e-06,-0.00012225,-1.3025e+08,-656.63,0,1.0945e+06,-63.165,10082,11053,1,11053,1,-8.4467e-05,-1.0712e-09,0,0.00012697,-7.8143e-05,-3.4322e+07,-177.13,0,2.854e+07,-17.493,11052,12943,1,12943,1,0.00042343,3.9476e-10,0,0.00042343,1.6283e-05,4.028e+07,66.268,0,4.8274e+07,-1.935,12942,1091.8,0,1091.8,0,0.00029309,1.1622e-09,0,0.00018719,5.4573e-05,5.4605e+07,175.94,0,2.9751e+07,51.225,1091.8,1
3780,1.79,11998,1,11998,1,0.00017044,-1.7769e-10,0,0.00028368,-3.1092e-05,28.992,-31.407,0,4.6041e+07,-2.7332,11997,13888,1,13888,1,0.00066296,2.5858e-09,0,0.00066296,6.0677e-05,4.9783e+07,452.82,0,1.3098e+08,542.04,13887,11998,1,11998,1,0.00017043,-2.7188e-12,0,0.00025538,-3.1073e-05,2.8431e+07,-0.1972,0,4.0507e+07,-9.6875,11997,10083,1,10083,1,-0.00032209,-3.0159e-09,0,6.2631e-06,-0.00012294,-1.3098e+08,-664.15,0,1.1007e+06,-82.355,10082,11053,1,11053,1,-8.4942e-05,-1.1186e-09,0,0.00012769,-7.8583e-05,-3.4515e+07,-186.77,0,2.8701e+07,-20.441,11052,12943,1,12943,1,0.00042581,7.1219e-10,0,0.00042581,1.6375e-05,4.0507e+07,119.74,0,4.8545e+07,-1.1823,12942,1091.8,0,1091.8,0,0.00029474,1.4376e-09,0,0.00018824,5.488e-05,5.4912e+07,214.39,0,2.9918e+07,53.929,1091.8,1
3780,1.8,11998,1,11998,1,0.00017139,-2.2413e-11,0,0.00028526,-3.1266e-05,54.869,-7.3407,0,4.6297e+07,1.5941,11997,13888,1,13888,1,0.00066665,1.639e-09,0,0.00066665,6.1014e-05,5.006e+07,306.7,0,1.3171e+08,480.48,13887,11998,1,11998,1,0.00017139,5.5092e-12,0,0.0002568,-3.1246e-05,2.859e+07,0.76986,0,4.0733e+07,-7.3789,11997,10083,1,10083,1,-0.00032388,-1.9377e-09,0,6.2987e-06,-0.00012362,-1.3171e+08,-540.94,0,1.107e+06,-27.984,10082,11053,1,11053,1,-8.5415e-05,-4.6158e-10,0,0.0001284,-7.9021e-05,-3.4707e+07,-74.916,0,2.8861e+07,-13.219,11052,12943,1,12943,1,0.00042819,3.7293e-10,0,0.00042819,1.6466e-05,4.0733e+07,60.189,0,4.8816e+07,-2.9497,12942,1091.8,0,1091.8,0,0.00029638,6.9105e-10,0,0.00018929,5.5186e-05,5.5218e+07,109.61,0,3.0085e+07,45.397,1091.8,1
3780,1.81,11998,1,11998,1,0.00017234,-5.0133e-11,0,0.00028684,-3.1439e-05,10.199,-11.771,0,4.6554e+07,7.027,11997,13888,1,13888,1,0.00067035,1.3631e-09,0,0.00067035,6.1353e-05,5.0338e+07,259.14,0,1.3244e+08,482.98,13887,11998,1,11998,1,0.00017234,-5.4873e-11,0,0.00025823,-3.142e-05,2.8749e+07,-8.3878,0,4.0959e+07,-2.2284,11997,10083,1,10083,1,-0.00032567,-1.7461e-09,0,6.3335e-06,-0.00012431,-1.3244e+08,-512.99,0,1.1131e+06,-19.194,10082,11053,1,11053,1,-8.589e-05,-3.4508e-10,0,0.00012911,-7.946e-05,-3.49e+07,-51.67,0,2.9021e+07,-6.1335,11052,12943,1,12943,1,0.00043057,1.9267e-10,0,0.00043057,1.6557e-05,4.0959e+07,29.577,0,4.9087e+07,1.7229,12942,1091.8,0,1091.8,0,0.00029803,4.9243e-10,0,0.00019034,5.5492e-05,5.5525e+07,82.007,0,3.0252e+07,44.54,1091.8,1
3780,1.82,11998,1,11998,1,0.00017329,-3.7406e-11,0,0.00028842,-3.1613e-05,35.198,-9.1145,0,4.6811e+07,3.7697,11997,13888,1,13888,1,0.00067406,1.3506e-09,0,0.00067406,6.1692e-05,5.0616e+07,262.35,0,1.3317e+08,499.31,13887,11998,1,11998,1,0.00017329,1.6192e-11,0,0.00025965,-3.1593e-05,2.8907e+07,1.9625,0,4.1185e+07,-5.6284,11997,10083,1,10083,1,-0.00032747,-1.8413e-09,0,6.3687e-06,-0.00012499,-1.3317e+08,-519.76,0,1.1193e+06,-31.334,10082,11053,1,11053,1,-8.6364e-05,-4.0194e-10,0,0.00012983,-7.9899e-05,-3.5092e+07,-64.01,0,2.9181e+07,-10.319,11052,12943,1,12943,1,0.00043294,3.1679e-10,0,0.00043294,1.6649e-05,4.1185e+07,49.645,0,4.9358e+07,-1.3746,12942,1091.8,0,1091.8,0,0.00029967,5.9958e-10,0,0.00019139,5.5799e-05,5.5832e+07,96.933,0,3.0419e+07,46.753,1091.8,1
3780,1.83,11998,1,11998,1,0.00017425,-2.9823e-10,0,0.00029002,-3.1787e-05,53.181,-48.717,0,4.7069e+07,-4.5871,11997,13888,1,13888,1,0.00067778,2.6614e-09,0,0.00067778,6.2033e-05,5.0896e+07,466.95,0,1.3391e+08,567.57,13887,11998,1,11998,1,0.00017424,-5.3326e-13,0,0.00026108,-3.1767e-05,2.9067e+07,-0.023056,0,4.1412e+07,-11.347,11997,10083,1,10083,1,-0.00032928,-3.5246e-09,0,6.4036e-06,-0.00012568,-1.3391e+08,-727.57,0,1.1254e+06,-98.359,10082,11053,1,11053,1,-8.6839e-05,-1.31e-09,0,0.00013054,-8.0339e-05,-3.5286e+07,-213.38,0,2.9342e+07,-20.797,11052,12943,1,12943,1,0.00043533,7.0524e-10,0,0.00043533,1.674e-05,4.1412e+07,117.48,0,4.963e+07,-3.4358,12942,1091.8,0,1091.8,0,0.00030132,1.5763e-09,0,0.00019244,5.6107e-05,5.614e+07,236.1,0,3.0587e+07,55.904,1091.8,1
3780,1.84,11998,1,11998,1,0.0001752,-1.6694e-10,0,0.0002916,-3.1961e-05,15.721,-28.188,0,4.7326e+07,0.11915,11997,13888,1,13888,1,0.00068148,2.4121e-09,0,0.00068148,6.2371e-05,5.1174e+07,429.01,0,1.3464e+08,565.38,13887,11998,1,11998,1,0.0001752,4.2327e-11,0,0.00026251,-3.1941e-05,2.9226e+07,5.7504,0,4.1638e+07,-7.7311,11997,10083,1,10083,1,-0.00033108,-2.9907e-09,0,6.4384e-06,-0.00012637,-1.3464e+08,-706.35,0,1.1315e+06,-79.315,10082,11053,1,11053,1,-8.7314e-05,-1.0791e-09,0,0.00013126,-8.0778e-05,-3.5479e+07,-174.03,0,2.9502e+07,-15.487,11052,12943,1,12943,1,0.00043771,7.3044e-10,0,0.00043771,1.6832e-05,4.1638e+07,119.69,0,4.9901e+07,-0.63336,12942,1091.8,0,1091.8,0,0.00030297,1.3904e-09,0,0.0001935,5.6413e-05,5.6446e+07,210.48,0,3.0754e+07,54.235,1091.8,1
3780,1.85,11998,1,11998,1,0.00017615,-6.3833e-11,0,0.00029318,-3.2134e-05,12.771,-15.354,0,4.7583e+07,2.512,11997,13888,1,13888,1,0.00068517,1.7828e-09,0,0.00068517,6.2709e-05,5.1451e+07,309.12,0,1.3537e+08,534.85,13887,11998,1,11998,1,0.00017615,3.0822e-12,0,0.00026393,-3.2114e-05,2.9384e+07,0.86862,0,4.1863e+07,-5.2453,11997,10083,1,10083,1,-0.00033287,-2.2549e-09,0,6.4735e-06,-0.00012706,-1.3537e+08,-591.59,0,1.1377e+06,-60.19,10082,11053,1,11053,1,-8.7787e-05,-7.8868e-10,0,0.00013197,-8.1216e-05,-3.5671e+07,-128.19,0,2.9662e+07,-14.899,11052,12943,1,12943,1,0.00044008,6.2592e-10,0,0.00044008,1.6923e-05,4.1863e+07,104.33,0,5.0172e+07,1.3757,12942,1091.8,0,1091.8,0,0.00030461,1.0708e-09,0,0.00019454,5.6719e-05,5.6752e+07,161.58,0,3.092e+07,53,1091.8,1
3780,1.86,11998,1,11998,1,0.0001771,-3.6411e-10,0,0.00029477,-3.2308e-05,18.674,-58.639,0,4.784e+07,1.9688,11997,13888,1,13888,1,0.00068888,1.8945e-09,0,0.00068888,6.3048e-05,5.1729e+07,338.51,0,1.361e+08,551.88,13887,11998,1,11998,1,0.0001771,-4.6645e-11,0,0.00026536,-3.2287e-05,2.9543e+07,-6.1802,0,4.209e+07,-4.9776,11997,10083,1,10083,1,-0.00033467,-3.0635e-09,0,6.5086e-06,-0.00012774,-1.361e+08,-665.57,0,1.1439e+06,-75.224,10082,11053,1,11053,1,-8.8261e-05,-1.1386e-09,0,0.00013268,-8.1655e-05,-3.5864e+07,-190.48,0,2.9823e+07,-14.881,11052,12943,1,12943,1,0.00044246,4.4347e-10,0,0.00044246,1.7015e-05,4.209e+07,74.538,0,5.0443e+07,1.4942,12942,1091.8,0,1091.8,0,0.00030626,1.2445e-09,0,0.0001956,5.7025e-05,5.7059e+07,188.31,0,3.1088e+07,54.147,1091.8,1
3780,1.87,11998,1,11998,1,0.00017805,-2.7904e-10,0,0.00029635,-3.2482e-05,85.419,-46.776,0,4.8098e+07,-2.2941,11997,13888,1,13888,1,0.00069259,1.846e-09,0,0.00069259,6.3388e-05,5.2008e+07,338.99,0,1.3684e+08,492.61,13887,11998,1,11998,1,0.00017805,-1.9552e-10,0,0.00026679,-3.2462e-05,2.9702e+07,-31.702,0,4.2316e+07,-10.233,11997,10083,1,10083,1,-0.00033648,-2.6541e-09,0,6.5446e-06,-0.00012843,-1.3684e+08,-674.62,0,1.1503e+06,-37.813,10082,11053,1,11053,1,-8.8737e-05,-7.5037e-10,0,0.00013339,-8.2095e-05,-3.6057e+07,-113.89,0,2.9983e+07,-16.346,11052,12943,1,12943,1,0.00044484,1.3541e-10,0,0.00044484,1.7106e-05,4.2316e+07,20.969,0,5.0715e+07,-4.5686,12942,1091.8,0,1091.8,0,0.00030791,8.0283e-10,0,0.00019665,5.7333e-05,5.7366e+07,128.35,0,3.1255e+07,46.444,1091.8,1
3780,1.88,11998,1,11998,1,0.00017901,9.7963e-11,0,0.00029794,-3.2656e-05,8.2717,10.105,0,4.8355e+07,1.9871,11997,13888,1,13888,1,0.00069629,2.2659e-09,0,0.00069629,6.3727e-05,5.2286e+07,401.91,0,1.3757e+08,544.67,13887,11998,1,11998,1,0.000179,7.9796e-11,0,0.00026822,-3.2635e-05,2.9861e+07,17.559,0,4.2542e+07,-5.9029,11997,10083,1,10083,1,-0.00033828,-2.1649e-09,0,6.5789e-06,-0.00012912,-1.3757e+08,-580.87,0,1.1563e+06,-66.176,10082,11053,1,11053,1,-8.9211e-05,-7.0789e-10,0,0.00013411,-8.2534e-05,-3.625e+07,-113.12,0,3.0144e+07,-14.733,11052,12943,1,12943,1,0.00044722,8.3441e-10,0,0.00044722,1.7198e-05,4.2542e+07,135.64,0,5.0986e+07,0.62914,12942,1091.8,0,1091.8,0,0.00030955,1.1521e-09,0,0.0001977,5.7639e-05,5.7673e+07,173.2,0,3.1422e+07,53.619,1091.8,1
3780,1.89,11998,1,11998,1,0.00017996,-2.5215e-10,0,0.00029952,-3.2829e-05,8.1402,-41.703,0,4.8612e+07,1.9037,11997,13888,1,13888,1,0.00069999,1.842e-09,0,0.00069999,6.4066e-05,5.2564e+07,338.37,0,1.383e+08,567.88,13887,11998,1,11998,1,0.00017996,-3.3224e-12,0,0.00026964,-3.2809e-05,3.002e+07,-0.28636,0,4.2769e+07,-6.2029,11997,10083,1,10083,1,-0.00034007,-2.7528e-09,0,6.6138e-06,-0.0001298,-1.383e+08,-648.22,0,1.1624e+06,-71.236,10082,11053,1,11053,1,-8.9685e-05,-1.0077e-09,0,0.00013482,-8.2973e-05,-3.6442e+07,-164.88,0,3.0304e+07,-14.406,11052,12943,1,12943,1,0.0004496,5.109e-10,0,0.0004496,1.7289e-05,4.2769e+07,84.861,0,5.1257e+07,-0.080544,12942,1091.8,0,1091.8,0,0.0003112,1.1857e-09,0,0.00019875,5.7946e-05,5.798e+07,179.7,0,3.1589e+07,55.259,1091.8,1
3780,1.9,11998,1,11998,1,0.00018091,-9.4693e-11,0,0.0003011,-3.3003e-05,9.5769,-19.683,0,4.8869e+07,2.6463,11997,13888,1,13888,1,0.00070369,1.7515e-09,0,0.00070369,6.4404e-05,5.2842e+07,320.02,0,1.3903e+08,537.7,13887,11998,1,11998,1,0.00018091,-4.4555e-12,0,0.00027107,-3.2982e-05,3.0178e+07,-0.51735,0,4.2995e+07,-5.6748,11997,10083,1,10083,1,-0.00034187,-2.2842e-09,0,6.6491e-06,-0.00013049,-1.3903e+08,-608.79,0,1.1686e+06,-53.269,10082,11053,1,11053,1,-9.016e-05,-7.6113e-10,0,0.00013553,-8.3411e-05,-3.6635e+07,-125.47,0,3.0464e+07,-13.032,11052,12943,1,12943,1,0.00045198,5.3737e-10,0,0.00045198,1.7381e-05,4.2995e+07,88.671,0,5.1528e+07,-0.55709,12942,1091.8,0,1091.8,0,0.00031285,9.9997e-10,0,0.0001998,5.8252e-05,5.8286e+07,152.3,0,3.1756e+07,52.184,1091.8,1
3780,1.91,11998,1,11998,1,0.00018186,-1.6792e-10,0,0.00030269,-3.3176e-05,47.363,-29.087,0,4.9126e+07,1.8117,11997,13888,1,13888,1,0.00070739,1.437e-09,0,0.00070739,6.4742e-05,5.3119e+07,274.64,0,1.3976e+08,525.91,13887,11998,1,11998,1,0.00018186,-3.1352e-11,0,0.00027249,-3.3156e-05,3.0337e+07,-4.2939,0,4.3221e+07,-8.0313,11997,10083,1,10083,1,-0.00034367,-2.0299e-09,0,6.6845e-06,-0.00013118,-1.3976e+08,-565,0,1.1749e+06,-41.715,10082,11053,1,11053,1,-9.0633e-05,-6.4478e-10,0,0.00013625,-8.385e-05,-3.6827e+07,-106.56,0,3.0624e+07,-13.413,11052,12943,1,12943,1,0.00045435,3.0143e-10,0,0.00045435,1.7472e-05,4.3221e+07,48.401,0,5.1799e+07,-3.0266,12942,1091.8,0,1091.8,0,0.00031449,7.5566e-10,0,0.00020085,5.8558e-05,5.8592e+07,118.74,0,3.1923e+07,50.244,1091.8,1
3780,1.92,11998,1,11998,1,0.00018282,-2.0478e-10,0,0.00030428,-3.3351e-05,16.971,-35.643,0,4.9384e+07,-0.42172,11997,13888,1,13888,1,0.00071111,2.2014e-09,0,0.00071111,6.5083e-05,5.3399e+07,393.79,0,1.4049e+08,558.16,13887,11998,1,11998,1,0.00018281,-1.1596e-11,0,0.00027392,-3.333e-05,3.0496e+07,-1.0657,0,4.3448e+07,-8.715,11997,10083,1,10083,1,-0.00034547,-2.9534e-09,0,6.7193e-06,-0.00013187,-1.4049e+08,-723.24,0,1.181e+06,-62.192,10082,11053,1,11053,1,-9.1109e-05,-9.9389e-10,0,0.00013696,-8.429e-05,-3.7021e+07,-163.36,0,3.0785e+07,-17.421,11052,12943,1,12943,1,0.00045674,5.6118e-10,0,0.00045674,1.7564e-05,4.3448e+07,93.851,0,5.2071e+07,-2.1753,12942,1091.8,0,1091.8,0,0.00031614,1.236e-09,0,0.00020191,5.8866e-05,5.89e+07,188.11,0,3.2091e+07,53.82,1091.8,1
3780,1.93,11998,1,11998,1,0.00018377,-2.0418e-10,0,0.00030586,-3.3524e-05,16.777,-34.941,0,4.964e+07,2.1671,11997,13888,1,13888,1,0.0007148,1.6365e-09,0,0.0007148,6.5421e-05,5.3676e+07,304.54,0,1.4122e+08,554.8,13887,11998,1,11998,1,0.00018376,-1.0923e-11,0,0.00027535,-3.3503e-05,3.0655e+07,-1.0957,0,4.3673e+07,-6.6944,11997,10083,1,10083,1,-0.00034727,-2.4587e-09,0,6.7543e-06,-0.00013255,-1.4122e+08,-637.02,0,1.1872e+06,-56.308,10082,11053,1,11053,1,-9.1582e-05,-8.4886e-10,0,0.00013767,-8.4728e-05,-3.7213e+07,-140.71,0,3.0945e+07,-13.405,11052,12943,1,12943,1,0.00045911,4.4451e-10,0,0.00045911,1.7655e-05,4.3673e+07,73.058,0,5.2341e+07,-1.2567,12942,1091.8,0,1091.8,0,0.00031778,1.0122e-09,0,0.00020296,5.9171e-05,5.9206e+07,155.35,0,3.2257e+07,53.316,1091.8,1
3780,1.94,11998,1,11998,1,0.00018472,-8.839e-11,0,0.00030745,-3.3698e-05,13.995,-17.982,0,4.9898e+07,3.678,11997,13888,1,13888,1,0.00071851,2.1212e-09,0,0.00071851,6.576e-05,5.3955e+07,383.18,0,1.4196e+08,524.62,13887,11998,1,11998,1,0.00018472,-3.3241e-11,0,0.00027678,-3.3677e-05,3.0814e+07,-3.8569,0,4.39e+07,-5.7613,11997,10083,1,10083,1,-0.00034907,-2.3355e-09,0,6.7898e-06,-0.00013324,-1.4196e+08,-633.54,0,1.1934e+06,-31.07,10082,11053,1,11053,1,-9.2058e-05,-6.6796e-10,0,0.00013839,-8.5169e-05,-3.7406e+07,-109.22,0,3.1106e+07,-12.884,11052,12943,1,12943,1,0.0004615,4.2207e-10,0,0.0004615,1.7747e-05,4.39e+07,69.16,0,5.2613e+07,-0.055462,12942,1091.8,0,1091.8,0,0.00031944,9.0361e-10,0,0.00020401,5.9479e-05,5.9514e+07,140.87,0,3.2425e+07,49.289,1091.8,1
3780,1.95,11998,1,11998,1,0.00018567,-1.0408e-10,0,0.00030903,-3.3871e-05,7.1937,-20.5,0,5.0154e+07,5.0164,11997,13888,1,13888,1,0.0007222,1.4709e-09,0,0.0007222,6.6098e-05,5.4232e+07,280.06,0,1.4269e+08,548.78,13887,11998,1,11998,1,0.00018567,-5.9827e-12,0,0.0002782,-3.385e-05,3.0972e+07,-0.64075,0,4.4125e+07,-4.7014,11997,10083,1,10083,1,-0.00035086,-2.1399e-09,0,6.8245e-06,-0.00013392,-1.4269e+08,-590.74,0,1.1995e+06,-41.811,10082,11053,1,11053,1,-9.2531e-05,-6.6098e-10,0,0.0001391,-8.5606e-05,-3.7599e+07,-109.06,0,3.1265e+07,-10.492,11052,12943,1,12943,1,0.00046387,4.3771e-10,0,0.00046387,1.7838e-05,4.4125e+07,70.707,0,5.2884e+07,0.32606,12942,1091.8,0,1091.8,0,0.00032108,8.5291e-10,0,0.00020506,5.9784e-05,5.9819e+07,132.36,0,3.2591e+07,52.778,1091.8,1
3780,1.96,11998,1,11998,1,0.00018662,-2.8652e-10,0,0.00031061,-3.4045e-05,43.52,-48.443,0,5.0412e+07,0.81087,11997,13888,1,13888,1,0.00072591,1.3588e-09,0,0.00072591,6.6437e-05,5.451e+07,259.29,0,1.4342e+08,552.6,13887,11998,1,11998,1,0.00018662,-6.5025e-11,0,0.00027963,-3.4024e-05,3.1131e+07,-12.109,0,4.4352e+07,-8.7276,11997,10083,1,10083,1,-0.00035266,-2.422e-09,0,6.8599e-06,-0.00013461,-1.4342e+08,-632.09,0,1.2058e+06,-52.383,10082,11053,1,11053,1,-9.3005e-05,-8.7464e-10,0,0.00013981,-8.6045e-05,-3.7791e+07,-145.87,0,3.1426e+07,-15.272,11052,12943,1,12943,1,0.00046625,3.259e-10,0,0.00046625,1.7929e-05,4.4352e+07,53.877,0,5.3155e+07,-2.9149,12942,1091.8,0,1091.8,0,0.00032272,9.421e-10,0,0.00020611,6.0091e-05,6.0126e+07,145.03,0,3.2759e+07,53.517,1091.8,1
3780,1.97,11998,1,11998,1,0.00018758,-3.7036e-10,0,0.0003122,-3.4219e-05,31.358,-60.263,0,5.0669e+07,0.21724,11997,13888,1,13888,1,0.00072962,1.7153e-09,0,0.00072962,6.6777e-05,5.4789e+07,323.46,0,1.4415e+08,584.11,13887,11998,1,11998,1,0.00018757,-3.125e-11,0,0.00028105,-3.4197e-05,3.129e+07,-4.0876,0,4.4578e+07,-7.7711,11997,10083,1,10083,1,-0.00035447,-3.0937e-09,0,6.8948e-06,-0.0001353,-1.4415e+08,-730.13,0,1.2119e+06,-80.025,10082,11053,1,11053,1,-9.348e-05,-1.1717e-09,0,0.00014053,-8.6485e-05,-3.7984e+07,-194.03,0,3.1586e+07,-15.607,11052,12943,1,12943,1,0.00046863,4.7991e-10,0,0.00046863,1.8021e-05,4.4578e+07,80.913,0,5.3426e+07,-1.6428,12942,1091.8,0,1091.8,0,0.00032437,1.2921e-09,0,0.00020717,6.0398e-05,6.0433e+07,196.12,0,3.2926e+07,56.995,1091.8,1
3780,1.98,11998,1,11998,1,0.00018853,-1.5714e-10,0,0.00031378,-3.4393e-05,16.219,-28.425,0,5.0926e+07,2.8689,11997,13888,1,13888,1,0.00073333,2.1066e-09,0,0.00073333,6.7116e-05,5.5067e+07,379.6,0,1.4488e+08,562.92,13887,11998,1,11998,1,0.00018853,-2.0092e-11,0,0.00028248,-3.4371e-05,3.1449e+07,-1.7188,0,4.4805e+07,-5.2385,11997,10083,1,10083,1,-0.00035627,-2.4325e-09,0,6.9299e-06,-0.00013598,-1.4488e+08,-629.33,0,1.2181e+06,-61.937,10082,11053,1,11053,1,-9.3955e-05,-9.1428e-10,0,0.00014124,-8.6924e-05,-3.8177e+07,-153.52,0,3.1747e+07,-15.275,11052,12943,1,12943,1,0.00047101,5.5852e-10,0,0.00047101,1.8112e-05,4.4805e+07,92.503,0,5.3698e+07,1.108,12942,1091.8,0,1091.8,0,0.00032602,1.1486e-09,0,0.00020822,6.0705e-05,6.074e+07,174.05,0,3.3093e+07,55.531,1091.8,1
3780,1.99,11998,1,11998,1,0.00018948,-1.4453e-10,0,0.00031537,-3.4566e-05,49.087,-25.745,0,5.1183e+07,-0.59715,11997,13888,1,13888,1,0.00073702,1.8433e-09,0,0.00073702,6.7454e-05,5.5345e+07,341.1,0,1.4561e+08,570.53,13887,11998,1,11998,1,0.00018948,1.0778e-11,0,0.00028391,-3.4545e-05,3.1608e+07,1.0563,0,4.5031e+07,-9.4082,11997,10083,1,10083,1,-0.00035806,-2.3261e-09,0,6.9653e-06,-0.00013667,-1.4561e+08,-600.41,0,1.2244e+06,-69.52,10082,11053,1,11053,1,-9.4429e-05,-8.3912e-10,0,0.00014195,-8.7362e-05,-3.837e+07,-140.7,0,3.1907e+07,-17.103,11052,12943,1,12943,1,0.00047339,5.316e-10,0,0.00047339,1.8204e-05,4.5031e+07,87.493,0,5.3969e+07,-3.201,12942,1091.8,0,1091.8,0,0.00032766,1.0627e-09,0,0.00020927,6.1011e-05,6.1046e+07,161.62,0,3.326e+07,55.623,1091.8,1
3780,2,11998,1,11998,1,0.00019043,-3.3045e-10,0,0.00031695,-3.474e-05,20.691,-54.733,0,5.144e+07,2.4208,11997,13888,1,13888,1,0.00074073,1.6118e-09,0,0.00074073,6.7793e-05,5.5622e+07,299.19,0,1.4635e+08,568.14,13887,11998,1,11998,1,0.00019043,-1.007e-10,0,0.00028533,-3.4718e-05,3.1767e+07,-18.568,0,4.5257e+07,-7.0405,11997,10083,1,10083,1,-0.00035986,-2.5628e-09,0,7.0001e-06,-0.00013736,-1.4635e+08,-663.72,0,1.2305e+06,-49.138,10082,11053,1,11053,1,-9.4903e-05,-9.3039e-10,0,0.00014267,-8.7801e-05,-3.8562e+07,-154.12,0,3.2067e+07,-15.535,11052,12943,1,12943,1,0.00047576,2.8175e-10,0,0.00047576,1.8295e-05,4.5257e+07,47.813,0,5.424e+07,-1.1961,12942,1091.8,0,1091.8,0,0.00032931,9.8361e-10,0,0.00021032,6.1317e-05,6.1353e+07,151.55,0,3.3427e+07,54.694,1091.8,1
3780,2.01,11998,1,11998,1,0.00019138,-4.6629e-11,0,0.00031854,-3.4914e-05,50.807,-11.542,0,5.1698e+07,-0.36202,11997,13888,1,13888,1,0.00074443,1.8997e-09,0,0.00074443,6.8132e-05,5.5901e+07,349.27,0,1.4708e+08,574.29,13887,11998,1,11998,1,0.00019138,2.4473e-11,0,0.00028676,-3.4892e-05,3.1926e+07,4.8459,0,4.5483e+07,-10.472,11997,10083,1,10083,1,-0.00036166,-2.2858e-09,0,7.0355e-06,-0.00013804,-1.4708e+08,-608.25,0,1.2367e+06,-54.816,10082,11053,1,11053,1,-9.5378e-05,-6.8347e-10,0,0.00014338,-8.8241e-05,-3.8755e+07,-111.9,0,3.2228e+07,-17.462,11052,12943,1,12943,1,0.00047814,5.5501e-10,0,0.00047814,1.8387e-05,4.5483e+07,88.962,0,5.4511e+07,-3.599,12942,1091.8,0,1091.8,0,0.00033096,9.6614e-10,0,0.00021137,6.1624e-05,6.166e+07,148.36,0,3.3594e+07,55.142,1091.8,1
3780,2.02,11998,1,11998,1,0.00019233,-1.6403e-10,0,0.00032012,-3.5087e-05,28.81,-29.125,0,5.1954e+07,5.4558,11997,13888,1,13888,1,0.00074812,1.6795e-09,0,0.00074812,6.847e-05,5.6178e+07,221.08,0,1.4781e+08,555.14,13887,11998,1,11998,1,0.00019233,-5.1067e-11,0,0.00028818,-3.5065e-05,3.2084e+07,-8.1939,0,4.5709e+07,-5.7369,11997,10083,1,10083,1,-0.00036345,-1.9012e-09,0,7.0705e-06,-0.00013873,-1.4781e+08,-554.83,0,1.2429e+06,-26.765,10082,11053,1,11053,1,-9.5851e-05,-5.2029e-10,0,0.00014409,-8.8678e-05,-3.8948e+07,-84.95,0,3.2388e+07,-10.526,11052,12943,1,12943,1,0.00048052,1.9348e-10,0,0.00048052,1.8478e-05,4.5709e+07,31.203,0,5.4782e+07,-1.5986,12942,1091.8,0,1091.8,0,0.0003326,5.9274e-10,0,0.00021242,6.193e-05,6.1966e+07,95.898,0,3.3761e+07,52.56,1091.8,1
3780,2.03,11998,1,11998,1,0.00019329,-5.0317e-11,0,0.00032171,-3.5261e-05,40.616,-11.922,0,5.2212e+07,1.7113,11997,13888,1,13888,1,0.00075184,1.9869e-09,0,0.00075184,6.881e-05,5.6457e+07,362.09,0,1.4854e+08,582.45,13887,11998,1,11998,1,0.00019329,2.8467e-11,0,0.00028961,-3.5239e-05,3.2243e+07,3.8604,0,4.5935e+07,-8.4064,11997,10083,1,10083,1,-0.00036526,-2.2986e-09,0,7.1057e-06,-0.00013942,-1.4854e+08,-608.15,0,1.2491e+06,-56.761,10082,11053,1,11053,1,-9.6326e-05,-7.3172e-10,0,0.00014481,-8.9118e-05,-3.9141e+07,-118.37,0,3.2548e+07,-14.643,11052,12943,1,12943,1,0.0004829,5.8918e-10,0,0.0004829,1.8569e-05,4.5935e+07,94.598,0,5.5053e+07,-2.0955,12942,1091.8,0,1091.8,0,0.00033425,1.0197e-09,0,0.00021347,6.2237e-05,6.2273e+07,155.8,0,3.3929e+07,55.996,1091.8,1
3780,2.04,11998,1,11998,1,0.00019424,-1.5479e-10,0,0.00032329,-3.5435e-05,36.19,-27.673,0,5.2469e+07,1.7075,11997,13888,1,13888,1,0.00075554,1.9604e-09,0,0.00075554,6.9149e-05,5.6735e+07,361.12,0,1.4927e+08,593.38,13887,11998,1,11998,1,0.00019424,3.9235e-12,0,0.00029104,-3.5413e-05,3.2402e+07,0.33272,0,4.6162e+07,-7.5638,11997,10083,1,10083,1,-0.00036706,-2.4428e-09,0,7.1407e-06,-0.0001401,-1.4927e+08,-637.81,0,1.2552e+06,-64.514,10082,11053,1,11053,1,-9.6801e-05,-8.7016e-10,0,0.00014552,-8.9558e-05,-3.9333e+07,-142.69,0,3.2709e+07,-15.862,11052,12943,1,12943,1,0.00048528,5.3785e-10,0,0.00048528,1.8661e-05,4.6162e+07,88.001,0,5.5325e+07,-1.1589,12942,1091.8,0,1091.8,0,0.0003359,1.0988e-09,0,0.00021453,6.2544e-05,6.258e+07,167.51,0,3.4096e+07,57.357,1091.8,1
3780,2.05,11998,1,11998,1,0.00019519,-2.3985e-10,0,0.00032487,-3.5608e-05,52.357,-40.589,0,5.2726e+07,1.0688,11997,13888,1,13888,1,0.00075924,1.5584e-09,0,0.00075924,6.9488e-05,5.7013e+07,294.17,0,1.5e+08,584.89,13887,11998,1,11998,1,0.00019519,-2.5645e-11,0,0.00029247,-3.5586e-05,3.2561e+07,-3.4161,0,4.6388e+07,-8.9574,11997,10083,1,10083,1,-0.00036886,-2.3885e-09,0,7.176e-06,-0.00014079,-1.5e+08,-633.76,0,1.2615e+06,-59.923,10082,11053,1,11053,1,-9.7275e-05,-8.5229e-10,0,0.00014623,-8.9996e-05,-3.9526e+07,-141.19,0,3.2869e+07,-15.237,11052,12943,1,12943,1,0.00048766,3.8938e-10,0,0.00048766,1.8752e-05,4.6388e+07,63,0,5.5596e+07,-3.0925,12942,1091.8,0,1091.8,0,0.00033754,9.7414e-10,0,0.00021558,6.285e-05,6.2887e+07,149.95,0,3.4263e+07,56.596,1091.8,1
3780,2.06,11998,1,11998,1,0.00019615,-2.2635e-10,0,0.00032646,-3.5782e-05,20.871,-38.861,0,5.2984e+07,1.7755,11997,13888,1,13888,1,0.00076295,1.9351e-09,0,0.00076295,6.9827e-05,5.7291e+07,354.29,0,1.5074e+08,599.55,13887,11998,1,11998,1,0.00019614,-3.0924e-11,0,0.00029389,-3.576e-05,3.272e+07,-3.4036,0,4.6614e+07,-7.6297,11997,10083,1,10083,1,-0.00037066,-2.6328e-09,0,7.2108e-06,-0.00014148,-1.5074e+08,-668.09,0,1.2676e+06,-61.057,10082,11053,1,11053,1,-9.775e-05,-9.4438e-10,0,0.00014695,-9.0436e-05,-3.9719e+07,-156.55,0,3.3029e+07,-16.472,11052,12943,1,12943,1,0.00049004,4.8233e-10,0,0.00049004,1.8844e-05,4.6614e+07,78.396,0,5.5867e+07,-1.013,12942,1091.8,0,1091.8,0,0.00033919,1.1269e-09,0,0.00021663,6.3157e-05,6.3194e+07,171.67,0,3.443e+07,57.816,1091.8,1
3780,2.07,11998,1,11998,1,0.0001971,-1.0738e-10,0,0.00032804,-3.5956e-05,6.1613,-20.057,0,5.3241e+07,4.6844,11997,13888,1,13888,1,0.00076665,1.9247e-09,0,0.00076665,7.0166e-05,5.7569e+07,356.55,0,1.5147e+08,598.05,13887,11998,1,11998,1,0.00019709,2.0554e-11,0,0.00029532,-3.5933e-05,3.2879e+07,1.8736,0,4.684e+07,-4.8241,11997,10083,1,10083,1,-0.00037246,-2.205e-09,0,7.2458e-06,-0.00014216,-1.5147e+08,-599.18,0,1.2737e+06,-59.711,10082,11053,1,11053,1,-9.8224e-05,-7.8354e-10,0,0.00014766,-9.0874e-05,-3.9912e+07,-129.18,0,3.3189e+07,-13.42,11052,12943,1,12943,1,0.00049242,5.4374e-10,0,0.00049242,1.8935e-05,4.684e+07,87.546,0,5.6138e+07,1.1296,12942,1091.8,0,1091.8,0,0.00034084,1.0239e-09,0,0.00021768,6.3463e-05,6.35e+07,156.59,0,3.4597e+07,58.101,1091.8,1
3780,2.08,11998,1,11998,1,0.00019805,-1.782e-10,0,0.00032963,-3.613e-05,17.35,-31.805,0,5.3498e+07,3.1723,11997,13888,1,13888,1,0.00077036,1.9145e-09,0,0.00077036,7.0505e-05,5.7848e+07,352.28,0,1.522e+08,571.96,13887,11998,1,11998,1,0.00019805,-5.2366e-11,0,0.00029675,-3.6107e-05,3.3038e+07,-6.7176,0,4.7067e+07,-6.5547,11997,10083,1,10083,1,-0.00037426,-2.7287e-09,0,7.2813e-06,-0.00014285,-1.522e+08,-710.67,0,1.28e+06,-31.11,10082,11053,1,11053,1,-9.8699e-05,-7.2669e-10,0,0.00014837,-9.1314e-05,-4.0105e+07,-116.19,0,3.335e+07,-15.028,11052,12943,1,12943,1,0.0004948,3.4232e-10,0,0.0004948,1.9027e-05,4.7067e+07,55.979,0,5.641e+07,-1.3069,12942,1091.8,0,1091.8,0,0.00034249,9.1053e-10,0,0.00021873,6.3771e-05,6.3808e+07,143.86,0,3.4764e+07,53.673,1091.8,1
3780,2.09,11998,1,11998,1,0.000199,-4.3369e-10,0,0.00033122,-3.6304e-05,12.421,-69.881,0,5.3756e+07,2.2709,11997,13888,1,13888,1,0.00077407,1.6019e-09,0,0.00077407,7.0844e-05,5.8126e+07,306.81,0,1.5293e+08,603.45,13887,11998,1,11998,1,0.000199,-9.8516e-11,0,0.00029818,-3.6281e-05,3.3197e+07,-16.283,0,4.7293e+07,-7.2321,11997,10083,1,10083,1,-0.00037606,-3.5403e-09,0,7.3163e-06,-0.00014354,-1.5293e+08,-838.45,0,1.2862e+06,-45.596,10082,11053,1,11053,1,-9.9174e-05,-1.0456e-09,0,0.00014909,-9.1753e-05,-4.0298e+07,-166.53,0,3.351e+07,-15.986,11052,12943,1,12943,1,0.00049718,2.535e-10,0,0.00049718,1.9118e-05,4.7293e+07,42.866,0,5.6681e+07,-0.98837,12942,1091.8,0,1091.8,0,0.00034413,1.1045e-09,0,0.00021979,6.4077e-05,6.4114e+07,173.46,0,3.4932e+07,56.255,1091.8,1
3780,2.1,11998,1,11998,1,0.00019995,-2.9316e-10,0,0.0003328,-3.6477e-05,32.281,-48.772,0,5.4012e+07,1.7909,11997,13888,1,13888,1,0.00077777,2.0064e-09,0,0.00077777,7.1183e-05,5.8404e+07,364.31,0,1.5366e+08,599.1,13887,11998,1,11998,1,0.00019995,-7.1252e-11,0,0.0002996,-3.6454e-05,3.3355e+07,-11.696,0,4.7519e+07,-7.5701,11997,10083,1,10083,1,-0.00037786,-2.6751e-09,0,7.3515e-06,-0.00014423,-1.5366e+08,-687.75,0,1.2924e+06,-61.459,10082,11053,1,11053,1,-9.9647e-05,-1.0172e-09,0,0.0001498,-9.2192e-05,-4.049e+07,-168.69,0,3.367e+07,-16.674,11052,12943,1,12943,1,0.00049955,4.2461e-10,0,0.00049955,1.921e-05,4.7519e+07,69.693,0,5.6952e+07,-1.6035,12942,1091.8,0,1091.8,0,0.00034578,1.1484e-09,0,0.00022084,6.4384e-05,6.4421e+07,175.3,0,3.5099e+07,58.086,1091.8,1
3780,2.11,11998,1,11998,1,0.0002009,-2.5485e-10,0,0.00033438,-3.665e-05,11.422,-43.031,0,5.4269e+07,7.1696,11997,13888,1,13888,1,0.00078146,1.557e-09,0,0.00078146,7.1521e-05,5.8681e+07,239,0,1.5439e+08,579.75,13887,11998,1,11998,1,0.0002009,-1.0557e-10,0,0.00030102,-3.6628e-05,3.3514e+07,-19.142,0,4.7744e+07,-4.2428,11997,10083,1,10083,1,-0.00037965,-2.1398e-09,0,7.3865e-06,-0.00014491,-1.5439e+08,-607.32,0,1.2986e+06,-26.907,10082,11053,1,11053,1,-0.00010012,-6.5609e-10,0,0.00015051,-9.263e-05,-4.0683e+07,-107.32,0,3.383e+07,-9.7807,11052,12943,1,12943,1,0.00050193,1.5917e-10,0,0.00050193,1.9301e-05,4.7744e+07,24.595,0,5.7223e+07,-0.17262,12942,1091.8,0,1091.8,0,0.00034742,6.6644e-10,0,0.00022188,6.4689e-05,6.4727e+07,107.39,0,3.5265e+07,54.925,1091.8,1
3780,2.12,11998,1,11998,1,0.00020186,-2.5089e-10,0,0.00033597,-3.6824e-05,24.47,-43.433,0,5.4526e+07,3.9997,11997,13888,1,13888,1,0.00078517,1.3573e-09,0,0.00078517,7.186e-05,5.896e+07,267.23,0,1.5513e+08,598.52,13887,11998,1,11998,1,0.00020186,-5.6091e-11,0,0.00030245,-3.6801e-05,3.3673e+07,-9.3749,0,4.7971e+07,-6.9474,11997,10083,1,10083,1,-0.00038145,-2.562e-09,0,7.4217e-06,-0.0001456,-1.5513e+08,-671.97,0,1.3048e+06,-46.823,10082,11053,1,11053,1,-0.0001006,-8.1923e-10,0,0.00015123,-9.3069e-05,-4.0875e+07,-135.71,0,3.3991e+07,-14.63,11052,12943,1,12943,1,0.00050431,3.3955e-10,0,0.00050431,1.9392e-05,4.7971e+07,55.312,0,5.7494e+07,-0.20434,12942,1091.8,0,1091.8,0,0.00034907,9.1754e-10,0,0.00022294,6.4996e-05,6.5034e+07,142.68,0,3.5433e+07,57.658,1091.8,1
3780,2.13,11998,1,11998,1,0.00020281,-2.7486e-10,0,0.00033755,-3.6998e-05,28.612,-45.853,0,5.4784e+07,3.5647,11997,13888,1,13888,1,0.00078887,1.5192e-09,0,0.00078887,7.2199e-05,5.9238e+07,290.9,0,1.5586e+08,613.99,13887,11998,1,11998,1,0.00020281,-4.5965e-11,0,0.00030388,-3.6975e-05,3.3832e+07,-7.0803,0,4.8197e+07,-6.9399,11997,10083,1,10083,1,-0.00038325,-2.4345e-09,0,7.4568e-06,-0.00014629,-1.5586e+08,-649.54,0,1.3109e+06,-57.665,10082,11053,1,11053,1,-0.00010107,-8.8334e-10,0,0.00015194,-9.3509e-05,-4.1068e+07,-147.28,0,3.4151e+07,-14.231,11052,12943,1,12943,1,0.00050669,3.526e-10,0,0.00050669,1.9484e-05,4.8197e+07,58.081,0,5.7765e+07,-0.9728,12942,1091.8,0,1091.8,0,0.00035071,9.7863e-10,0,0.00022399,6.5303e-05,6.534e+07,150.99,0,3.56e+07,59.202,1091.8,1
3780,2.14,11998,1,11998,1,0.00020376,-1.6957e-10,0,0.00033914,-3.7172e-05,3.6117,-30.167,0,5.504e+07,7.2365,11997,13888,1,13888,1,0.00079257,1.5963e-09,0,0.00079257,7.2538e-05,5.9516e+07,298.66,0,1.5659e+08,607.63,13887,11998,1,11998,1,0.00020376,-1.4927e-11,0,0.0003053,-3.7148e-05,3.399e+07,-1.4569,0,4.8423e+07,-2.948,11997,10083,1,10083,1,-0.00038505,-2.1637e-09,0,7.4918e-06,-0.00014697,-1.5659e+08,-614.57,0,1.3171e+06,-49.598,10082,11053,1,11053,1,-0.00010154,-7.6241e-10,0,0.00015265,-9.3947e-05,-4.1261e+07,-126.64,0,3.4311e+07,-10.883,11052,12943,1,12943,1,0.00050907,4.1734e-10,0,0.00050907,1.9575e-05,4.8423e+07,67.559,0,5.8036e+07,2.2058,12942,1091.8,0,1091.8,0,0.00035236,9.1662e-10,0,0.00022504,6.5609e-05,6.5647e+07,141.62,0,3.5767e+07,58.814,1091.8,1
3780,2.15,11998,1,11998,1,0.00020471,-2.3797e-10,0,0.00034072,-3.7345e-05,3.7271,-40.261,0,5.5298e+07,8.7893,11997,13888,1,13888,1,0.00079627,1.5769e-09,0,0.00079627,7.2877e-05,5.9794e+07,218.03,0,1.5732e+08,594.47,13887,11998,1,11998,1,0.00020471,-5.9691e-11,0,0.00030673,-3.7322e-05,3.4149e+07,-10.691,0,4.8649e+07,-2.9279,11997,10083,1,10083,1,-0.00038684,-2.19e-09,0,7.527e-06,-0.00014766,-1.5732e+08,-623.31,0,1.3233e+06,-27.834,10082,11053,1,11053,1,-0.00010202,-6.1262e-10,0,0.00015337,-9.4386e-05,-4.1454e+07,-99.465,0,3.4472e+07,-7.2444,11052,12943,1,12943,1,0.00051145,1.7127e-10,0,0.00051145,1.9667e-05,4.8649e+07,27.491,0,5.8307e+07,0.74565,12942,1091.8,0,1091.8,0,0.00035401,6.4297e-10,0,0.00022609,6.5916e-05,6.5954e+07,105.26,0,3.5934e+07,55.794,1091.8,1
3780,2.16,11998,1,11998,1,0.00020567,-6.7106e-11,0,0.00034231,-3.7519e-05,26.075,-14.694,0,5.5555e+07,2.9237,11997,13888,1,13888,1,0.00079999,1.8768e-09,0,0.00079999,7.3216e-05,6.0072e+07,348.86,0,1.5805e+08,616.05,13887,11998,1,11998,1,0.00020567,2.5148e-11,0,0.00030816,-3.7496e-05,3.4308e+07,4.9989,0,4.8876e+07,-7.6288,11997,10083,1,10083,1,-0.00038865,-2.4479e-09,0,7.5623e-06,-0.00014835,-1.5805e+08,-658.28,0,1.3295e+06,-51.172,10082,11053,1,11053,1,-0.00010249,-7.008e-10,0,0.00015408,-9.4826e-05,-4.1647e+07,-114.07,0,3.4632e+07,-14.612,11052,12943,1,12943,1,0.00051383,5.413e-10,0,0.00051383,1.9758e-05,4.8876e+07,87.013,0,5.8579e+07,-1.9069,12942,1091.8,0,1091.8,0,0.00035565,9.7396e-10,0,0.00022714,6.6223e-05,6.6261e+07,150.97,0,3.6101e+07,58.457,1091.8,1
3780,2.17,11998,1,11998,1,0.00020662,-1.1571e-10,0,0.00034389,-3.7693e-05,18.423,-22.142,0,5.5812e+07,5.1981,11997,13888,1,13888,1,0.00080368,1.6574e-09,0,0.00080368,7.3554e-05,6.035e+07,290.42,0,1.5878e+08,615.78,13887,11998,1,11998,1,0.00020662,2.0636e-12,0,0.00030958,-3.7669e-05,3.4467e+07,0.22107,0,4.9102e+07,-6.0976,11997,10083,1,10083,1,-0.00039044,-2.1884e-09,0,7.5973e-06,-0.00014903,-1.5878e+08,-615.92,0,1.3357e+06,-45.478,10082,11053,1,11053,1,-0.00010297,-6.6494e-10,0,0.00015479,-9.5264e-05,-4.1839e+07,-108.31,0,3.4792e+07,-12.045,11052,12943,1,12943,1,0.0005162,4.2004e-10,0,0.0005162,1.985e-05,4.9102e+07,67.422,0,5.885e+07,-0.63023,12942,1091.8,0,1091.8,0,0.0003573,8.4541e-10,0,0.00022819,6.6529e-05,6.6567e+07,131.8,0,3.6268e+07,58.857,1091.8,1
3780,2.18,11998,1,11998,1,0.00020757,-1.8929e-10,0,0.00034548,-3.7867e-05,43.504,-33.206,0,5.6069e+07,2.4895,11997,13888,1,13888,1,0.00080739,1.6361e-09,0,0.00080739,7.3894e-05,6.0628e+07,291.88,0,1.5951e+08,619.85,13887,11998,1,11998,1,0.00020757,-2.0166e-11,0,0.00031101,-3.7843e-05,3.4626e+07,-2.345,0,4.9328e+07,-8.7893,11997,10083,1,10083,1,-0.00039224,-2.2334e-09,0,7.6327e-06,-0.00014972,-1.5951e+08,-619.13,0,1.342e+06,-54.79,10082,11053,1,11053,1,-0.00010344,-7.6718e-10,0,0.00015551,-9.5703e-05,-4.2032e+07,-127.45,0,3.4953e+07,-15.107,11052,12943,1,12943,1,0.00051858,3.8912e-10,0,0.00051858,1.9941e-05,4.9328e+07,62.556,0,5.9121e+07,-2.8069,12942,1091.8,0,1091.8,0,0.00035895,9.0386e-10,0,0.00022925,6.6836e-05,6.6874e+07,139.74,0,3.6435e+07,59.691,1091.8,1
3780,2.19,11998,1,11998,1,0.00020852,-2.2556e-10,0,0.00034706,-3.804e-05,19.559,-38.071,0,5.6326e+07,4.798,11997,13888,1,13888,1,0.00081109,1.8217e-09,0,0.00081109,7.4233e-05,6.0906e+07,341.76,0,1.6025e+08,634.61,13887,11998,1,11998,1,0.00020852,-2.0597e-11,0,0.00031244,-3.8016e-05,3.4784e+07,-2.1545,0,4.9554e+07,-5.8907,11997,10083,1,10083,1,-0.00039404,-2.6964e-09,0,7.6675e-06,-0.00015041,-1.6025e+08,-598.57,0,1.3481e+06,-73.824,10082,11053,1,11053,1,-0.00010392,-9.2271e-10,0,0.00015622,-9.6142e-05,-4.2224e+07,-154.5,0,3.5113e+07,-15.169,11052,12943,1,12943,1,0.00052096,4.7552e-10,0,0.00052096,2.0032e-05,4.9554e+07,77.384,0,5.9392e+07,2.533,12942,1091.8,0,1091.8,0,0.00036059,1.0962e-09,0,0.0002303,6.7142e-05,6.718e+07,166,0,3.6602e+07,62.894,1091.8,1
3780,2.2,11998,1,11998,1,0.00020948,-7.4382e-11,0,0.00034865,-3.8214e-05,15.216,-16.125,0,5.6584e+07,4.8847,11997,13888,1,13888,1,0.0008148,1.7463e-09,0,0.0008148,7.4572e-05,6.1185e+07,331.35,0,1.6098e+08,624.25,13887,11998,1,11998,1,0.00020947,1.8158e-11,0,0.00031387,-3.819e-05,3.4944e+07,2.9109,0,4.978e+07,-5.8622,11997,10083,1,10083,1,-0.00039584,-2.1672e-09,0,7.7028e-06,-0.00015109,-1.6098e+08,-619.58,0,1.3543e+06,-57.14,10082,11053,1,11053,1,-0.00010439,-7.2044e-10,0,0.00015693,-9.6582e-05,-4.2417e+07,-118.32,0,3.5273e+07,-12.596,11052,12943,1,12943,1,0.00052334,5.4727e-10,0,0.00052334,2.0124e-05,4.978e+07,88.038,0,5.9664e+07,-0.38781,12942,1091.8,0,1091.8,0,0.00036224,9.6672e-10,0,0.00023135,6.7449e-05,6.7487e+07,148.67,0,3.6769e+07,60.474,1091.8,1
3780,2.21,11998,1,11998,1,0.00021043,-1.8235e-10,0,0.00035023,-3.8388e-05,11.948,-32.121,0,5.684e+07,6.2885,11997,13888,1,13888,1,0.0008185,1.729e-09,0,0.0008185,7.491e-05,6.1462e+07,271.28,0,1.6171e+08,622.5,13887,11998,1,11998,1,0.00021042,-2.4325e-11,0,0.00031529,-3.8364e-05,3.5102e+07,-2.9498,0,5.0006e+07,-5.2845,11997,10083,1,10083,1,-0.00039764,-2.1836e-09,0,7.7379e-06,-0.00015178,-1.6171e+08,-623.66,0,1.3605e+06,-42.078,10082,11053,1,11053,1,-0.00010486,-6.8925e-10,0,0.00015765,-9.702e-05,-4.261e+07,-114.37,0,3.5434e+07,-11.41,11052,12943,1,12943,1,0.00052572,3.2462e-10,0,0.00052572,2.0215e-05,5.0006e+07,52.208,0,5.9935e+07,-0.39859,12942,1091.8,0,1091.8,0,0.00036388,8.0469e-10,0,0.0002324,6.7755e-05,6.7794e+07,126.4,0,3.6936e+07,59.418,1091.8,1
3780,2.22,11998,1,11998,1,0.00021138,-1.9875e-10,0,0.00035181,-3.8561e-05,10.408,-34.332,0,5.7098e+07,6.909,11997,13888,1,13888,1,0.0008222,1.9054e-09,0,0.0008222,7.5249e-05,6.1741e+07,285.32,0,1.6244e+08,630.5,13887,11998,1,11998,1,0.00021138,-1.6992e-11,0,0.00031672,-3.8537e-05,3.5261e+07,-1.9611,0,5.0233e+07,-4.198,11997,10083,1,10083,1,-0.00039944,-2.2079e-09,0,7.773e-06,-0.00015247,-1.6244e+08,-600.09,0,1.3667e+06,-56.501,10082,11053,1,11053,1,-0.00010534,-7.8258e-10,0,0.00015836,-9.7459e-05,-4.2803e+07,-132.27,0,3.5594e+07,-11.221,11052,12943,1,12943,1,0.0005281,4.0082e-10,0,0.0005281,2.0307e-05,5.0233e+07,64.87,0,6.0206e+07,2.0326,12942,1091.8,0,1091.8,0,0.00036553,9.2146e-10,0,0.00023345,6.8062e-05,6.8101e+07,141.79,0,3.7104e+07,61.434,1091.8,1
3780,2.23,11998,1,11998,1,0.00021233,-4.3933e-10,0,0.0003534,-3.8736e-05,30.697,-70.734,0,5.7355e+07,3.0165,11997,13888,1,13888,1,0.00082592,1.552e-09,0,0.00082592,7.5589e-05,6.2019e+07,297.24,0,1.6317e+08,637.58,13887,11998,1,11998,1,0.00021233,-1.1314e-10,0,0.00031815,-3.8711e-05,3.542e+07,-20.111,0,5.0459e+07,-7.2054,11997,10083,1,10083,1,-0.00040124,-2.8463e-09,0,7.8083e-06,-0.00015315,-1.6317e+08,-740.22,0,1.3729e+06,-65.634,10082,11053,1,11053,1,-0.00010581,-1.1279e-09,0,0.00015907,-9.7899e-05,-4.2996e+07,-187.28,0,3.5754e+07,-15.421,11052,12943,1,12943,1,0.00053048,3.0382e-10,0,0.00053048,2.0398e-05,5.0459e+07,50.033,0,6.0478e+07,-1.4476,12942,1091.8,0,1091.8,0,0.00036718,1.126e-09,0,0.00023451,6.8369e-05,6.8408e+07,174.05,0,3.7271e+07,61.819,1091.8,1
3780,2.24,11998,1,11998,1,0.00021329,-2.6164e-10,0,0.00035499,-3.8909e-05,22.569,-44.432,0,5.7613e+07,3.3269,11997,13888,1,13888,1,0.00082962,1.9322e-09,0,0.00082962,7.5928e-05,6.2298e+07,358.64,0,1.6391e+08,639.63,13887,11998,1,11998,1,0.00021328,-4.9751e-11,0,0.00031957,-3.8885e-05,3.5579e+07,-6.8325,0,5.0685e+07,-7.4126,11997,10083,1,10083,1,-0.00040304,-2.7161e-09,0,7.8434e-06,-0.00015384,-1.6391e+08,-712.49,0,1.3791e+06,-55.866,10082,11053,1,11053,1,-0.00010629,-9.3744e-10,0,0.00015979,-9.8338e-05,-4.3189e+07,-156.59,0,3.5915e+07,-16.717,11052,12943,1,12943,1,0.00053286,4.1051e-10,0,0.00053286,2.049e-05,5.0685e+07,66.66,0,6.0749e+07,-0.97627,12942,1091.8,0,1091.8,0,0.00036883,1.0807e-09,0,0.00023556,6.8676e-05,6.8715e+07,166.55,0,3.7438e+07,61.506,1091.8,1
3780,2.25,11998,1,11998,1,0.00021424,-3.6937e-10,0,0.00035657,-3.9083e-05,40.366,-59.93,0,5.787e+07,3.7221,11997,13888,1,13888,1,0.00083332,1.4223e-09,0,0.00083332,7.6267e-05,6.2576e+07,279.44,0,1.6464e+08,618.19,13887,11998,1,11998,1,0.00021424,-1.3224e-10,0,0.000321,-3.9059e-05,3.5738e+07,-23.491,0,5.0912e+07,-7.7673,11997,10083,1,10083,1,-0.00040484,-2.7405e-09,0,7.8789e-06,-0.00015453,-1.6464e+08,-726.98,0,1.3854e+06,-42.45,10082,11053,1,11053,1,-0.00010676,-8.7271e-10,0,0.0001605,-9.8777e-05,-4.3381e+07,-142.09,0,3.6075e+07,-14.319,11052,12943,1,12943,1,0.00053524,1.7028e-10,0,0.00053524,2.0581e-05,5.0912e+07,27.109,0,6.102e+07,-2.1594,12942,1091.8,0,1091.8,0,0.00037047,8.6203e-10,0,0.00023661,6.8982e-05,6.9021e+07,137.83,0,3.7605e+07,58.382,1091.8,1
3780,2.26,11998,1,11998,1,0.00021519,-1.9707e-10,0,0.00035815,-3.9256e-05,16.207,-34.95,0,5.8126e+07,5.0647,11997,13888,1,13888,1,0.00083702,1.5846e-09,0,0.00083702,7.6605e-05,6.2853e+07,300.36,0,1.6537e+08,643.95,13887,11998,1,11998,1,0.00021519,-2.1904e-11,0,0.00032242,-3.9232e-05,3.5896e+07,-2.4901,0,5.1137e+07,-6.2199,11997,10083,1,10083,1,-0.00040664,-2.398e-09,0,7.9137e-06,-0.00015521,-1.6537e+08,-661.79,0,1.3915e+06,-54.839,10082,11053,1,11053,1,-0.00010724,-8.147e-10,0,0.00016121,-9.9215e-05,-4.3574e+07,-135.46,0,3.6235e+07,-13.1,11052,12943,1,12943,1,0.00053761,4.2236e-10,0,0.00053761,2.0673e-05,5.1137e+07,69.417,0,6.1291e+07,-0.39124,12942,1091.8,0,1091.8,0,0.00037212,9.6269e-10,0,0.00023766,6.9288e-05,6.9328e+07,148.88,0,3.7772e+07,62.067,1091.8,1
3780,2.27,11998,1,11998,1,0.00021614,-4.2581e-11,0,0.00035973,-3.943e-05,4.3094,-10.748,0,5.8383e+07,10.401,11997,13888,1,13888,1,0.00084071,2.4121e-09,0,0.00084071,7.6943e-05,6.313e+07,214.05,0,1.661e+08,631.19,13887,11998,1,11998,1,0.00021614,1.3442e-11,0,0.00032385,-3.9405e-05,3.6055e+07,2.6159,0,5.1363e+07,-2.5928,11997,10083,1,10083,1,-0.00040843,-1.7058e-09,0,7.9488e-06,-0.0001559,-1.661e+08,-549.23,0,1.3977e+06,-25.19,10082,11053,1,11053,1,-0.00010771,-3.822e-10,0,0.00016192,-9.9653e-05,-4.3766e+07,-60.39,0,3.6395e+07,-6.712,11052,12943,1,12943,1,0.00053999,2.9016e-10,0,0.00053999,2.0764e-05,5.1363e+07,45.161,0,6.1561e+07,0.78807,12942,1091.8,0,1091.8,0,0.00037376,5.4128e-10,0,0.00023871,6.9594e-05,6.9633e+07,88.151,0,3.7939e+07,59.684,1091.8,1
3780,2.28,11998,1,11998,1,0.0002171,-4.1563e-10,0,0.00036133,-3.9604e-05,7.3223,-68.137,0,5.8642e+07,4.2022,11997,13888,1,13888,1,0.00084444,1.8146e-09,0,0.00084444,7.7284e-05,6.341e+07,337.2,0,1.6683e+08,639.63,13887,11998,1,11998,1,0.00021709,-1.4325e-10,0,0.00032528,-3.958e-05,3.6215e+07,-25.226,0,5.159e+07,-6.319,11997,10083,1,10083,1,-0.00041024,-3.0865e-09,0,7.9841e-06,-0.00015659,-1.6683e+08,-796.04,0,1.4039e+06,-48.811,10082,11053,1,11053,1,-0.00010819,-1.081e-09,0,0.00016264,-0.00010009,-4.396e+07,-178.97,0,3.6556e+07,-15.605,11052,12943,1,12943,1,0.00054238,2.817e-10,0,0.00054238,2.0856e-05,5.159e+07,46.238,0,6.1834e+07,-0.67309,12942,1091.8,0,1091.8,0,0.00037542,1.1046e-09,0,0.00023977,6.9902e-05,6.9942e+07,172.05,0,3.8107e+07,60.77,1091.8,1
3780,2.29,11998,1,11998,1,0.00021805,-8.2391e-11,0,0.00036291,-3.9777e-05,9.3472,-17.592,0,5.8898e+07,7.4682,11997,13888,1,13888,1,0.00084813,1.9573e-09,0,0.00084813,7.7622e-05,6.3687e+07,268.43,0,1.6756e+08,643.49,13887,11998,1,11998,1,0.00021804,8.3383e-12,0,0.0003267,-3.9753e-05,3.6373e+07,1.36,0,5.1816e+07,-4.37,11997,10083,1,10083,1,-0.00041203,-2.109e-09,0,8.0192e-06,-0.00015727,-1.6756e+08,-620.92,0,1.4101e+06,-44.986,10082,11053,1,11053,1,-0.00010866,-6.2745e-10,0,0.00016335,-0.00010053,-4.4152e+07,-101.56,0,3.6716e+07,-10.762,11052,12943,1,12943,1,0.00054475,4.4938e-10,0,0.00054475,2.0947e-05,5.1816e+07,72.567,0,6.2104e+07,0.40145,12942,1091.8,0,1091.8,0,0.00037706,8.2583e-10,0,0.00024081,7.0208e-05,7.0247e+07,128.97,0,3.8273e+07,61.893,1091.8,1
3780,2.3,11998,1,11998,1,0.000219,-1.4884e-10,0,0.00036449,-3.9951e-05,27.212,-27.414,0,5.9155e+07,5.8558,11997,13888,1,13888,1,0.00085183,2.0201e-09,0,0.00085183,7.7961e-05,6.3966e+07,339.34,0,1.6829e+08,651.69,13887,11998,1,11998,1,0.000219,-2.07e-11,0,0.00032813,-3.9926e-05,3.6532e+07,-1.6846,0,5.2042e+07,-5.3885,11997,10083,1,10083,1,-0.00041383,-2.2293e-09,0,8.0544e-06,-0.00015796,-1.6829e+08,-613.06,0,1.4163e+06,-59.698,10082,11053,1,11053,1,-0.00010913,-7.9244e-10,0,0.00016407,-0.00010097,-4.4345e+07,-133.79,0,3.6877e+07,-14.497,11052,12943,1,12943,1,0.00054713,4.7581e-10,0,0.00054713,2.1038e-05,5.2042e+07,77.221,0,6.2376e+07,1.3527,12942,1091.8,0,1091.8,0,0.0003787,9.9717e-10,0,0.00024187,7.0515e-05,7.0554e+07,152.15,0,3.8441e+07,64.003,1091.8,1
3780,2.31,11998,1,11998,1,0.00021995,-2.0937e-10,0,0.00036608,-4.0126e-05,27.546,-36.734,0,5.9413e+07,1.3553,11997,13888,1,13888,1,0.00085555,2.2043e-09,0,0.00085555,7.8301e-05,6.4245e+07,402.17,0,1.6903e+08,641.68,13887,11998,1,11998,1,0.00021995,-1.3768e-11,0,0.00032956,-4.0101e-05,3.6691e+07,-1.8419,0,5.2269e+07,-9.084,11997,10083,1,10083,1,-0.00041564,-3.1363e-09,0,8.0898e-06,-0.00015865,-1.6903e+08,-803.24,0,1.4226e+06,-54.89,10082,11053,1,11053,1,-0.00010961,-9.5056e-10,0,0.00016478,-0.00010141,-4.4538e+07,-155.8,0,3.7037e+07,-18.248,11052,12943,1,12943,1,0.00054952,5.1655e-10,0,0.00054952,2.113e-05,5.2269e+07,84.659,0,6.2648e+07,-2.6741,12942,1091.8,0,1091.8,0,0.00038036,1.1785e-09,0,0.00024292,7.0822e-05,7.0862e+07,182.76,0,3.8608e+07,61.333,1091.8,1
3780,2.32,11998,1,11998,1,0.0002209,-1.5991e-10,0,0.00036766,-4.0299e-05,41.395,-29.51,0,5.9669e+07,3.6191,11997,13888,1,13888,1,0.00085924,1.4907e-09,0,0.00085924,7.8638e-05,6.4522e+07,287.95,0,1.6976e+08,652.86,13887,11998,1,11998,1,0.0002209,-1.3098e-11,0,0.00033098,-4.0274e-05,3.685e+07,-1.257,0,5.2494e+07,-8.1244,11997,10083,1,10083,1,-0.00041743,-2.5742e-09,0,8.1249e-06,-0.00015933,-1.6976e+08,-699.27,0,1.4288e+06,-49.134,10082,11053,1,11053,1,-0.00011008,-7.318e-10,0,0.00016549,-0.00010185,-4.473e+07,-120.36,0,3.7197e+07,-15.233,11052,12943,1,12943,1,0.00055189,4.265e-10,0,0.00055189,2.1221e-05,5.2494e+07,68.724,0,6.2918e+07,-2.1208,12942,1091.8,0,1091.8,0,0.000382,9.0952e-10,0,0.00024397,7.1128e-05,7.1168e+07,142.88,0,3.8775e+07,62.181,1091.8,1
3780,2.33,11998,1,11998,1,0.00022185,-1.6625e-10,0,0.00036925,-4.0472e-05,46.67,-29.604,0,5.9926e+07,5.5555,11997,13888,1,13888,1,0.00086294,2.0825e-09,0,0.00086294,7.8977e-05,6.48e+07,274.5,0,1.7049e+08,661.34,13887,11998,1,11998,1,0.00022185,-3.7177e-12,0,0.00033241,-4.0447e-05,3.7008e+07,-0.37887,0,5.272e+07,-6.3817,11997,10083,1,10083,1,-0.00041923,-2.1094e-09,0,8.1601e-06,-0.00016002,-1.7049e+08,-616.63,0,1.435e+06,-55.329,10082,11053,1,11053,1,-0.00011056,-7.1636e-10,0,0.00016621,-0.00010229,-4.4923e+07,-119.75,0,3.7357e+07,-13.056,11052,12943,1,12943,1,0.00055427,3.9574e-10,0,0.00055427,2.1313e-05,5.272e+07,63.899,0,6.3189e+07,-1.0367,12942,1091.8,0,1091.8,0,0.00038364,8.6867e-10,0,0.00024502,7.1434e-05,7.1474e+07,134.56,0,3.8942e+07,63.9,1091.8,1
3780,2.34,11998,1,11998,1,0.00022281,-1.9524e-10,0,0.00037083,-4.0646e-05,25.382,-34.246,0,6.0184e+07,6.1156,11997,13888,1,13888,1,0.00086665,1.6198e-09,0,0.00086665,7.9316e-05,6.5078e+07,257.24,0,1.7122e+08,652.97,13887,11998,1,11998,1,0.00022281,-1.8415e-11,0,0.00033384,-4.0621e-05,3.7167e+07,-3.0289,0,5.2947e+07,-6.222,11997,10083,1,10083,1,-0.00042103,-2.4806e-09,0,8.1952e-06,-0.00016071,-1.7122e+08,-690.02,0,1.4411e+06,-36.645,10082,11053,1,11053,1,-0.00011103,-6.5731e-10,0,0.00016692,-0.00010273,-4.5116e+07,-106.79,0,3.7518e+07,-12.341,11052,12943,1,12943,1,0.00055665,2.99e-10,0,0.00055665,2.1404e-05,5.2947e+07,47.42,0,6.346e+07,-1.2681,12942,1091.8,0,1091.8,0,0.00038529,7.76e-10,0,0.00024607,7.1741e-05,7.1781e+07,125.02,0,3.9109e+07,61.653,1091.8,1
3780,2.35,11998,1,11998,1,0.00022376,-4.937e-11,0,0.00037241,-4.0819e-05,10.473,-11.597,0,6.044e+07,10.098,11997,13888,1,13888,1,0.00087034,2.5073e-09,0,0.00087034,7.9654e-05,6.5355e+07,225.42,0,1.7195e+08,648.35,13887,11998,1,11998,1,0.00022376,6.2543e-12,0,0.00033526,-4.0794e-05,3.7326e+07,0.78475,0,5.3172e+07,-3.3089,11997,10083,1,10083,1,-0.00042282,-1.7627e-09,0,8.2302e-06,-0.00016139,-1.7195e+08,-566.68,0,1.4473e+06,-17.694,10082,11053,1,11053,1,-0.0001115,-3.2414e-10,0,0.00016763,-0.00010317,-4.5308e+07,-51.271,0,3.7678e+07,-7.461,11052,12943,1,12943,1,0.00055902,2.113e-10,0,0.00055902,2.1496e-05,5.3172e+07,32.623,0,6.3731e+07,-0.044187,12942,1091.8,0,1091.8,0,0.00038693,4.8789e-10,0,0.00024712,7.2047e-05,7.2087e+07,81.915,0,3.9276e+07,60.88,1091.8,1
3780,2.36,11998,1,11998,1,0.00022471,-1.6053e-10,0,0.000374,-4.0994e-05,40.58,-29.396,0,6.0698e+07,4.0665,11997,13888,1,13888,1,0.00087405,1.7213e-09,0,0.00087405,7.9994e-05,6.5634e+07,327.76,0,1.7268e+08,665.24,13887,11998,1,11998,1,0.00022471,-2.0132e-11,0,0.00033669,-4.0968e-05,3.7485e+07,-2.0504,0,5.3399e+07,-8.247,11997,10083,1,10083,1,-0.00042463,-2.4562e-09,0,8.2656e-06,-0.00016208,-1.7268e+08,-679.83,0,1.4536e+06,-49.17,10082,11053,1,11053,1,-0.00011198,-7.6177e-10,0,0.00016835,-0.00010361,-4.5501e+07,-126.02,0,3.7838e+07,-15.281,11052,12943,1,12943,1,0.0005614,4.2815e-10,0,0.0005614,2.1587e-05,5.3399e+07,68.738,0,6.4003e+07,-1.9915,12942,1091.8,0,1091.8,0,0.00038858,9.4103e-10,0,0.00024818,7.2354e-05,7.2395e+07,146.37,0,3.9443e+07,63.664,1091.8,1
3780,2.37,11998,1,11998,1,0.00022566,-1.7768e-10,0,0.00037559,-4.1167e-05,28.551,-32.233,0,6.0955e+07,4.9752,11997,13888,1,13888,1,0.00087776,1.5703e-09,0,0.00087776,8.0333e-05,6.5912e+07,307.55,0,1.7342e+08,667.28,13887,11998,1,11998,1,0.00022566,-2.2029e-11,0,0.00033812,-4.1142e-05,3.7644e+07,-2.6057,0,5.3625e+07,-7.5017,11997,10083,1,10083,1,-0.00042643,-2.5972e-09,0,8.3007e-06,-0.00016277,-1.7342e+08,-712.16,0,1.4598e+06,-45.599,10082,11053,1,11053,1,-0.00011245,-7.4121e-10,0,0.00016906,-0.00010404,-4.5694e+07,-121.23,0,3.7999e+07,-14.171,11052,12943,1,12943,1,0.00056378,3.9134e-10,0,0.00056378,2.1678e-05,5.3625e+07,63.618,0,6.4274e+07,-1.5966,12942,1091.8,0,1091.8,0,0.00039023,9.0464e-10,0,0.00024923,7.2661e-05,7.2701e+07,142.44,0,3.961e+07,63.462,1091.8,1
3780,2.38,11998,1,11998,1,0.00022662,-8.8188e-11,0,0.00037717,-4.1341e-05,26.695,-18.312,0,6.1212e+07,5.8031,11997,13888,1,13888,1,0.00088146,1.9493e-09,0,0.00088146,8.0672e-05,6.619e+07,310.51,0,1.7415e+08,672.22,13887,11998,1,11998,1,0.00022661,9.4546e-12,0,0.00033954,-4.1315e-05,3.7803e+07,1.3384,0,5.3851e+07,-6.9113,11997,10083,1,10083,1,-0.00042822,-2.3035e-09,0,8.3359e-06,-0.00016345,-1.7415e+08,-657.82,0,1.466e+06,-44.796,10082,11053,1,11053,1,-0.00011293,-6.2967e-10,0,0.00016977,-0.00010448,-4.5887e+07,-103.24,0,3.8159e+07,-13.164,11052,12943,1,12943,1,0.00056616,4.4152e-10,0,0.00056616,2.177e-05,5.3851e+07,70.343,0,6.4545e+07,-1.2024,12942,1091.8,0,1091.8,0,0.00039188,8.4782e-10,0,0.00025028,7.2967e-05,7.3008e+07,133.37,0,3.9777e+07,63.919,1091.8,1
3780,2.39,11998,1,11998,1,0.00022757,-2.4759e-10,0,0.00037875,-4.1514e-05,26.937,-41.634,0,6.1469e+07,9.3728,11997,13888,1,13888,1,0.00088515,2.369e-09,0,0.00088515,8.101e-05,6.6468e+07,197.04,0,1.7488e+08,657.4,13887,11998,1,11998,1,0.00022756,-1.1438e-10,0,0.00034097,-4.1488e-05,3.7961e+07,-19.136,0,5.4077e+07,-4.3167,11997,10083,1,10083,1,-0.00043002,-1.9434e-09,0,8.3711e-06,-0.00016414,-1.7488e+08,-602.73,0,1.4722e+06,-24.861,10082,11053,1,11053,1,-0.0001134,-5.6038e-10,0,0.00017048,-0.00010492,-4.6079e+07,-91.33,0,3.8319e+07,-8.8725,11052,12943,1,12943,1,0.00056853,7.9736e-11,0,0.00056853,2.1861e-05,5.4077e+07,12.969,0,6.4816e+07,-0.60177,12942,1091.8,0,1091.8,0,0.00039352,5.5114e-10,0,0.00025133,7.3273e-05,7.3314e+07,90.734,0,3.9944e+07,62.252,1091.8,1
3780,2.4,11998,1,11998,1,0.00022852,-3.6217e-10,0,0.00038034,-4.1688e-05,7.646,-59.347,0,6.1726e+07,7.8342,11997,13888,1,13888,1,0.00088887,1.875e-09,0,0.00088887,8.135e-05,6.6747e+07,269.24,0,1.7561e+08,677.66,13887,11998,1,11998,1,0.00022852,-1.283e-10,0,0.0003424,-4.1662e-05,3.812e+07,-24.098,0,5.4303e+07,-4.288,11997,10083,1,10083,1,-0.00043182,-2.3714e-09,0,8.406e-06,-0.00016483,-1.7561e+08,-677.59,0,1.4783e+06,-48.898,10082,11053,1,11053,1,-0.00011388,-9.1568e-10,0,0.0001712,-0.00010536,-4.6272e+07,-152.33,0,3.8479e+07,-12.957,11052,12943,1,12943,1,0.00057092,2.2389e-10,0,0.00057092,2.1953e-05,5.4303e+07,36.097,0,6.5087e+07,1.0332,12942,1091.8,0,1091.8,0,0.00039517,9.0873e-10,0,0.00025238,7.358e-05,7.3621e+07,141.48,0,4.0112e+07,65.227,1091.8,1
3780,2.41,11998,1,11998,1,0.00022948,-2.8303e-10,0,0.00038193,-4.1863e-05,22.183,-47.108,0,6.1984e+07,6.1071,11997,13888,1,13888,1,0.00089258,1.7386e-09,0,0.00089258,8.1689e-05,6.7025e+07,307.99,0,1.7634e+08,671.98,13887,11998,1,11998,1,0.00022947,-1.0373e-10,0,0.00034383,-4.1836e-05,3.8279e+07,-18.513,0,5.453e+07,-6.5333,11997,10083,1,10083,1,-0.00043362,-2.4932e-09,0,8.4415e-06,-0.00016552,-1.7634e+08,-700.64,0,1.4846e+06,-38.798,10082,11053,1,11053,1,-0.00011435,-7.8366e-10,0,0.00017191,-0.0001058,-4.6465e+07,-128.32,0,3.864e+07,-13.505,11052,12943,1,12943,1,0.0005733,2.2271e-10,0,0.0005733,2.2044e-05,5.453e+07,34.792,0,6.5359e+07,-1.1529,12942,1091.8,0,1091.8,0,0.00039682,8.388e-10,0,0.00025344,7.3887e-05,7.3929e+07,133.55,0,4.0279e+07,63.639,1091.8,1
3780,2.42,11998,1,11998,1,0.00023043,-2.3704e-10,0,0.00038351,-4.2036e-05,19.733,-41.031,0,6.2241e+07,5.0753,11997,13888,1,13888,1,0.00089628,1.7536e-09,0,0.00089628,8.2028e-05,6.7303e+07,335.29,0,1.7707e+08,689.53,13887,11998,1,11998,1,0.00023042,-4.0944e-11,0,0.00034525,-4.201e-05,3.8438e+07,-5.1741,0,5.4756e+07,-7.2082,11997,10083,1,10083,1,-0.00043542,-2.6215e-09,0,8.4766e-06,-0.0001662,-1.7707e+08,-713.48,0,1.4908e+06,-53.898,10082,11053,1,11053,1,-0.00011483,-8.7947e-10,0,0.00017263,-0.00010624,-4.6658e+07,-147,0,3.88e+07,-15.38,11052,12943,1,12943,1,0.00057568,4.0166e-10,0,0.00057568,2.2136e-05,5.4756e+07,65.496,0,6.563e+07,-0.99665,12942,1091.8,0,1091.8,0,0.00039846,1.0167e-09,0,0.00025449,7.4194e-05,7.4235e+07,157.83,0,4.0446e+07,66.019,1091.8,1
3780,2.43,11998,1,11998,1,0.00023138,-2.1557e-10,0,0.0003851,-4.221e-05,12.78,-36.988,0,6.2498e+07,5.6784,11997,13888,1,13888,1,0.00089999,1.8289e-09,0,0.00089999,8.2367e-05,6.7582e+07,348.74,0,1.7781e+08,683.89,13887,11998,1,11998,1,0.00023138,-9.6417e-12,0,0.00034668,-4.2184e-05,3.8597e+07,-1.2922,0,5.4982e+07,-6.2198,11997,10083,1,10083,1,-0.00043722,-2.7811e-09,0,8.5118e-06,-0.00016689,-1.7781e+08,-754.75,0,1.497e+06,-49.765,10082,11053,1,11053,1,-0.0001153,-8.4249e-10,0,0.00017334,-0.00010668,-4.6851e+07,-138.72,0,3.8961e+07,-13.93,11052,12943,1,12943,1,0.00057806,4.1382e-10,0,0.00057806,2.2227e-05,5.4982e+07,67.172,0,6.5902e+07,-0.85036,12942,1091.8,0,1091.8,0,0.00040011,1.006e-09,0,0.00025554,7.4501e-05,7.4542e+07,158.26,0,4.0613e+07,64.729,1091.8,1
3780,2.44,11998,1,11998,1,0.00023233,-2.9541e-10,0,0.00038668,-4.2384e-05,10.419,-50.662,0,6.2755e+07,4.9941,11997,13888,1,13888,1,0.00090369,1.7877e-09,0,0.00090369,8.2706e-05,6.786e+07,335.13,0,1.7854e+08,690.41,13887,11998,1,11998,1,0.00023233,-6.2138e-11,0,0.00034811,-4.2357e-05,3.8756e+07,-10.2,0,5.5208e+07,-6.5866,11997,10083,1,10083,1,-0.00043902,-2.7973e-09,0,8.5469e-06,-0.00016758,-1.7854e+08,-757.99,0,1.5032e+06,-58.454,10082,11053,1,11053,1,-0.00011577,-1.0023e-09,0,0.00017405,-0.00010712,-4.7043e+07,-167.7,0,3.9121e+07,-15.678,11052,12943,1,12943,1,0.00058044,4.2165e-10,0,0.00058044,2.2319e-05,5.5208e+07,69.456,0,6.6173e+07,-0.26825,12942,1091.8,0,1091.8,0,0.00040176,1.1292e-09,0,0.00025659,7.4807e-05,7.4849e+07,173.78,0,4.078e+07,66.812,1091.8,1
3780,2.45,11998,1,11998,1,0.00023328,-1.3211e-10,0,0.00038826,-4.2557e-05,20.418,-25.135,0,6.3012e+07,8.2572,11997,13888,1,13888,1,0.00090739,2.0837e-09,0,0.00090739,8.3044e-05,6.8137e+07,305.1,0,1.7927e+08,688.82,13887,11998,1,11998,1,0.00023328,-4.282e-12,0,0.00034953,-4.2531e-05,3.8915e+07,-0.43047,0,5.5434e+07,-4.2523,11997,10083,1,10083,1,-0.00044082,-2.2748e-09,0,8.5822e-06,-0.00016826,-1.7927e+08,-665.04,0,1.5094e+06,-50.582,10082,11053,1,11053,1,-0.00011625,-7.2158e-10,0,0.00017477,-0.00010756,-4.7236e+07,-119.41,0,3.9281e+07,-11.71,11052,12943,1,12943,1,0.00058281,4.4455e-10,0,0.00058281,2.241e-05,5.5434e+07,71.46,0,6.6444e+07,0.9391,12942,1091.8,0,1091.8,0,0.0004034,9.0067e-10,0,0.00025764,7.5113e-05,7.5155e+07,140.6,0,4.0947e+07,66.288,1091.8,1
3780,2.46,11998,1,11998,1,0.00023424,-1.419e-10,0,0.00038985,-4.2731e-05,41.038,-26.823,0,6.3269e+07,5.4351,11997,13888,1,13888,1,0.00091109,2.0831e-09,0,0.00091109,8.3383e-05,6.8415e+07,297.08,0,1.8e+08,688.69,13887,11998,1,11998,1,0.00023423,-8.3976e-12,0,0.00035096,-4.2704e-05,3.9074e+07,-0.94334,0,5.566e+07,-7.5784,11997,10083,1,10083,1,-0.00044262,-2.2882e-09,0,8.6175e-06,-0.00016895,-1.8e+08,-668.12,0,1.5157e+06,-51.614,10082,11053,1,11053,1,-0.00011672,-7.1523e-10,0,0.00017548,-0.000108,-4.7428e+07,-117.59,0,3.9441e+07,-14.137,11052,12943,1,12943,1,0.00058519,4.2311e-10,0,0.00058519,2.2501e-05,5.566e+07,67.905,0,6.6715e+07,-1.7119,12942,1091.8,0,1091.8,0,0.00040505,8.8276e-10,0,0.00025869,7.542e-05,7.5462e+07,137.75,0,4.1114e+07,66.557,1091.8,1
3780,2.47,11998,1,11998,1,0.00023519,-1.3587e-10,0,0.00039144,-4.2905e-05,14.287,-25.363,0,6.3527e+07,6.5822,11997,13888,1,13888,1,0.0009148,1.7296e-09,0,0.0009148,8.3723e-05,6.8694e+07,337.69,0,1.8073e+08,713.93,13887,11998,1,11998,1,0.00023519,1.6434e-11,0,0.00035238,-4.2878e-05,3.9232e+07,3.4222,0,5.5887e+07,-6.1953,11997,10083,1,10083,1,-0.00044442,-2.6494e-09,0,8.6525e-06,-0.00016964,-1.8073e+08,-725.76,0,1.5218e+06,-58.269,10082,11053,1,11053,1,-0.0001172,-7.8994e-10,0,0.00017619,-0.00010844,-4.7621e+07,-129.08,0,3.9602e+07,-12.473,11052,12943,1,12943,1,0.00058757,5.2947e-10,0,0.00058757,2.2593e-05,5.5887e+07,84.062,0,6.6986e+07,-0.19371,12942,1091.8,0,1091.8,0,0.0004067,1.0253e-09,0,0.00025974,7.5727e-05,7.5769e+07,159.84,0,4.1282e+07,67.716,1091.8,1
3780,2.48,11998,1,11998,1,0.00023614,-2.7985e-10,0,0.00039302,-4.3078e-05,37.589,-47.392,0,6.3784e+07,5.9747,11997,13888,1,13888,1,0.0009185,1.9311e-09,0,0.0009185,8.4061e-05,6.8972e+07,282.31,0,1.8146e+08,691.56,13887,11998,1,11998,1,0.00023614,-8.9984e-11,0,0.00035381,-4.3052e-05,3.9391e+07,-16.607,0,5.6113e+07,-7.4561,11997,10083,1,10083,1,-0.00044622,-2.4585e-09,0,8.6879e-06,-0.00017032,-1.8146e+08,-699.6,0,1.5281e+06,-43.27,10082,11053,1,11053,1,-0.00011767,-7.907e-10,0,0.00017691,-0.00010887,-4.7814e+07,-130.71,0,3.9762e+07,-14.781,11052,12943,1,12943,1,0.00058995,2.4526e-10,0,0.00058995,2.2684e-05,5.6113e+07,40.638,0,6.7257e+07,-1.535,12942,1091.8,0,1091.8,0,0.00040834,8.4458e-10,0,0.0002608,7.6033e-05,7.6075e+07,133.42,0,4.1449e+07,66.195,1091.8,1
3780,2.49,11998,1,11998,1,0.00023709,-2.5418e-10,0,0.00039461,-4.3252e-05,7.4838,-44.199,0,6.4041e+07,6.964,11997,13888,1,13888,1,0.00092221,1.5616e-09,0,0.00092221,8.4401e-05,6.925e+07,303.42,0,1.822e+08,691.88,13887,11998,1,11998,1,0.00023709,-4.708e-11,0,0.00035524,-4.3225e-05,3.955e+07,-7.4928,0,5.6339e+07,-5.4918,11997,10083,1,10083,1,-0.00044802,-2.9454e-09,0,8.723e-06,-0.00017101,-1.822e+08,-792.45,0,1.5343e+06,-37.873,10082,11053,1,11053,1,-0.00011815,-8.2212e-10,0,0.00017762,-0.00010931,-4.8007e+07,-131.49,0,3.9923e+07,-13.205,11052,12943,1,12943,1,0.00059233,3.385e-10,0,0.00059233,2.2776e-05,5.6339e+07,54.872,0,6.7529e+07,-0.13169,12942,1091.8,0,1091.8,0,0.00040999,9.4142e-10,0,0.00026185,7.634e-05,7.6382e+07,150.25,0,4.1616e+07,65.363,1091.8,1
3780,2.5,11998,1,11998,1,0.00023805,-2.2943e-10,0,0.00039619,-4.3426e-05,5.155,-39.734,0,6.4298e+07,8.1638,11997,13888,1,13888,1,0.00092591,1.6423e-09,0,0.00092591,8.4739e-05,6.9528e+07,316.88,0,1.8293e+08,695.25,13887,11998,1,11998,1,0.00023804,-4.6213e-11,0,0.00035667,-4.3399e-05,3.9709e+07,-6.7452,0,5.6565e+07,-4.6642,11997,10083,1,10083,1,-0.00044982,-2.691e-09,0,8.7582e-06,-0.0001717,-1.8293e+08,-750.17,0,1.5405e+06,-38.783,10082,11053,1,11053,1,-0.00011862,-7.6766e-10,0,0.00017833,-0.00010975,-4.82e+07,-125.9,0,4.0083e+07,-11.556,11052,12943,1,12943,1,0.00059471,3.1718e-10,0,0.00059471,2.2867e-05,5.6565e+07,50.953,0,6.78e+07,0.056215,12942,1091.8,0,1091.8,0,0.00041164,8.8189e-10,0,0.0002629,7.6646e-05,7.6689e+07,141.2,0,4.1783e+07,65.398,1091.8,1
3780,2.51,11998,1,11998,1,0.000239,-1.2729e-10,0,0.00039777,-4.3599e-05,15.848,-23.59,0,6.4555e+07,8.8958,11997,13888,1,13888,1,0.00092961,2.3657e-09,0,0.00092961,8.5078e-05,6.9806e+07,282.39,0,1.8366e+08,709.19,13887,11998,1,11998,1,0.00023899,1.0674e-11,0,0.00035809,-4.3572e-05,3.9868e+07,1.0479,0,5.6791e+07,-4.8175,11997,10083,1,10083,1,-0.00045161,-2.1462e-09,0,8.7934e-06,-0.00017238,-1.8366e+08,-650.92,0,1.5467e+06,-44.121,10082,11053,1,11053,1,-0.00011909,-6.1961e-10,0,0.00017905,-0.00011019,-4.8392e+07,-99.773,0,4.0243e+07,-10.454,11052,12943,1,12943,1,0.00059709,3.653e-10,0,0.00059709,2.2959e-05,5.6791e+07,57.802,0,6.8071e+07,-0.15308,12942,1091.8,0,1091.8,0,0.00041328,7.7806e-10,0,0.00026395,7.6952e-05,7.6995e+07,123.68,0,4.195e+07,67.498,1091.8,1
3780,2.52,11998,1,11998,1,0.00023995,-2.7704e-10,0,0.00039936,-4.3774e-05,8.2749,-46.428,0,6.4813e+07,7.214,11997,13888,1,13888,1,0.00093332,1.7926e-09,0,0.00093332,8.5417e-05,7.0085e+07,343.03,0,1.8439e+08,703.57,13887,11998,1,11998,1,0.00023995,-7.2001e-11,0,0.00035952,-4.3746e-05,4.0027e+07,-11.214,0,5.7018e+07,-5.4242,11997,10083,1,10083,1,-0.00045341,-2.8457e-09,0,8.8286e-06,-0.00017307,-1.8439e+08,-778.29,0,1.5529e+06,-39.483,10082,11053,1,11053,1,-0.00011957,-8.4676e-10,0,0.00017976,-0.00011063,-4.8585e+07,-137.89,0,4.0403e+07,-13.705,11052,12943,1,12943,1,0.00059947,2.9774e-10,0,0.00059947,2.305e-05,5.7018e+07,46.24,0,6.8343e+07,-0.012347,12942,1091.8,0,1091.8,0,0.00041493,9.4665e-10,0,0.000265,7.726e-05,7.7302e+07,150.99,0,4.2117e+07,66.245,1091.8,1
3780,2.53,11998,1,11998,1,0.0002409,-1.8773e-10,0,0.00040095,-4.3947e-05,10.283,-33.803,0,6.507e+07,6.2998,11997,13888,1,13888,1,0.00093702,1.9229e-09,0,0.00093702,8.5756e-05,7.0363e+07,364.89,0,1.8512e+08,709.5,13887,11998,1,11998,1,0.0002409,-2.2718e-11,0,0.00036095,-4.392e-05,4.0186e+07,-2.8045,0,5.7244e+07,-6.228,11997,10083,1,10083,1,-0.00045521,-2.7614e-09,0,8.8639e-06,-0.00017376,-1.8512e+08,-764.48,0,1.5591e+06,-47.352,10082,11053,1,11053,1,-0.00012004,-8.2262e-10,0,0.00018047,-0.00011107,-4.8778e+07,-136.15,0,4.0564e+07,-14.984,11052,12943,1,12943,1,0.00060185,4.3249e-10,0,0.00060185,2.3142e-05,5.7244e+07,69.199,0,6.8614e+07,-0.51673,12942,1091.8,0,1091.8,0,0.00041658,1.0091e-09,0,0.00026606,7.7566e-05,7.7609e+07,158.39,0,4.2284e+07,67.228,1091.8,1
3780,2.54,11998,1,11998,1,0.00024185,-1.192e-10,0,0.00040253,-4.4121e-05,3.4608,-23.195,0,6.5326e+07,9.2673,11997,13888,1,13888,1,0.00094072,2.4036e-09,0,0.00094072,8.6094e-05,7.064e+07,284.1,0,1.8585e+08,718.58,13887,11998,1,11998,1,0.00024185,3.6806e-12,0,0.00036237,-4.4093e-05,4.0344e+07,0.40243,0,5.7469e+07,-4.4273,11997,10083,1,10083,1,-0.00045701,-2.1695e-09,0,8.8989e-06,-0.00017444,-1.8585e+08,-655.97,0,1.5653e+06,-44.63,10082,11053,1,11053,1,-0.00012052,-6.5042e-10,0,0.00018118,-0.00011151,-4.897e+07,-105.82,0,4.0724e+07,-10.7,11052,12943,1,12943,1,0.00060422,4.0479e-10,0,0.00060422,2.3233e-05,5.7469e+07,64.633,0,6.8884e+07,0.66801,12942,1091.8,0,1091.8,0,0.00041822,8.2676e-10,0,0.0002671,7.7872e-05,7.7915e+07,129.61,0,4.2451e+07,68.813,1091.8,1
3780,2.55,11998,1,11998,1,0.00024281,-2.4059e-10,0,0.00040411,-4.4295e-05,39.063,-41.234,0,6.5584e+07,6.2091,11997,13888,1,13888,1,0.00094443,2.181e-09,0,0.00094443,8.6434e-05,7.0919e+07,325.38,0,1.8659e+08,711.2,13887,11998,1,11998,1,0.00024281,-4.8633e-11,0,0.0003638,-4.4267e-05,4.0503e+07,-7.487,0,5.7696e+07,-6.5513,11997,10083,1,10083,1,-0.00045881,-2.3278e-09,0,8.9345e-06,-0.00017513,-1.8659e+08,-688.39,0,1.5716e+06,-57.921,10082,11053,1,11053,1,-0.00012099,-8.4439e-10,0,0.0001819,-0.00011195,-4.9163e+07,-140.78,0,4.0884e+07,-14.618,11052,12943,1,12943,1,0.00060661,3.6514e-10,0,0.00060661,2.3324e-05,5.7696e+07,58.617,0,6.9156e+07,-0.99194,12942,1091.8,0,1091.8,0,0.00041987,9.5728e-10,0,0.00026816,7.8179e-05,7.8222e+07,148.99,0,4.2618e+07,68.684,1091.8,1
3780,2.56,11998,1,11998,1,0.00024376,-2.1119e-10,0,0.0004057,-4.4468e-05,7.2426,-36.789,0,6.584e+07,10.707,11997,13888,1,13888,1,0.00094812,2.4393e-09,0,0.00094812,8.6772e-05,7.1196e+07,226.3,0,1.8732e+08,713.55,13887,11998,1,11998,1,0.00024376,-4.8313e-11,0,0.00036522,-4.444e-05,4.0662e+07,-7.4197,0,5.7921e+07,-3.817,11997,10083,1,10083,1,-0.0004606,-2.165e-09,0,8.9694e-06,-0.00017582,-1.8732e+08,-660.88,0,1.5778e+06,-30.148,10082,11053,1,11053,1,-0.00012147,-5.8865e-10,0,0.00018261,-0.00011239,-4.9356e+07,-97.028,0,4.1044e+07,-9.0097,11052,12943,1,12943,1,0.00060898,1.8331e-10,0,0.00060898,2.3416e-05,5.7921e+07,29.051,0,6.9427e+07,0.51282,12942,1091.8,0,1091.8,0,0.00042151,6.497e-10,0,0.00026921,7.8485e-05,7.8528e+07,105.97,0,4.2785e+07,67.456,1091.8,1
3780,2.57,11998,1,11998,1,0.00024471,-1.9242e-10,0,0.00040728,-4.4642e-05,9.4137,-34.269,0,6.6098e+07,9.5394,11997,13888,1,13888,1,0.00095183,2.4844e-09,0,0.00095183,8.7111e-05,7.1474e+07,263.85,0,1.8805e+08,719.29,13887,11998,1,11998,1,0.00024471,-4.2931e-11,0,0.00036665,-4.4614e-05,4.0821e+07,-6.7871,0,5.8148e+07,-4.6315,11997,10083,1,10083,1,-0.0004624,-2.1417e-09,0,9.0046e-06,-0.0001765,-1.8805e+08,-656.2,0,1.584e+06,-37.76,10082,11053,1,11053,1,-0.00012194,-6.5574e-10,0,0.00018332,-0.00011283,-4.9548e+07,-109.51,0,4.1205e+07,-11.722,11052,12943,1,12943,1,0.00061136,2.7119e-10,0,0.00061136,2.3507e-05,5.8148e+07,43.181,0,6.9698e+07,0.18033,12942,1091.8,0,1091.8,0,0.00042316,7.5332e-10,0,0.00027026,7.8792e-05,7.8835e+07,119.32,0,4.2952e+07,68.742,1091.8,1
3780,2.58,11998,1,11998,1,0.00024566,-4.0473e-11,0,0.00040887,-4.4816e-05,30.069,-11.945,0,6.6355e+07,5.9565,11997,13888,1,13888,1,0.00095554,2.0075e-09,0,0.00095554,8.7451e-05,7.1753e+07,366.54,0,1.8878e+08,706.75,13887,11998,1,11998,1,0.00024566,3.5116e-12,0,0.00036808,-4.4788e-05,4.098e+07,0.47629,0,5.8374e+07,-8.1817,11997,10083,1,10083,1,-0.00046421,-2.5188e-09,0,9.0402e-06,-0.00017719,-1.8878e+08,-724.6,0,1.5903e+06,-32.499,10082,11053,1,11053,1,-0.00012242,-5.733e-10,0,0.00018404,-0.00011327,-4.9741e+07,-92.568,0,4.1365e+07,-15.407,11052,12943,1,12943,1,0.00061374,4.5853e-10,0,0.00061374,2.3599e-05,5.8374e+07,72.965,0,6.997e+07,-2.3237,12942,1091.8,0,1091.8,0,0.00042481,8.5448e-10,0,0.00027131,7.9099e-05,7.9142e+07,136.35,0,4.312e+07,67.142,1091.8,1
3780,2.59,11998,1,11998,1,0.00024661,-1.5351e-10,0,0.00041045,-4.4989e-05,26.223,-28.226,0,6.6612e+07,8.9926,11997,13888,1,13888,1,0.00095923,2.5079e-09,0,0.00095923,8.7789e-05,7.2031e+07,248.21,0,1.8951e+08,720.99,13887,11998,1,11998,1,0.00024661,-1.6823e-11,0,0.0003695,-4.4961e-05,4.1138e+07,-2.4186,0,5.86e+07,-5.6791,11997,10083,1,10083,1,-0.000466,-2.1679e-09,0,9.0753e-06,-0.00017788,-1.8951e+08,-660.2,0,1.5965e+06,-34.09,10082,11053,1,11053,1,-0.00012289,-5.6681e-10,0,0.00018475,-0.0001137,-4.9934e+07,-92.542,0,4.1525e+07,-10.894,11052,12943,1,12943,1,0.00061612,2.6318e-10,0,0.00061612,2.369e-05,5.86e+07,42.318,0,7.024e+07,-0.97632,12942,1091.8,0,1091.8,0,0.00042645,6.8193e-10,0,0.00027236,7.9405e-05,7.9448e+07,110.13,0,4.3287e+07,68.261,1091.8,1
3780,2.6,11998,1,11998,1,0.00024757,-2.4026e-10,0,0.00041204,-4.5163e-05,37.185,-42.043,0,6.6869e+07,7.5174,11997,13888,1,13888,1,0.00096294,2.2821e-09,0,0.00096294,8.8128e-05,7.2309e+07,242.86,0,1.9024e+08,721.19,13887,11998,1,11998,1,0.00024757,-6.5023e-11,0,0.00037093,-4.5135e-05,4.1297e+07,-11.569,0,5.8826e+07,-7.117,11997,10083,1,10083,1,-0.0004678,-2.3814e-09,0,9.1106e-06,-0.00017856,-1.9024e+08,-697.64,0,1.6027e+06,-37.244,10082,11053,1,11053,1,-0.00012336,-6.9317e-10,0,0.00018546,-0.00011414,-5.0126e+07,-114.22,0,4.1686e+07,-12.812,11052,12943,1,12943,1,0.0006185,2.2991e-10,0,0.0006185,2.3781e-05,5.8826e+07,37.891,0,7.0512e+07,-1.6843,12942,1091.8,0,1091.8,0,0.0004281,7.5151e-10,0,0.00027341,7.9712e-05,7.9755e+07,120.51,0,4.3454e+07,68.636,1091.8,1
3780,2.61,11998,1,11998,1,0.00024852,-1.6077e-10,0,0.00041362,-4.5337e-05,30.658,-29.212,0,6.7126e+07,8.0135,11997,13888,1,13888,1,0.00096665,2.3711e-09,0,0.00096665,8.8467e-05,7.2587e+07,288.95,0,1.9097e+08,727.15,13887,11998,1,11998,1,0.00024852,-2.7511e-11,0,0.00037236,-4.5309e-05,4.1456e+07,-3.1539,0,5.9052e+07,-6.1154,11997,10083,1,10083,1,-0.0004696,-2.3237e-09,0,9.1458e-06,-0.00017925,-1.9097e+08,-686.3,0,1.6089e+06,-36.08,10082,11053,1,11053,1,-0.00012384,-6.2194e-10,0,0.00018618,-0.00011458,-5.0319e+07,-101.39,0,4.1846e+07,-12.819,11052,12943,1,12943,1,0.00062088,2.9072e-10,0,0.00062088,2.3873e-05,5.9052e+07,46.657,0,7.0783e+07,-1.2665,12942,1091.8,0,1091.8,0,0.00042975,7.5207e-10,0,0.00027447,8.0018e-05,8.0062e+07,120.96,0,4.3621e+07,68.617,1091.8,1
3780,2.62,11998,1,11998,1,0.00024947,-2.6432e-10,0,0.00041521,-4.5511e-05,35.351,-45.286,0,6.7384e+07,5.9907,11997,13888,1,13888,1,0.00097036,1.7479e-09,0,0.00097036,8.8807e-05,7.2866e+07,293.29,0,1.9171e+08,739.04,13887,11998,1,11998,1,0.00024947,-1.5459e-11,0,0.00037379,-4.5483e-05,4.1615e+07,-1.7752,0,5.9279e+07,-6.7498,11997,10083,1,10083,1,-0.00047141,-2.8353e-09,0,9.1811e-06,-0.00017994,-1.9171e+08,-779.09,0,1.6152e+06,-61.6,10082,11053,1,11053,1,-0.00012431,-9.019e-10,0,0.00018689,-0.00011502,-5.0512e+07,-147.6,0,4.2007e+07,-13.858,11052,12943,1,12943,1,0.00062326,4.1073e-10,0,0.00062326,2.3964e-05,5.9279e+07,65.945,0,7.1055e+07,-1.0514,12942,1091.8,0,1091.8,0,0.00043139,1.0185e-09,0,0.00027552,8.0326e-05,8.0369e+07,160.27,0,4.3788e+07,70.531,1091.8,1
3780,2.63,11998,1,11998,1,0.00025042,-1.6192e-10,0,0.00041679,-4.5684e-05,30.228,-29.205,0,6.764e+07,7.684,11997,13888,1,13888,1,0.00097405,2.4923e-09,0,0.00097405,8.9144e-05,7.3143e+07,271.69,0,1.9244e+08,725.62,13887,11998,1,11998,1,0.00025042,-3.4112e-11,0,0.00037521,-4.5656e-05,4.1774e+07,-4.8693,0,5.9504e+07,-6.8958,11997,10083,1,10083,1,-0.0004732,-2.2267e-09,0,9.2163e-06,-0.00018062,-1.9244e+08,-676.77,0,1.6214e+06,-33.935,10082,11053,1,11053,1,-0.00012479,-5.7418e-10,0,0.0001876,-0.00011546,-5.0705e+07,-94.561,0,4.2167e+07,-12.641,11052,12943,1,12943,1,0.00062563,2.4198e-10,0,0.00062563,2.4056e-05,5.9504e+07,38.483,0,7.1325e+07,-1.9752,12942,1091.8,0,1091.8,0,0.00043304,6.8868e-10,0,0.00027657,8.0631e-05,8.0675e+07,111.95,0,4.3955e+07,68.495,1091.8,1
3780,2.64,11998,1,11998,1,0.00025138,-2.0347e-10,0,0.00041838,-4.5858e-05,7.8978,-36.411,0,6.7898e+07,8.1281,11997,13888,1,13888,1,0.00097776,2.0699e-09,0,0.00097776,8.9484e-05,7.3422e+07,320.9,0,1.9317e+08,749.04,13887,11998,1,11998,1,0.00025138,-8.6893e-12,0,0.00037664,-4.583e-05,4.1933e+07,-1.0074,0,5.9731e+07,-4.8053,11997,10083,1,10083,1,-0.000475,-2.5656e-09,0,9.2513e-06,-0.00018131,-1.9317e+08,-740.41,0,1.6275e+06,-65.714,10082,11053,1,11053,1,-0.00012526,-9.0549e-10,0,0.00018832,-0.0001159,-5.0898e+07,-149.24,0,4.2327e+07,-13.275,11052,12943,1,12943,1,0.00062802,5.0302e-10,0,0.00062802,2.4147e-05,5.9731e+07,82.608,0,7.1597e+07,1.5275,12942,1091.8,0,1091.8,0,0.00043469,1.084e-09,0,0.00027762,8.0938e-05,8.0982e+07,167.26,0,4.4122e+07,72.573,1091.8,1
3780,2.65,11998,1,11998,1,0.00025233,-2.4759e-10,0,0.00041996,-4.6032e-05,39.366,-42.622,0,6.8155e+07,5.5043,11997,13888,1,13888,1,0.00098147,2.1533e-09,0,0.00098147,8.9823e-05,7.37e+07,330.61,0,1.939e+08,738.77,13887,11998,1,11998,1,0.00025233,-5.8036e-11,0,0.00037806,-4.6003e-05,4.2092e+07,-9.1269,0,5.9957e+07,-8.3611,11997,10083,1,10083,1,-0.0004768,-2.5232e-09,0,9.2868e-06,-0.000182,-1.939e+08,-732.5,0,1.6338e+06,-53.527,10082,11053,1,11053,1,-0.00012573,-8.4453e-10,0,0.00018903,-0.00011634,-5.109e+07,-141.22,0,4.2487e+07,-16.517,11052,12943,1,12943,1,0.0006304,3.5584e-10,0,0.0006304,2.4239e-05,5.9957e+07,56.736,0,7.1868e+07,-2.1666,12942,1091.8,0,1091.8,0,0.00043633,9.6004e-10,0,0.00027867,8.1245e-05,8.1289e+07,150.42,0,4.429e+07,71.202,1091.8,1
3780,2.66,11998,1,11998,1,0.00025328,-2.459e-10,0,0.00042155,-4.6206e-05,32.088,-42.308,0,6.8412e+07,7.2336,11997,13888,1,13888,1,0.00098517,1.8525e-09,0,0.00098517,9.0162e-05,7.3978e+07,282.91,0,1.9463e+08,732.78,13887,11998,1,11998,1,0.00025328,-3.8799e-11,0,0.00037949,-4.6177e-05,4.2251e+07,-6.9013,0,6.0183e+07,-6.8303,11997,10083,1,10083,1,-0.0004786,-2.7917e-09,0,9.3221e-06,-0.00018269,-1.9463e+08,-781.01,0,1.6401e+06,-38.594,10082,11053,1,11053,1,-0.00012621,-7.2364e-10,0,0.00018975,-0.00011678,-5.1283e+07,-116.53,0,4.2648e+07,-13.061,11052,12943,1,12943,1,0.00063278,2.6537e-10,0,0.00063278,2.433e-05,6.0183e+07,42.432,0,7.2139e+07,-1.2241,12942,1091.8,0,1091.8,0,0.00043798,8.1638e-10,0,0.00027973,8.1552e-05,8.1596e+07,133.61,0,4.4457e+07,68.79,1091.8,1
3780,2.67,11998,1,11998,1,0.00025423,-9.869e-11,0,0.00042313,-4.6379e-05,5.623,-19.92,0,6.8669e+07,10.743,11997,13888,1,13888,1,0.00098887,2.7818e-09,0,0.00098887,9.05e-05,7.4256e+07,297.51,0,1.9536e+08,741.56,13887,11998,1,11998,1,0.00025423,-6.901e-12,0,0.00038092,-4.635e-05,4.2409e+07,-0.58293,0,6.0409e+07,-3.7791,11997,10083,1,10083,1,-0.0004804,-2.028e-09,0,9.3571e-06,-0.00018337,-1.9536e+08,-650.99,0,1.6462e+06,-37.427,10082,11053,1,11053,1,-0.00012668,-5.7078e-10,0,0.00019046,-0.00011722,-5.1476e+07,-95.093,0,4.2808e+07,-11.143,11052,12943,1,12943,1,0.00063515,3.4909e-10,0,0.00063515,2.4422e-05,6.0409e+07,55.286,0,7.241e+07,0.96147,12942,1091.8,0,1091.8,0,0.00043962,7.4287e-10,0,0.00028078,8.1858e-05,8.1902e+07,117.65,0,4.4624e+07,70.642,1091.8,1
3780,2.68,11998,1,11998,1,0.00025519,-1.2926e-10,0,0.00042472,-4.6553e-05,27.409,-25.581,0,6.8927e+07,8.606,11997,13888,1,13888,1,0.00099258,2.4352e-09,0,0.00099258,9.084e-05,7.4534e+07,285.11,0,1.961e+08,732.39,13887,11998,1,11998,1,0.00025519,-2.0742e-11,0,0.00038234,-4.6524e-05,4.2568e+07,-2.4936,0,6.0635e+07,-6.1235,11997,10083,1,10083,1,-0.0004822,-2.3226e-09,0,9.3925e-06,-0.00018406,-1.961e+08,-703.93,0,1.6525e+06,-38.339,10082,11053,1,11053,1,-0.00012716,-6.223e-10,0,0.00019117,-0.00011766,-5.1668e+07,-102.43,0,4.2968e+07,-11.069,11052,12943,1,12943,1,0.00063753,3.5557e-10,0,0.00063753,2.4513e-05,6.0635e+07,57.115,0,7.2682e+07,-0.87929,12942,1091.8,0,1091.8,0,0.00044127,7.7573e-10,0,0.00028183,8.2165e-05,8.2209e+07,124.24,0,4.4791e+07,69.8,1091.8,1
3780,2.69,11998,1,11998,1,0.00025614,-1.5802e-10,0,0.0004263,-4.6727e-05,20.437,-28.44,0,6.9183e+07,9.7639,11997,13888,1,13888,1,0.00099627,2.5435e-09,0,0.00099627,9.1178e-05,7.4812e+07,266.98,0,1.9683e+08,752.06,13887,11998,1,11998,1,0.00025614,-6.3519e-12,0,0.00038377,-4.6698e-05,4.2727e+07,-0.60442,0,6.0861e+07,-5.1684,11997,10083,1,10083,1,-0.00048399,-2.2899e-09,0,9.4276e-06,-0.00018474,-1.9683e+08,-695.31,0,1.6587e+06,-36.891,10082,11053,1,11053,1,-0.00012763,-5.9686e-10,0,0.00019188,-0.00011809,-5.1861e+07,-96.49,0,4.3128e+07,-10.642,11052,12943,1,12943,1,0.00063991,2.8583e-10,0,0.00063991,2.4604e-05,6.0861e+07,45.47,0,7.2952e+07,-0.56253,12942,1091.8,0,1091.8,0,0.00044292,7.2295e-10,0,0.00028288,8.2471e-05,8.2515e+07,117.21,0,4.4958e+07,70.781,1091.8,1
3780,2.7,11998,1,11998,1,0.00025709,-1.5805e-10,0,0.00042789,-4.6901e-05,14.757,-28.683,0,6.9441e+07,8.8784,11997,13888,1,13888,1,0.00099998,2.3609e-09,0,0.00099998,9.1517e-05,7.509e+07,323.19,0,1.9756e+08,760.64,13887,11998,1,11998,1,0.00025709,-4.6431e-12,0,0.0003852,-4.6871e-05,4.2886e+07,-0.529,0,6.1087e+07,-5.4952,11997,10083,1,10083,1,-0.00048579,-2.4646e-09,0,9.4628e-06,-0.00018543,-1.9756e+08,-724.53,0,1.6649e+06,-45.317,10082,11053,1,11053,1,-0.00012811,-7.2223e-10,0,0.0001926,-0.00011853,-5.2054e+07,-119.21,0,4.3289e+07,-13.097,11052,12943,1,12943,1,0.00064229,3.9893e-10,0,0.00064229,2.4696e-05,6.1087e+07,64.198,0,7.3224e+07,-0.17541,12942,1091.8,0,1091.8,0,0.00044456,8.9329e-10,0,0.00028393,8.2778e-05,8.2822e+07,141.29,0,4.5125e+07,72.242,1091.8,1
3780,2.71,11998,1,11998,1,0.00025804,-2.5272e-10,0,0.00042947,-4.7074e-05,15.967,-43.76,0,6.9697e+07,10.154,11997,13888,1,13888,1,0.0010037,2.6172e-09,0,0.0010037,9.1856e-05,7.5368e+07,250.09,0,1.9829e+08,754.34,13887,11998,1,11998,1,0.00025804,-8.7676e-11,0,0.00038662,-4.7045e-05,4.3045e+07,-15.828,0,6.1313e+07,-5.3609,11997,10083,1,10083,1,-0.00048759,-2.279e-09,0,9.4981e-06,-0.00018612,-1.9829e+08,-693.2,0,1.6711e+06,-33.857,10082,11053,1,11053,1,-0.00012858,-6.8165e-10,0,0.00019331,-0.00011897,-5.2246e+07,-112.49,0,4.3449e+07,-12.013,11052,12943,1,12943,1,0.00064467,1.8611e-10,0,0.00064467,2.4787e-05,6.1313e+07,30.098,0,7.3495e+07,-0.30973,12942,1091.8,0,1091.8,0,0.00044621,7.2423e-10,0,0.00028498,8.3084e-05,8.3129e+07,116.23,0,4.5292e+07,71.993,1091.8,1
3780,2.72,11998,1,11998,1,0.000259,-2.8009e-10,0,0.00043105,-4.7248e-05,12.733,-47.94,0,6.9955e+07,9.8187,11997,13888,1,13888,1,0.0010074,2.3109e-09,0,0.0010074,9.2195e-05,7.5646e+07,265.97,0,1.9902e+08,764.49,13887,11998,1,11998,1,0.00025899,-6.4297e-11,0,0.00038805,-4.7218e-05,4.3204e+07,-10.51,0,6.1539e+07,-4.8891,11997,10083,1,10083,1,-0.00048939,-2.5424e-09,0,9.5333e-06,-0.00018681,-1.9902e+08,-742.97,0,1.6774e+06,-45.419,10082,11053,1,11053,1,-0.00012905,-8.1208e-10,0,0.00019402,-0.00011941,-5.2439e+07,-135.41,0,4.3609e+07,-11.8,11052,12943,1,12943,1,0.00064705,2.8143e-10,0,0.00064705,2.4879e-05,6.1539e+07,44.71,0,7.3766e+07,0.37221,12942,1091.8,0,1091.8,0,0.00044786,8.7334e-10,0,0.00028603,8.3391e-05,8.3435e+07,138.45,0,4.5459e+07,72.985,1091.8,1
3780,2.73,11998,1,11998,1,0.00025995,2.6219e-11,0,0.00043264,-4.7422e-05,10.353,-1.2867,0,7.0212e+07,10.251,11997,13888,1,13888,1,0.0010111,2.8807e-09,0,0.0010111,9.2534e-05,7.5925e+07,319.96,0,1.9975e+08,754.69,13887,11998,1,11998,1,0.00025995,4.3161e-11,0,0.00038948,-4.7392e-05,4.3363e+07,8.7106,0,6.1766e+07,-4.9845,11997,10083,1,10083,1,-0.00049119,-2.0358e-09,0,9.5687e-06,-0.00018749,-1.9975e+08,-656.92,0,1.6836e+06,-37.118,10082,11053,1,11053,1,-0.00012953,-4.6969e-10,0,0.00019474,-0.00011985,-5.2632e+07,-75.592,0,4.377e+07,-11.166,11052,12943,1,12943,1,0.00064943,4.8878e-10,0,0.00064943,2.497e-05,6.1766e+07,76.273,0,7.4038e+07,-0.17197,12942,1091.8,0,1091.8,0,0.0004495,7.5102e-10,0,0.00028709,8.3697e-05,8.3742e+07,119.3,0,4.5626e+07,71.827,1091.8,1
3780,2.74,11998,1,11998,1,0.0002609,-1.0522e-10,0,0.00043422,-4.7596e-05,56.972,-21.55,0,7.0469e+07,7.5221,11997,13888,1,13888,1,0.0010148,2.7743e-09,0,0.0010148,9.2873e-05,7.6203e+07,312.5,0,2.0049e+08,741.55,13887,11998,1,11998,1,0.0002609,-4.8757e-11,0,0.0003909,-4.7566e-05,4.3521e+07,-6.7814,0,6.1992e+07,-7.5231,11997,10083,1,10083,1,-0.00049299,-2.1435e-09,0,9.6043e-06,-0.00018818,-2.0049e+08,-678.89,0,1.69e+06,-32.094,10082,11053,1,11053,1,-0.00013,-5.4774e-10,0,0.00019545,-0.00012029,-5.2824e+07,-90.508,0,4.393e+07,-13.777,11052,12943,1,12943,1,0.00065181,2.8857e-10,0,0.00065181,2.5061e-05,6.1992e+07,46.927,0,7.4309e+07,-2.4473,12942,1091.8,0,1091.8,0,0.00045115,7.0805e-10,0,0.00028814,8.4004e-05,8.4049e+07,113.76,0,4.5793e+07,70.695,1091.8,1
3780,2.75,11998,1,11998,1,0.00026185,-1.6129e-10,0,0.00043581,-4.7769e-05,13.592,-29.101,0,7.0726e+07,13.035,11997,13888,1,13888,1,0.0010185,3.0247e-09,0,0.0010185,9.3211e-05,7.648e+07,243.28,0,2.0122e+08,754.25,13887,11998,1,11998,1,0.00026185,-4.4865e-11,0,0.00039233,-4.7739e-05,4.368e+07,-7.4441,0,6.2218e+07,-3.2666,11997,10083,1,10083,1,-0.00049478,-1.9692e-09,0,9.6392e-06,-0.00018886,-2.0122e+08,-650.54,0,1.6961e+06,-20.58,10082,11053,1,11053,1,-0.00013048,-4.3354e-10,0,0.00019616,-0.00012073,-5.3017e+07,-70.694,0,4.409e+07,-6.8868,11052,12943,1,12943,1,0.00065418,1.1597e-10,0,0.00065418,2.5153e-05,6.2218e+07,18.2,0,7.458e+07,0.12325,12942,1091.8,0,1091.8,0,0.00045279,5.0446e-10,0,0.00028919,8.431e-05,8.4355e+07,85.291,0,4.596e+07,70.911,1091.8,1
3780,2.76,11998,1,11998,1,0.00026281,-7.5898e-11,0,0.0004374,-4.7943e-05,48.841,-17.547,0,7.0984e+07,5.3185,11997,13888,1,13888,1,0.0010222,2.2465e-09,0,0.0010222,9.3551e-05,7.676e+07,350.53,0,2.0195e+08,754.52,13887,11998,1,11998,1,0.00026281,4.6548e-12,0,0.00039376,-4.7914e-05,4.384e+07,0.52077,0,6.2445e+07,-9.4259,11997,10083,1,10083,1,-0.00049659,-2.6301e-09,0,9.6749e-06,-0.00018955,-2.0195e+08,-760.65,0,1.7024e+06,-38.288,10082,11053,1,11053,1,-0.00013095,-6.0553e-10,0,0.00019688,-0.00012117,-5.321e+07,-98.976,0,4.4251e+07,-17.159,11052,12943,1,12943,1,0.00065657,4.334e-10,0,0.00065657,2.5245e-05,6.2445e+07,68.99,0,7.4852e+07,-3.1999,12942,1091.8,0,1091.8,0,0.00045445,8.56e-10,0,0.00029024,8.4618e-05,8.4663e+07,137.26,0,4.6128e+07,71.545,1091.8,1
3780,2.77,11998,1,11998,1,0.00026376,-2.1853e-10,0,0.00043898,-4.8117e-05,8.6377,-38.407,0,7.124e+07,11.224,11997,13888,1,13888,1,0.0010259,2.5641e-09,0,0.0010259,9.3889e-05,7.7037e+07,245.31,0,2.0268e+08,767.96,13887,11998,1,11998,1,0.00026376,-5.008e-11,0,0.00039518,-4.8087e-05,4.3998e+07,-7.4177,0,6.267e+07,-4.2992,11997,10083,1,10083,1,-0.00049838,-2.3892e-09,0,9.7097e-06,-0.00019024,-2.0268e+08,-725.62,0,1.7085e+06,-32.729,10082,11053,1,11053,1,-0.00013143,-6.3818e-10,0,0.00019759,-0.00012161,-5.3403e+07,-105.11,0,4.4411e+07,-9.9781,11052,12943,1,12943,1,0.00065894,2.1762e-10,0,0.00065894,2.5336e-05,6.267e+07,35.412,0,7.5122e+07,0.30373,12942,1091.8,0,1091.8,0,0.00045609,7.1225e-10,0,0.00029129,8.4924e-05,8.4969e+07,116.29,0,4.6295e+07,72.578,1091.8,1
3780,2.78,11998,1,11998,1,0.00026471,-4.6222e-11,0,0.00044056,-4.829e-05,13.359,-11.847,0,7.1497e+07,10.954,11997,13888,1,13888,1,0.0010296,2.9852e-09,0,0.0010296,9.4228e-05,7.7315e+07,285.86,0,2.0341e+08,775.74,13887,11998,1,11998,1,0.00026471,2.5124e-11,0,0.00039661,-4.826e-05,4.4157e+07,4.0258,0,6.2896e+07,-4.7255,11997,10083,1,10083,1,-0.00050018,-2.0649e-09,0,9.7449e-06,-0.00019093,-2.0341e+08,-665.7,0,1.7148e+06,-38.429,10082,11053,1,11053,1,-0.0001319,-5.0613e-10,0,0.0001983,-0.00012204,-5.3595e+07,-81.734,0,4.4571e+07,-10.249,11052,12943,1,12943,1,0.00066132,3.9621e-10,0,0.00066132,2.5427e-05,6.2896e+07,61.928,0,7.5393e+07,-0.17791,12942,1091.8,0,1091.8,0,0.00045773,7.1749e-10,0,0.00029234,8.523e-05,8.5275e+07,114.9,0,4.6462e+07,73.457,1091.8,1
3780,2.79,11998,1,11998,1,0.00026566,-8.4178e-11,0,0.00044215,-4.8464e-05,54.932,-18.078,0,7.1755e+07,6.2129,11997,13888,1,13888,1,0.0010333,2.6452e-09,0,0.0010333,9.4567e-05,7.7594e+07,302.21,0,2.0414e+08,758.05,13887,11998,1,11998,1,0.00026566,7.6255e-12,0,0.00039804,-4.8434e-05,4.4316e+07,0.86914,0,6.3123e+07,-8.9747,11997,10083,1,10083,1,-0.00050198,-2.3136e-09,0,9.7807e-06,-0.00019161,-2.0414e+08,-711.59,0,1.7211e+06,-36.516,10082,11053,1,11053,1,-0.00013237,-5.2943e-10,0,0.00019902,-0.00012248,-5.3788e+07,-85.845,0,4.4732e+07,-15.542,11052,12943,1,12943,1,0.0006637,3.4694e-10,0,0.0006637,2.5519e-05,6.3123e+07,55.109,0,7.5665e+07,-3.4237,12942,1091.8,0,1091.8,0,0.00045938,7.1667e-10,0,0.0002934,8.5537e-05,8.5583e+07,117.17,0,4.6629e+07,71.72,1091.8,1
3780,2.8,11998,1,11998,1,0.00026662,-2.472e-10,0,0.00044374,-4.8639e-05,44.256,-45.119,0,7.2013e+07,4.6988,11997,13888,1,13888,1,0.001037,1.9127e-09,0,0.001037,9.4907e-05,7.7872e+07,364.79,0,2.0488e+08,772.79,13887,11998,1,11998,1,0.00026662,-7.3538e-11,0,0.00039947,-4.8608e-05,4.4475e+07,-11.645,0,6.3349e+07,-9.9833,11997,10083,1,10083,1,-0.00050379,-3.0791e-09,0,9.8159e-06,-0.0001923,-2.0488e+08,-841.74,0,1.7273e+06,-50.036,10082,11053,1,11053,1,-0.00013285,-9.451e-10,0,0.00019973,-0.00012292,-5.3981e+07,-156,0,4.4892e+07,-18.704,11052,12943,1,12943,1,0.00066609,4.4077e-10,0,0.00066609,2.561e-05,6.3349e+07,72.401,0,7.5937e+07,-2.5562,12942,1091.8,0,1091.8,0,0.00046103,1.1076e-09,0,0.00029445,8.5844e-05,8.589e+07,172.79,0,4.6796e+07,74.644,1091.8,1
3780,2.81,11998,1,11998,1,0.00026757,-1.5921e-10,0,0.00044532,-4.8812e-05,7.4466,-29.78,0,7.2269e+07,12.596,11997,13888,1,13888,1,0.0010407,2.9762e-09,0,0.0010407,9.5245e-05,7.8149e+07,238.81,0,2.0561e+08,776.48,13887,11998,1,11998,1,0.00026757,-4.3382e-11,0,0.00040089,-4.8781e-05,4.4633e+07,-6.6676,0,6.3574e+07,-3.7028,11997,10083,1,10083,1,-0.00050558,-2.1254e-09,0,9.8508e-06,-0.00019299,-2.0561e+08,-682.05,0,1.7335e+06,-27.484,10082,11053,1,11053,1,-0.00013332,-5.4147e-10,0,0.00020044,-0.00012336,-5.4173e+07,-89.209,0,4.5052e+07,-9.7139,11052,12943,1,12943,1,0.00066846,2.1974e-10,0,0.00066846,2.5701e-05,6.3574e+07,34.929,0,7.6207e+07,0.61505,12942,1091.8,0,1091.8,0,0.00046267,6.4171e-10,0,0.0002955,8.615e-05,8.6196e+07,104.43,0,4.6963e+07,73.866,1091.8,1
3780,2.82,11998,1,11998,1,0.00026852,-9.4976e-11,0,0.0004469,-4.8985e-05,5.89,-19.261,0,7.2526e+07,12.175,11997,13888,1,13888,1,0.0010444,2.9537e-09,0,0.0010444,9.5584e-05,7.8427e+07,258.5,0,2.0634e+08,786.11,13887,11998,1,11998,1,0.00026852,1.5717e-11,0,0.00040231,-4.8955e-05,4.4792e+07,1.958,0,6.38e+07,-3.8405,11997,10083,1,10083,1,-0.00050738,-2.15e-09,0,9.886e-06,-0.00019367,-2.0634e+08,-686.88,0,1.7397e+06,-36.531,10082,11053,1,11053,1,-0.0001338,-5.3077e-10,0,0.00020116,-0.0001238,-5.4366e+07,-84.922,0,4.5212e+07,-8.534,11052,12943,1,12943,1,0.00067084,3.4059e-10,0,0.00067084,2.5793e-05,6.38e+07,54.053,0,7.6478e+07,0.54483,12942,1091.8,0,1091.8,0,0.00046432,6.9617e-10,0,0.00029655,8.6456e-05,8.6502e+07,112.76,0,4.713e+07,74.378,1091.8,1
3780,2.83,11998,1,11998,1,0.00026948,-1.3079e-10,0,0.00044849,-4.916e-05,28.294,-25.624,0,7.2784e+07,7.4554,11997,13888,1,13888,1,0.0010481,2.3876e-09,0,0.0010481,9.5924e-05,7.8707e+07,361.76,0,2.0707e+08,803.65,13887,11998,1,11998,1,0.00026947,2.4238e-11,0,0.00040375,-4.9129e-05,4.4952e+07,4.7748,0,6.4027e+07,-6.7467,11997,10083,1,10083,1,-0.00050919,-2.6408e-09,0,9.9215e-06,-0.00019436,-2.0707e+08,-766.53,0,1.746e+06,-73.626,10082,11053,1,11053,1,-0.00013427,-8.9455e-10,0,0.00020187,-0.00012424,-5.4559e+07,-146.67,0,4.5373e+07,-15.413,11052,12943,1,12943,1,0.00067322,6.2705e-10,0,0.00067322,2.5885e-05,6.4027e+07,102.04,0,7.675e+07,0.26959,12942,1091.8,0,1091.8,0,0.00046597,1.1566e-09,0,0.00029761,8.6764e-05,8.681e+07,178.16,0,4.7298e+07,78.194,1091.8,1
3780,2.84,11998,1,11998,1,0.00027043,-7.4344e-11,0,0.00045007,-4.9333e-05,31.092,-17.151,0,7.304e+07,8.8829,11997,13888,1,13888,1,0.0010518,2.6221e-09,0,0.0010518,9.6262e-05,7.8984e+07,296.46,0,2.078e+08,788.46,13887,11998,1,11998,1,0.00027042,6.2917e-12,0,0.00040517,-4.9302e-05,4.511e+07,0.73563,0,6.4253e+07,-7.0048,11997,10083,1,10083,1,-0.00051098,-2.493e-09,0,9.9569e-06,-0.00019505,-2.078e+08,-742.5,0,1.7522e+06,-33.606,10082,11053,1,11053,1,-0.00013474,-5.5068e-10,0,0.00020258,-0.00012468,-5.4751e+07,-89.546,0,4.5533e+07,-13.702,11052,12943,1,12943,1,0.0006756,3.989e-10,0,0.0006756,2.5976e-05,6.4253e+07,63.325,0,7.7021e+07,-1.2558,12942,1091.8,0,1091.8,0,0.00046761,7.7668e-10,0,0.00029865,8.707e-05,8.7116e+07,125.77,0,4.7464e+07,74.326,1091.8,1
3780,2.85,11998,1,11998,1,0.00027138,-2.1256e-10,0,0.00045166,-4.9507e-05,4.7258,-37.861,0,7.3297e+07,10.995,11997,13888,1,13888,1,0.0010555,2.8024e-09,0,0.0010555,9.6601e-05,7.9262e+07,323.34,0,2.0853e+08,797.64,13887,11998,1,11998,1,0.00027137,-6.8078e-11,0,0.00040659,-4.9476e-05,4.5269e+07,-11.498,0,6.4479e+07,-4.2251,11997,10083,1,10083,1,-0.00051278,-2.3273e-09,0,9.9918e-06,-0.00019573,-2.0853e+08,-721.55,0,1.7584e+06,-43.012,10082,11053,1,11053,1,-0.00013522,-7.6424e-10,0,0.0002033,-0.00012512,-5.4944e+07,-126.71,0,4.5693e+07,-13.658,11052,12943,1,12943,1,0.00067797,3.2135e-10,0,0.00067797,2.6067e-05,6.4479e+07,51.723,0,7.7292e+07,1.2527,12942,1091.8,0,1091.8,0,0.00046926,8.8269e-10,0,0.00029971,8.7376e-05,8.7422e+07,138.38,0,4.7631e+07,76.452,1091.8,1
3780,2.86,11998,1,11998,1,0.00027233,-1.4957e-10,0,0.00045324,-4.9681e-05,34.777,-28.75,0,7.3555e+07,7.5643,11997,13888,1,13888,1,0.0010592,2.3934e-09,0,0.0010592,9.694e-05,7.9541e+07,302.24,0,2.0927e+08,792.81,13887,11998,1,11998,1,0.00027233,-1.0935e-11,0,0.00040802,-4.965e-05,4.5428e+07,-1.3462,0,6.4705e+07,-8.2059,11997,10083,1,10083,1,-0.00051458,-2.6815e-09,0,1.0027e-05,-0.00019642,-2.0927e+08,-781.12,0,1.7647e+06,-40.255,10082,11053,1,11053,1,-0.00013569,-6.612e-10,0,0.00020401,-0.00012556,-5.5137e+07,-107.1,0,4.5854e+07,-14.982,11052,12943,1,12943,1,0.00068036,3.7125e-10,0,0.00068036,2.6159e-05,6.4705e+07,59.5,0,7.7564e+07,-2.1728,12942,1091.8,0,1091.8,0,0.00047091,8.421e-10,0,0.00030076,8.7683e-05,8.773e+07,135.82,0,4.7799e+07,75.146,1091.8,1
3780,2.87,11998,1,11998,1,0.00027328,-5.949e-11,0,0.00045483,-4.9854e-05,18.796,-14.098,0,7.3811e+07,11.45,11997,13888,1,13888,1,0.0010629,3.1063e-09,0,0.0010629,9.7278e-05,7.9818e+07,250.56,0,2.0999e+08,788.94,13887,11998,1,11998,1,0.00027328,-7.3128e-12,0,0.00040945,-4.9823e-05,4.5587e+07,-1.0053,0,6.4931e+07,-5.1252,11997,10083,1,10083,1,-0.00051637,-2.0941e-09,0,1.0063e-05,-0.00019711,-2.0999e+08,-680.13,0,1.7709e+06,-22.518,10082,11053,1,11053,1,-0.00013617,-3.6665e-10,0,0.00020472,-0.000126,-5.5329e+07,-58.48,0,4.6014e+07,-10.437,11052,12943,1,12943,1,0.00068273,2.3422e-10,0,0.00068273,2.625e-05,6.4931e+07,36.581,0,7.7834e+07,-1.0818,12942,1091.8,0,1091.8,0,0.00047255,5.5294e-10,0,0.00030181,8.7989e-05,8.8036e+07,92.203,0,4.7966e+07,74.236,1091.8,1
3780,2.88,11998,1,11998,1,0.00027424,-9.1622e-11,0,0.00045641,-5.0028e-05,16.971,-19.157,0,7.4069e+07,10.063,11997,13888,1,13888,1,0.0010667,2.3058e-09,0,0.0010667,9.7618e-05,8.0097e+07,357.32,0,2.1073e+08,798.98,13887,11998,1,11998,1,0.00027423,2.9071e-11,0,0.00041088,-4.9997e-05,4.5746e+07,3.8314,0,6.5157e+07,-4.8524,11997,10083,1,10083,1,-0.00051818,-2.7935e-09,0,1.0098e-05,-0.0001978,-2.1073e+08,-804.55,0,1.7772e+06,-43.26,10082,11053,1,11053,1,-0.00013664,-6.86e-10,0,0.00020544,-0.00012644,-5.5522e+07,-110.82,0,4.6174e+07,-12.915,11052,12943,1,12943,1,0.00068511,5.0469e-10,0,0.00068511,2.6342e-05,6.5157e+07,79.868,0,7.8106e+07,0.61078,12942,1091.8,0,1091.8,0,0.0004742,9.4009e-10,0,0.00030286,8.8296e-05,8.8343e+07,151.42,0,4.8133e+07,75.57,1091.8,1
3780,2.89,11998,1,11998,1,0.00027519,-8.6389e-11,0,0.00045799,-5.0202e-05,4.0346,-18.623,0,7.4326e+07,12.41,11997,13888,1,13888,1,0.0010703,2.833e-09,0,0.0010703,9.7956e-05,8.0374e+07,287.21,0,2.1146e+08,805.46,13887,11998,1,11998,1,0.00027518,2.367e-11,0,0.0004123,-5.017e-05,4.5904e+07,5.0752,0,6.5383e+07,-3.5061,11997,10083,1,10083,1,-0.00051997,-2.3661e-09,0,1.0133e-05,-0.00019848,-2.1146e+08,-734.55,0,1.7834e+06,-44.846,10082,11053,1,11053,1,-0.00013712,-6.3386e-10,0,0.00020615,-0.00012687,-5.5715e+07,-102.68,0,4.6334e+07,-8.5984,11052,12943,1,12943,1,0.00068749,4.6366e-10,0,0.00068749,2.6433e-05,6.5383e+07,73.618,0,7.8377e+07,1.2942,12942,1091.8,0,1091.8,0,0.00047585,8.4031e-10,0,0.00030391,8.8602e-05,8.8649e+07,134.35,0,4.83e+07,76.796,1091.8,1
3780,2.9,11998,1,11998,1,0.00027614,1.87e-12,0,0.00045958,-5.0375e-05,9.0088,-5.4346,0,7.4583e+07,12.27,11997,13888,1,13888,1,0.001074,2.8404e-09,0,0.001074,9.8295e-05,8.0652e+07,273.1,0,2.1219e+08,793.43,13887,11998,1,11998,1,0.00027614,3.9013e-11,0,0.00041373,-5.0344e-05,4.6063e+07,7.4277,0,6.5609e+07,-3.9258,11997,10083,1,10083,1,-0.00052177,-2.3676e-09,0,1.0168e-05,-0.00019917,-2.1219e+08,-735.26,0,1.7896e+06,-22.039,10082,11053,1,11053,1,-0.00013759,-3.6517e-10,0,0.00020686,-0.00012731,-5.5908e+07,-57.066,0,4.6495e+07,-9.7481,11052,12943,1,12943,1,0.00068987,3.9342e-10,0,0.00068987,2.6524e-05,6.5609e+07,60.875,0,7.8648e+07,0.31428,12942,1091.8,0,1091.8,0,0.00047749,6.458e-10,0,0.00030496,8.8909e-05,8.8955e+07,108.69,0,4.8467e+07,74.341,1091.8,1
3780,2.91,11998,1,11998,1,0.00027709,-7.8777e-11,0,0.00046117,-5.0549e-05,29.141,-17.813,0,7.484e+07,8.889,11997,13888,1,13888,1,0.0010778,2.4e-09,0,0.0010778,9.8635e-05,8.0931e+07,328.23,0,2.1292e+08,799.04,13887,11998,1,11998,1,0.00027709,2.2861e-11,0,0.00041516,-5.0518e-05,4.6222e+07,4.4349,0,6.5836e+07,-6.5047,11997,10083,1,10083,1,-0.00052357,-2.7464e-09,0,1.0204e-05,-0.00019986,-2.1292e+08,-799.72,0,1.7959e+06,-44.127,10082,11053,1,11053,1,-0.00013807,-6.5029e-10,0,0.00020758,-0.00012775,-5.61e+07,-103.79,0,4.6655e+07,-13.515,11052,12943,1,12943,1,0.00069225,5.0935e-10,0,0.00069225,2.6616e-05,6.5836e+07,80.52,0,7.892e+07,-0.62743,12942,1091.8,0,1091.8,0,0.00047914,9.068e-10,0,0.00030602,8.9216e-05,8.9263e+07,146.38,0,4.8634e+07,76.029,1091.8,1
3780,2.92,11998,1,11998,1,0.00027804,-7.0353e-11,0,0.00046275,-5.0723e-05,26.569,-16.509,0,7.5097e+07,10.703,11997,13888,1,13888,1,0.0010815,2.872e-09,0,0.0010815,9.8973e-05,8.1209e+07,237.02,0,2.1365e+08,796.41,13887,11998,1,11998,1,0.00027804,-9.7448e-12,0,0.00041658,-5.0691e-05,4.6381e+07,-0.85352,0,6.6061e+07,-5.6071,11997,10083,1,10083,1,-0.00052537,-2.3693e-09,0,1.0239e-05,-0.00020054,-2.1365e+08,-732.48,0,1.8022e+06,-27.197,10082,11053,1,11053,1,-0.00013854,-4.0119e-10,0,0.00020829,-0.00012819,-5.6293e+07,-64.502,0,4.6815e+07,-10.865,11052,12943,1,12943,1,0.00069463,2.8573e-10,0,0.00069463,2.6707e-05,6.6061e+07,44.824,0,7.9191e+07,-1.3738,12942,1091.8,0,1091.8,0,0.00048079,6.0204e-10,0,0.00030707,8.9522e-05,8.9569e+07,101.32,0,4.8801e+07,75.025,1091.8,1
3780,2.93,11998,1,11998,1,0.000279,5.8059e-11,0,0.00046433,-5.0896e-05,2.512,3.0886,0,7.5354e+07,13.628,11997,13888,1,13888,1,0.0010852,3.4646e-09,0,0.0010852,9.9311e-05,8.1486e+07,280.61,0,2.1438e+08,795.45,13887,11998,1,11998,1,0.00027899,9.457e-12,0,0.00041801,-5.0865e-05,4.654e+07,1.1677,0,6.6287e+07,-3.4621,11997,10083,1,10083,1,-0.00052716,-1.917e-09,0,1.0274e-05,-0.00020123,-2.1438e+08,-653.58,0,1.8084e+06,-18.945,10082,11053,1,11053,1,-0.00013901,-2.137e-10,0,0.000209,-0.00012863,-5.6485e+07,-33.287,0,4.6975e+07,-7.3247,11052,12943,1,12943,1,0.000697,2.8868e-10,0,0.000697,2.6798e-05,6.6287e+07,45.002,0,7.9461e+07,-0.0025072,12942,1091.8,0,1091.8,0,0.00048243,5.0311e-10,0,0.00030812,8.9828e-05,8.9875e+07,84.269,0,4.8968e+07,74.547,1091.8,1
3780,2.94,11998,1,11998,1,0.00027995,-5.4863e-11,0,0.00046592,-5.1071e-05,3.4986,-14.093,0,7.5612e+07,11.567,11997,13888,1,13888,1,0.0010889,2.9479e-09,0,0.0010889,9.9651e-05,8.1765e+07,325.05,0,2.1512e+08,807.41,13887,11998,1,11998,1,0.00027995,-1.2687e-11,0,0.00041944,-5.1039e-05,4.6699e+07,-1.0915,0,6.6514e+07,-4.5412,11997,10083,1,10083,1,-0.00052897,-2.3118e-09,0,1.031e-05,-0.00020192,-2.1512e+08,-729.27,0,1.8146e+06,-31.155,10082,11053,1,11053,1,-0.00013949,-5.4875e-10,0,0.00020972,-0.00012907,-5.6679e+07,-88.109,0,4.7136e+07,-11.248,11052,12943,1,12943,1,0.00069939,4.0793e-10,0,0.00069939,2.689e-05,6.6514e+07,65.348,0,7.9733e+07,-0.16191,12942,1091.8,0,1091.8,0,0.00048408,7.7219e-10,0,0.00030917,9.0136e-05,9.0183e+07,123.52,0,4.9135e+07,76.536,1091.8,1
3780,2.95,11998,1,11998,1,0.0002809,-3.1534e-11,0,0.0004675,-5.1244e-05,7.0163,-10.636,0,7.5868e+07,11.691,11997,13888,1,13888,1,0.0010926,3.0813e-09,0,0.0010926,9.9989e-05,8.2043e+07,289.63,0,2.1585e+08,807.98,13887,11998,1,11998,1,0.0002809,-1.1629e-11,0,0.00042086,-5.1212e-05,4.6857e+07,-1.0057,0,6.6739e+07,-5.0601,11997,10083,1,10083,1,-0.00053076,-2.2285e-09,0,1.0345e-05,-0.0002026,-2.1585e+08,-715.34,0,1.8209e+06,-21.007,10082,11053,1,11053,1,-0.00013996,-4.081e-10,0,0.00021043,-0.00012951,-5.6871e+07,-64.661,0,4.7296e+07,-11.399,11052,12943,1,12943,1,0.00070176,3.2401e-10,0,0.00070176,2.6981e-05,6.6739e+07,51.268,0,8.0004e+07,-0.74731,12942,1091.8,0,1091.8,0,0.00048572,6.3851e-10,0,0.00031022,9.0442e-05,9.0489e+07,104.9,0,4.9302e+07,76.192,1091.8,1
3780,2.96,11998,1,11998,1,0.00028185,-6.1318e-11,0,0.00046909,-5.1418e-05,5.2373,-14.679,0,7.6125e+07,13.127,11997,13888,1,13888,1,0.0010963,3.3612e-09,0,0.0010963,0.00010033,8.2321e+07,271.38,0,2.1658e+08,821.5,13887,11998,1,11998,1,0.00028185,-3.8422e-12,0,0.00042229,-5.1386e-05,4.7016e+07,-0.44441,0,6.6965e+07,-4.1032,11997,10083,1,10083,1,-0.00053256,-2.0205e-09,0,1.038e-05,-0.00020329,-2.1658e+08,-679.77,0,1.8271e+06,-31.201,10082,11053,1,11053,1,-0.00014044,-4.7685e-10,0,0.00021114,-0.00012995,-5.7064e+07,-76.612,0,4.7456e+07,-9.2872,11052,12943,1,12943,1,0.00070414,3.3913e-10,0,0.00070414,2.7073e-05,6.6965e+07,53.758,0,8.0275e+07,0.14755,12942,1091.8,0,1091.8,0,0.00048737,6.6631e-10,0,0.00031127,9.0748e-05,9.0796e+07,106.26,0,4.9469e+07,78.304,1091.8,1
3780,2.97,11998,1,11998,1,0.00028281,3.733e-11,0,0.00047067,-5.1591e-05,6.4724,0.094202,0,7.6382e+07,12.857,11997,13888,1,13888,1,0.0011,3.2411e-09,0,0.0011,0.00010067,8.2599e+07,273.71,0,2.1731e+08,814.89,13887,11998,1,11998,1,0.0002828,2.5719e-11,0,0.00042371,-5.1559e-05,4.7175e+07,4.7529,0,6.7191e+07,-4.0201,11997,10083,1,10083,1,-0.00053436,-2.1393e-09,0,1.0416e-05,-0.00020397,-2.1731e+08,-702.06,0,1.8334e+06,-23.569,10082,11053,1,11053,1,-0.00014091,-3.0962e-10,0,0.00021186,-0.00013039,-5.7256e+07,-47.473,0,4.7617e+07,-9.8576,11052,12943,1,12943,1,0.00070652,3.9232e-10,0,0.00070652,2.7164e-05,6.7191e+07,61.215,0,8.0546e+07,-0.15495,12942,1091.8,0,1091.8,0,0.00048902,6.0839e-10,0,0.00031233,9.1055e-05,9.1102e+07,101.01,0,4.9636e+07,76.827,1091.8,1
3780,2.98,11998,1,11998,1,0.00028376,4.4801e-11,0,0.00047226,-5.1765e-05,13.211,1.4966,0,7.664e+07,12.457,11997,13888,1,13888,1,0.0011037,3.2108e-09,0,0.0011037,0.00010101,8.2877e+07,311.21,0,2.1804e+08,818.83,13887,11998,1,11998,1,0.00028376,2.5272e-11,0,0.00042514,-5.1733e-05,4.7334e+07,4.2702,0,6.7418e+07,-4.3381,11997,10083,1,10083,1,-0.00053616,-2.1796e-09,0,1.0451e-05,-0.00020466,-2.1804e+08,-706.04,0,1.8396e+06,-26.107,10082,11053,1,11053,1,-0.00014138,-3.6984e-10,0,0.00021257,-0.00013083,-5.7449e+07,-58.488,0,4.7777e+07,-11.173,11052,12943,1,12943,1,0.0007089,4.4471e-10,0,0.0007089,2.7256e-05,6.7418e+07,69.555,0,8.0818e+07,0.30497,12942,1091.8,0,1091.8,0,0.00049067,6.802e-10,0,0.00031338,9.1362e-05,9.1409e+07,110.68,0,4.9804e+07,77.479,1091.8,1
3780,2.99,11998,1,11998,1,0.00028471,-7.4982e-11,0,0.00047384,-5.1939e-05,20.074,-17.199,0,7.6896e+07,12.994,11997,13888,1,13888,1,0.0011074,3.4693e-09,0,0.0011074,0.00010134,8.3155e+07,280.74,0,2.1877e+08,819.08,13887,11998,1,11998,1,0.00028471,-2.1898e-11,0,0.00042657,-5.1907e-05,4.7493e+07,-3.4993,0,6.7643e+07,-4.8086,11997,10083,1,10083,1,-0.00053796,-1.9999e-09,0,1.0486e-05,-0.00020535,-2.1877e+08,-678.41,0,1.8459e+06,-22.996,10082,11053,1,11053,1,-0.00014186,-4.1266e-10,0,0.00021328,-0.00013126,-5.7641e+07,-66.131,0,4.7937e+07,-10.041,11052,12943,1,12943,1,0.00071128,2.4657e-10,0,0.00071128,2.7347e-05,6.7643e+07,39.361,0,8.1089e+07,-1.0066,12942,1091.8,0,1091.8,0,0.00049231,5.6939e-10,0,0.00031443,9.1668e-05,9.1715e+07,93.055,0,4.997e+07,78.056,1091.8,1
3780,3,11998,1,11998,1,0.00028567,-1.0965e-10,0,0.00047543,-5.2113e-05,8.2519,-22.041,0,7.7154e+07,10.152,11997,13888,1,13888,1,0.0011111,2.6905e-09,0,0.0011111,0.00010168,8.3434e+07,324.27,0,2.1951e+08,832.67,13887,11998,1,11998,1,0.00028566,-1.1295e-11,0,0.000428,-5.2081e-05,4.7652e+07,-1.0923,0,6.787e+07,-6.1793,11997,10083,1,10083,1,-0.00053976,-2.6376e-09,0,1.0522e-05,-0.00020604,-2.1951e+08,-790.94,0,1.8521e+06,-35.169,10082,11053,1,11053,1,-0.00014233,-6.2784e-10,0,0.000214,-0.0001317,-5.7835e+07,-100.27,0,4.8098e+07,-13.593,11052,12943,1,12943,1,0.00071366,4.0464e-10,0,0.00071366,2.7439e-05,6.787e+07,64.285,0,8.1361e+07,-1.0609,12942,1091.8,0,1091.8,0,0.00049396,8.3727e-10,0,0.00031548,9.1975e-05,9.2023e+07,134.4,0,5.0138e+07,78.811,1091.8,1
3780,3.01,11998,1,11998,1,0.00028662,-1.4119e-10,0,0.00047701,-5.2287e-05,5.4815,-27.564,0,7.7411e+07,12.679,11997,13888,1,13888,1,0.0011148,3.1073e-09,0,0.0011148,0.00010202,8.3712e+07,265.22,0,2.2024e+08,824.1,13887,11998,1,11998,1,0.00028661,-5.8273e-11,0,0.00042942,-5.2254e-05,4.7811e+07,-10.459,0,6.8096e+07,-4.6654,11997,10083,1,10083,1,-0.00054156,-2.3079e-09,0,1.0557e-05,-0.00020672,-2.2024e+08,-737.15,0,1.8584e+06,-23.605,10082,11053,1,11053,1,-0.00014281,-5.5197e-10,0,0.00021471,-0.00013214,-5.8027e+07,-87.839,0,4.8258e+07,-10.394,11052,12943,1,12943,1,0.00071604,2.4583e-10,0,0.00071604,2.753e-05,6.8096e+07,40.025,0,8.1632e+07,-0.32098,12942,1091.8,0,1091.8,0,0.0004956,6.6661e-10,0,0.00031653,9.2281e-05,9.2329e+07,108.95,0,5.0305e+07,78.02,1091.8,1
3780,3.02,11998,1,11998,1,0.00028757,-1.8546e-10,0,0.0004786,-5.2461e-05,11.07,-33.959,0,7.7669e+07,8.9183,11997,13888,1,13888,1,0.0011185,2.4732e-09,0,0.0011185,0.00010236,8.3991e+07,308.64,0,2.2097e+08,855.97,13887,11998,1,11998,1,0.00028757,-2.5723e-11,0,0.00043085,-5.2428e-05,4.797e+07,-2.3615,0,6.8322e+07,-7.5966,11997,10083,1,10083,1,-0.00054336,-2.8609e-09,0,1.0592e-05,-0.00020741,-2.2097e+08,-827.97,0,1.8646e+06,-49.563,10082,11053,1,11053,1,-0.00014328,-7.9602e-10,0,0.00021543,-0.00013258,-5.822e+07,-127.23,0,4.8418e+07,-15.27,11052,12943,1,12943,1,0.00071842,4.4572e-10,0,0.00071842,2.7621e-05,6.8322e+07,73.095,0,8.1903e+07,-0.97794,12942,1091.8,0,1091.8,0,0.00049725,9.8502e-10,0,0.00031759,9.2589e-05,9.2636e+07,154.77,0,5.0472e+07,81.979,1091.8,1
3780,3.03,11998,1,11998,1,0.00028852,-6.8295e-11,0,0.00048018,-5.2634e-05,37.2,-16.186,0,7.7925e+07,9.1002,11997,13888,1,13888,1,0.0011222,3.176e-09,0,0.0011222,0.0001027,8.4268e+07,274.61,0,2.217e+08,827.49,13887,11998,1,11998,1,0.00028852,-1.2499e-11,0,0.00043228,-5.2602e-05,4.8129e+07,-1.203,0,6.8548e+07,-8.3008,11997,10083,1,10083,1,-0.00054516,-2.2844e-09,0,1.0628e-05,-0.0002081,-2.217e+08,-729.5,0,1.8709e+06,-31.287,10082,11053,1,11053,1,-0.00014375,-4.6809e-10,0,0.00021614,-0.00013302,-5.8412e+07,-74.1,0,4.8579e+07,-14.873,11052,12943,1,12943,1,0.0007208,3.2144e-10,0,0.0007208,2.7713e-05,6.8548e+07,50.915,0,8.2174e+07,-3.2708,12942,1091.8,0,1091.8,0,0.0004989,6.6768e-10,0,0.00031864,9.2895e-05,9.2943e+07,109.08,0,5.0639e+07,78.946,1091.8,1
3780,3.04,11998,1,11998,1,0.00028947,1.2011e-10,0,0.00048177,-5.2808e-05,3.7783,13.329,0,7.8182e+07,13.943,11997,13888,1,13888,1,0.0011259,3.692e-09,0,0.0011259,0.00010304,8.4546e+07,307.36,0,2.2243e+08,841.06,13887,11998,1,11998,1,0.00028947,6.6803e-11,0,0.0004337,-5.2775e-05,4.8287e+07,12.447,0,6.8774e+07,-3.9485,11997,10083,1,10083,1,-0.00054696,-1.9366e-09,0,1.0663e-05,-0.00020878,-2.2243e+08,-660.32,0,1.8771e+06,-25.564,10082,11053,1,11053,1,-0.00014423,-2.7344e-10,0,0.00021685,-0.00013346,-5.8605e+07,-42.715,0,4.8739e+07,-9.5307,11052,12943,1,12943,1,0.00072318,4.8116e-10,0,0.00072318,2.7804e-05,6.8774e+07,75.798,0,8.2445e+07,0.14886,12942,1091.8,0,1091.8,0,0.00050054,6.3011e-10,0,0.00031969,9.3201e-05,9.3249e+07,101.4,0,5.0806e+07,79.774,1091.8,1
3780,3.05,11998,1,11998,1,0.00029043,-2.5679e-11,0,0.00048335,-5.2981e-05,2.7684,-9.3092,0,7.8439e+07,14.426,11997,13888,1,13888,1,0.0011296,3.5473e-09,0,0.0011296,0.00010338,8.4824e+07,287.1,0,2.2316e+08,846.65,13887,11998,1,11998,1,0.00029042,6.5033e-12,0,0.00043513,-5.2949e-05,4.8446e+07,0.44376,0,6.9e+07,-3.6598,11997,10083,1,10083,1,-0.00054875,-2.0258e-09,0,1.0698e-05,-0.00020947,-2.2316e+08,-690.7,0,1.8833e+06,-27.38,10082,11053,1,11053,1,-0.0001447,-4.115e-10,0,0.00021756,-0.0001339,-5.8798e+07,-64.802,0,4.8899e+07,-8.3083,11052,12943,1,12943,1,0.00072555,3.4785e-10,0,0.00072555,2.7895e-05,6.9e+07,54.882,0,8.2716e+07,0.5083,12942,1091.8,0,1091.8,0,0.00050219,6.3191e-10,0,0.00032074,9.3507e-05,9.3555e+07,102.21,0,5.0973e+07,80.376,1091.8,1
3780,3.06,11998,1,11998,1,0.00029138,-1.1186e-10,0,0.00048494,-5.3155e-05,9.1677,-22.925,0,7.8697e+07,12.501,11997,13888,1,13888,1,0.0011333,3.0716e-09,0,0.0011333,0.00010372,8.5103e+07,273.55,0,2.239e+08,840.22,13887,11998,1,11998,1,0.00029138,-2.8763e-11,0,0.00043655,-5.3122e-05,4.8605e+07,-4.7579,0,6.9226e+07,-4.8957,11997,10083,1,10083,1,-0.00055055,-2.4238e-09,0,1.0734e-05,-0.00021016,-2.239e+08,-761.39,0,1.8896e+06,-24.378,10082,11053,1,11053,1,-0.00014518,-5.0613e-10,0,0.00021828,-0.00013434,-5.899e+07,-79.908,0,4.9059e+07,-11.447,11052,12943,1,12943,1,0.00072793,2.7762e-10,0,0.00072793,2.7987e-05,6.9226e+07,44.073,0,8.2988e+07,-0.48943,12942,1091.8,0,1091.8,0,0.00050384,6.7249e-10,0,0.00032179,9.3814e-05,9.3862e+07,111.11,0,5.114e+07,79.366,1091.8,1
3780,3.07,11998,1,11998,1,0.00029233,-1.3503e-10,0,0.00048652,-5.3329e-05,3.9844,-26.223,0,7.8954e+07,12.295,11997,13888,1,13888,1,0.001137,3.0208e-09,0,0.001137,0.00010406,8.5381e+07,304.04,0,2.2463e+08,843.81,13887,11998,1,11998,1,0.00029233,-4.9373e-11,0,0.00043798,-5.3296e-05,4.8764e+07,-8.421,0,6.9452e+07,-4.9601,11997,10083,1,10083,1,-0.00055236,-2.479e-09,0,1.0769e-05,-0.00021084,-2.2463e+08,-772.29,0,1.8959e+06,-23.535,10082,11053,1,11053,1,-0.00014565,-5.6799e-10,0,0.00021899,-0.00013478,-5.9183e+07,-89.99,0,4.922e+07,-11.838,11052,12943,1,12943,1,0.00073032,2.7417e-10,0,0.00073032,2.8078e-05,6.9452e+07,43.933,0,8.3259e+07,-0.39477,12942,1091.8,0,1091.8,0,0.00050549,7.1636e-10,0,0.00032284,9.4121e-05,9.4169e+07,117.4,0,5.1308e+07,79.674,1091.8,1
3780,3.08,11998,1,11998,1,0.00029329,-1.1359e-10,0,0.00048811,-5.3503e-05,21.573,-23.521,0,7.9211e+07,10.149,11997,13888,1,13888,1,0.0011407,2.8876e-09,0,0.0011407,0.0001044,8.5659e+07,304.81,0,2.2536e+08,853.74,13887,11998,1,11998,1,0.00029328,-1.8317e-11,0,0.00043941,-5.347e-05,4.8923e+07,-1.8618,0,6.9679e+07,-6.6651,11997,10083,1,10083,1,-0.00055416,-2.5875e-09,0,1.0804e-05,-0.00021153,-2.2536e+08,-790.71,0,1.9022e+06,-45.507,10082,11053,1,11053,1,-0.00014613,-6.8223e-10,0,0.00021971,-0.00013522,-5.9376e+07,-110.54,0,4.938e+07,-13.749,11052,12943,1,12943,1,0.0007327,4.5288e-10,0,0.0007327,2.817e-05,6.9679e+07,74.288,0,8.3531e+07,-1.0236,12942,1091.8,0,1091.8,0,0.00050713,8.9348e-10,0,0.0003239,9.4428e-05,9.4476e+07,140.98,0,5.1475e+07,81.879,1091.8,1
3780,3.09,11998,1,11998,1,0.00029424,8.8342e-11,0,0.00048969,-5.3677e-05,38.228,7.3438,0,7.9468e+07,7.6553,11997,13888,1,13888,1,0.0011444,3.143e-09,0,0.0011444,0.00010473,8.5938e+07,360.55,0,2.2609e+08,856.99,13887,11998,1,11998,1,0.00029424,4.6194e-11,0,0.00044084,-5.3644e-05,4.9082e+07,9.4326,0,6.9905e+07,-9.5787,11997,10083,1,10083,1,-0.00055595,-2.424e-09,0,1.084e-05,-0.00021222,-2.2609e+08,-754.4,0,1.9085e+06,-44.632,10082,11053,1,11053,1,-0.0001466,-4.8672e-10,0,0.00022042,-0.00013566,-5.9569e+07,-76.679,0,4.9541e+07,-17.967,11052,12943,1,12943,1,0.00073508,6.4439e-10,0,0.00073508,2.8261e-05,6.9905e+07,101.89,0,8.3802e+07,-2.7329,12942,1091.8,0,1091.8,0,0.00050878,8.8622e-10,0,0.00032495,9.4735e-05,9.4783e+07,139.4,0,5.1642e+07,82.22,1091.8,1
3780,3.1,11998,1,11998,1,0.00029519,-5.9526e-11,0,0.00049128,-5.3851e-05,5.2993,-15.265,0,7.9725e+07,10.66,11997,13888,1,13888,1,0.0011481,2.9136e-09,0,0.0011481,0.00010507,8.6216e+07,342.37,0,2.2682e+08,866.46,13887,11998,1,11998,1,0.00029519,-3.9457e-12,0,0.00044226,-5.3817e-05,4.9241e+07,-0.29636,0,7.0131e+07,-6.4259,11997,10083,1,10083,1,-0.00055775,-2.6137e-09,0,1.0875e-05,-0.00021291,-2.2682e+08,-797.58,0,1.9146e+06,-42.319,10082,11053,1,11053,1,-0.00014707,-6.5295e-10,0,0.00022113,-0.0001361,-5.9761e+07,-103.75,0,4.9701e+07,-13.156,11052,12943,1,12943,1,0.00073745,5.218e-10,0,0.00073745,2.8353e-05,7.0131e+07,83.096,0,8.4073e+07,-0.4841,12942,1091.8,0,1091.8,0,0.00051043,9.2497e-10,0,0.000326,9.5041e-05,9.5089e+07,145.87,0,5.1809e+07,82.691,1091.8,1
3780,3.11,11998,1,11998,1,0.00029614,-2.0655e-10,0,0.00049286,-5.4024e-05,2.7274,-37.134,0,7.9982e+07,12.974,11997,13888,1,13888,1,0.0011518,3.0633e-09,0,0.0011518,0.00010541,8.6493e+07,274.41,0,2.2755e+08,856.88,13887,11998,1,11998,1,0.00029614,-7.8165e-11,0,0.00044369,-5.3991e-05,4.9399e+07,-14.79,0,7.0356e+07,-4.6197,11997,10083,1,10083,1,-0.00055955,-2.4991e-09,0,1.091e-05,-0.00021359,-2.2755e+08,-781.83,0,1.9209e+06,-27.178,10082,11053,1,11053,1,-0.00014755,-6.4877e-10,0,0.00022184,-0.00013653,-5.9954e+07,-104.08,0,4.9861e+07,-10.942,11052,12943,1,12943,1,0.00073983,2.2245e-10,0,0.00073983,2.8444e-05,7.0356e+07,36.586,0,8.4344e+07,-0.11998,12942,1091.8,0,1091.8,0,0.00051207,7.2415e-10,0,0.00032705,9.5348e-05,9.5396e+07,118.1,0,5.1976e+07,80.914,1091.8,1
3780,3.12,11998,1,11998,1,0.0002971,7.6542e-11,0,0.00049445,-5.4198e-05,6.6463,6.2015,0,8.024e+07,9.6826,11997,13888,1,13888,1,0.0011555,2.8583e-09,0,0.0011555,0.00010575,8.6772e+07,403.99,0,2.2829e+08,876.3,13887,11998,1,11998,1,0.00029709,5.9355e-11,0,0.00044512,-5.4165e-05,4.9559e+07,11.744,0,7.0583e+07,-7.1086,11997,10083,1,10083,1,-0.00056135,-2.6802e-09,0,1.0946e-05,-0.00021428,-2.2829e+08,-809.1,0,1.9272e+06,-46.797,10082,11053,1,11053,1,-0.00014802,-5.6094e-10,0,0.00022256,-0.00013697,-6.0147e+07,-87.826,0,5.0022e+07,-14.665,11052,12943,1,12943,1,0.00074222,7.0432e-10,0,0.00074222,2.8536e-05,7.0583e+07,110.86,0,8.4616e+07,-0.8987,12942,1091.8,0,1091.8,0,0.00051372,9.8254e-10,0,0.0003281,9.5655e-05,9.5703e+07,154.75,0,5.2143e+07,82.966,1091.8,1
3780,3.13,11998,1,11998,1,0.00029805,1.5441e-11,0,0.00049603,-5.4372e-05,30.578,-3.8035,0,8.0497e+07,9.6591,11997,13888,1,13888,1,0.0011592,3.3962e-09,0,0.0011592,0.00010609,8.705e+07,376.23,0,2.2902e+08,857.49,13887,11998,1,11998,1,0.00029805,4.6809e-12,0,0.00044654,-5.4338e-05,4.9717e+07,0.39047,0,7.0809e+07,-8.3943,11997,10083,1,10083,1,-0.00056315,-2.2545e-09,0,1.0981e-05,-0.00021497,-2.2902e+08,-732.53,0,1.9335e+06,-39.469,10082,11053,1,11053,1,-0.0001485,-5.4405e-10,0,0.00022327,-0.00013741,-6.0339e+07,-88.37,0,5.0182e+07,-15.241,11052,12943,1,12943,1,0.00074459,5.2274e-10,0,0.00074459,2.8627e-05,7.0809e+07,83.455,0,8.4887e+07,-2.4064,12942,1091.8,0,1091.8,0,0.00051537,8.5518e-10,0,0.00032916,9.5961e-05,9.601e+07,133.79,0,5.231e+07,82.778,1091.8,1
3780,3.14,11998,1,11998,1,0.000299,-1.3637e-10,0,0.00049762,-5.4545e-05,2.2627,-26.292,0,8.0754e+07,14.681,11997,13888,1,13888,1,0.0011629,3.4544e-09,0,0.0011629,0.00010643,8.7328e+07,278,0,2.2975e+08,864.46,13887,11998,1,11998,1,0.000299,-2.6483e-11,0,0.00044797,-5.4512e-05,4.9876e+07,-4.6309,0,7.1034e+07,-3.6363,11997,10083,1,10083,1,-0.00056495,-2.2215e-09,0,1.1016e-05,-0.00021565,-2.2975e+08,-736,0,1.9397e+06,-29.525,10082,11053,1,11053,1,-0.00014897,-5.4207e-10,0,0.00022398,-0.00013785,-6.0532e+07,-87.951,0,5.0342e+07,-8.2595,11052,12943,1,12943,1,0.00074697,2.6611e-10,0,0.00074697,2.8718e-05,7.1034e+07,42.467,0,8.5157e+07,0.4406,12942,1091.8,0,1091.8,0,0.00051701,6.6352e-10,0,0.00033021,9.6267e-05,9.6316e+07,107.69,0,5.2477e+07,82.05,1091.8,1
3780,3.15,11998,1,11998,1,0.00029995,-2.4718e-10,0,0.0004992,-5.4719e-05,6.9671,-43.462,0,8.1011e+07,13.324,11997,13888,1,13888,1,0.0011667,3.0745e-09,0,0.0011667,0.00010677,8.7606e+07,244.29,0,2.3048e+08,863.8,13887,11998,1,11998,1,0.00029995,-1.0413e-10,0,0.0004494,-5.4685e-05,5.0035e+07,-18.971,0,7.1261e+07,-4.6349,11997,10083,1,10083,1,-0.00056675,-2.5632e-09,0,1.1052e-05,-0.00021634,-2.3048e+08,-797.89,0,1.946e+06,-23.544,10082,11053,1,11053,1,-0.00014944,-6.5541e-10,0,0.0002247,-0.00013829,-6.0725e+07,-104.02,0,5.0502e+07,-11.142,11052,12943,1,12943,1,0.00074935,1.598e-10,0,0.00074935,2.881e-05,7.1261e+07,26.193,0,8.5429e+07,-0.39276,12942,1091.8,0,1091.8,0,0.00051866,6.8202e-10,0,0.00033126,9.6574e-05,9.6623e+07,113.19,0,5.2644e+07,81.496,1091.8,1
3780,3.16,11998,1,11998,1,0.0003009,-8.1654e-11,0,0.00050079,-5.4893e-05,16.918,-18.409,0,8.1268e+07,11.948,11997,13888,1,13888,1,0.0011704,3.274e-09,0,0.0011704,0.00010711,8.7884e+07,281.46,0,2.3121e+08,872.4,13887,11998,1,11998,1,0.0003009,-9.3554e-12,0,0.00045082,-5.4859e-05,5.0194e+07,-0.7602,0,7.1487e+07,-6.3147,11997,10083,1,10083,1,-0.00056854,-2.4313e-09,0,1.1087e-05,-0.00021703,-2.3121e+08,-770.23,0,1.9522e+06,-31.759,10082,11053,1,11053,1,-0.00014992,-5.1854e-10,0,0.00022541,-0.00013873,-6.0917e+07,-82.495,0,5.0662e+07,-12.573,11052,12943,1,12943,1,0.00075173,3.5737e-10,0,0.00075173,2.8901e-05,7.1487e+07,56.977,0,8.57e+07,-1.052,12942,1091.8,0,1091.8,0,0.0005203,7.2638e-10,0,0.00033231,9.688e-05,9.6929e+07,118.21,0,5.2812e+07,83.002,1091.8,1
3780,3.17,11998,1,11998,1,0.00030186,-6.033e-12,0,0.00050237,-5.5067e-05,4.8464,-6.8309,0,8.1525e+07,14.567,11997,13888,1,13888,1,0.0011741,3.5871e-09,0,0.0011741,0.00010744,8.8162e+07,289.34,0,2.3194e+08,866.82,13887,11998,1,11998,1,0.00030185,3.7519e-12,0,0.00045225,-5.5033e-05,5.0352e+07,0.44902,0,7.1712e+07,-3.9333,11997,10083,1,10083,1,-0.00057034,-2.1765e-09,0,1.1123e-05,-0.00021771,-2.3194e+08,-730.55,0,1.9585e+06,-20.281,10082,11053,1,11053,1,-0.00015039,-3.1762e-10,0,0.00022612,-0.00013917,-6.111e+07,-48.863,0,5.0822e+07,-9.5179,11052,12943,1,12943,1,0.0007541,2.9776e-10,0,0.0007541,2.8992e-05,7.1712e+07,46.572,0,8.5971e+07,-0.1134,12942,1091.8,0,1091.8,0,0.00052195,5.7124e-10,0,0.00033336,9.7186e-05,9.7235e+07,95.958,0,5.2978e+07,81.499,1091.8,1
3780,3.18,11998,1,11998,1,0.00030281,-6.8441e-12,0,0.00050396,-5.5241e-05,4.6857,-6.8634,0,8.1782e+07,13.762,11997,13888,1,13888,1,0.0011778,3.4805e-09,0,0.0011778,0.00010778,8.844e+07,302.73,0,2.3267e+08,873.19,13887,11998,1,11998,1,0.00030281,5.1713e-12,0,0.00045368,-5.5206e-05,5.0512e+07,0.39262,0,7.1939e+07,-4.6304,11997,10083,1,10083,1,-0.00057214,-2.2599e-09,0,1.1158e-05,-0.0002184,-2.3267e+08,-745.65,0,1.9648e+06,-23.689,10082,11053,1,11053,1,-0.00015087,-3.9855e-10,0,0.00022684,-0.00013961,-6.1303e+07,-62.096,0,5.0983e+07,-10.706,11052,12943,1,12943,1,0.00075649,3.6475e-10,0,0.00075649,2.9084e-05,7.1939e+07,57.33,0,8.6243e+07,-0.22131,12942,1091.8,0,1091.8,0,0.0005236,6.5662e-10,0,0.00033441,9.7494e-05,9.7543e+07,108.01,0,5.3146e+07,82.391,1091.8,1
3780,3.19,11998,1,11998,1,0.00030376,4.1052e-11,0,0.00050554,-5.5414e-05,15.648,0.69429,0,8.2039e+07,13.643,11997,13888,1,13888,1,0.0011815,3.6431e-09,0,0.0011815,0.00010812,8.8718e+07,294.18,0,2.3341e+08,871.92,13887,11998,1,11998,1,0.00030376,2.7131e-11,0,0.0004551,-5.538e-05,5.067e+07,4.6746,0,7.2165e+07,-4.7931,11997,10083,1,10083,1,-0.00057394,-2.165e-09,0,1.1193e-05,-0.00021909,-2.3341e+08,-727.31,0,1.971e+06,-23.449,10082,11053,1,11053,1,-0.00015134,-2.9953e-10,0,0.00022755,-0.00014005,-6.1495e+07,-46.738,0,5.1143e+07,-10.672,11052,12943,1,12943,1,0.00075886,3.7253e-10,0,0.00075886,2.9175e-05,7.2165e+07,58.127,0,8.6514e+07,-0.78683,12942,1091.8,0,1091.8,0,0.00052524,6.0025e-10,0,0.00033546,9.78e-05,9.7849e+07,99.89,0,5.3313e+07,82.249,1091.8,1
3780,3.2,11998,1,11998,1,0.00030472,3.3279e-11,0,0.00050713,-5.5588e-05,9.2146,-1.037,0,8.2297e+07,11.734,11997,13888,1,13888,1,0.0011852,2.9414e-09,0,0.0011852,0.00010846,8.8997e+07,354.88,0,2.3414e+08,881.24,13887,11998,1,11998,1,0.00030471,3.5695e-11,0,0.00045653,-5.5554e-05,5.0829e+07,6.1205,0,7.2391e+07,-5.3625,11997,10083,1,10083,1,-0.00057574,-2.7466e-09,0,1.1229e-05,-0.00021977,-2.3414e+08,-832.99,0,1.9773e+06,-34.083,10082,11053,1,11053,1,-0.00015182,-4.64e-10,0,0.00022827,-0.00014049,-6.1688e+07,-71.143,0,5.1304e+07,-13.605,11052,12943,1,12943,1,0.00076125,5.5742e-10,0,0.00076125,2.9267e-05,7.2391e+07,87.333,0,8.6785e+07,-0.017853,12942,1091.8,0,1091.8,0,0.00052689,8.4359e-10,0,0.00033652,9.8107e-05,9.8156e+07,137.55,0,5.348e+07,83.096,1091.8,1
3780,3.21,11998,1,11998,1,0.00030567,-1.9761e-10,0,0.00050871,-5.5762e-05,16.483,-35.966,0,8.2554e+07,11.781,11997,13888,1,13888,1,0.0011889,2.8872e-09,0,0.0011889,0.0001088,8.9275e+07,266.64,0,2.3487e+08,884.19,13887,11998,1,11998,1,0.00030567,-3.4173e-11,0,0.00045796,-5.5728e-05,5.0988e+07,-5.3443,0,7.2617e+07,-6.1016,11997,10083,1,10083,1,-0.00057754,-2.8132e-09,0,1.1264e-05,-0.00022046,-2.3487e+08,-847.09,0,1.9836e+06,-35.308,10082,11053,1,11053,1,-0.00015229,-6.5391e-10,0,0.00022898,-0.00014093,-6.1881e+07,-104.11,0,5.1464e+07,-12.454,11052,12943,1,12943,1,0.00076363,2.8985e-10,0,0.00076363,2.9358e-05,7.2617e+07,47.374,0,8.7056e+07,-1.0407,12942,1091.8,0,1091.8,0,0.00052854,7.7809e-10,0,0.00033757,9.8414e-05,9.8463e+07,128.2,0,5.3647e+07,83.581,1091.8,1
3780,3.22,11998,1,11998,1,0.00030662,-1.0616e-10,0,0.00051029,-5.5935e-05,5.4013,-21.653,0,8.281e+07,14.994,11997,13888,1,13888,1,0.0011926,3.6112e-09,0,0.0011926,0.00010914,8.9552e+07,291.17,0,2.356e+08,884.84,13887,11998,1,11998,1,0.00030662,-2.8558e-11,0,0.00045938,-5.5901e-05,5.1147e+07,-4.625,0,7.2842e+07,-3.8576,11997,10083,1,10083,1,-0.00057933,-2.2515e-09,0,1.13e-05,-0.00022115,-2.356e+08,-749.66,0,1.9898e+06,-22.119,10082,11053,1,11053,1,-0.00015276,-4.3819e-10,0,0.00022969,-0.00014136,-6.2073e+07,-69.37,0,5.1624e+07,-9.7252,11052,12943,1,12943,1,0.000766,2.1266e-10,0,0.000766,2.9449e-05,7.2842e+07,34.001,0,8.7327e+07,-0.04057,12942,1091.8,0,1091.8,0,0.00053018,5.9219e-10,0,0.00033862,9.8719e-05,9.8769e+07,99.076,0,5.3814e+07,83.455,1091.8,1
3780,3.23,11998,1,11998,1,0.00030757,8.1005e-11,0,0.00051188,-5.6109e-05,6.6296,5.8448,0,8.3067e+07,14.928,11997,13888,1,13888,1,0.0011963,3.8021e-09,0,0.0011963,0.00010948,8.9831e+07,307.86,0,2.3633e+08,881.34,13887,11998,1,11998,1,0.00030757,3.0546e-11,0,0.00046081,-5.6075e-05,5.1306e+07,5.4818,0,7.3069e+07,-4.0495,11997,10083,1,10083,1,-0.00058113,-2.1176e-09,0,1.1335e-05,-0.00022183,-2.3633e+08,-721.98,0,1.9961e+06,-19.733,10082,11053,1,11053,1,-0.00015324,-2.6187e-10,0,0.0002304,-0.0001418,-6.2266e+07,-41.113,0,5.1784e+07,-9.1037,11052,12943,1,12943,1,0.00076838,4.1426e-10,0,0.00076838,2.9541e-05,7.3069e+07,63.88,0,8.7598e+07,-0.10628,12942,1091.8,0,1091.8,0,0.00053183,5.9672e-10,0,0.00033967,9.9026e-05,9.9075e+07,98.312,0,5.3981e+07,82.99,1091.8,1
3780,3.24,11998,1,11998,1,0.00030852,-1.6068e-10,0,0.00051346,-5.6283e-05,7.3305,-30.409,0,8.3324e+07,14.685,11997,13888,1,13888,1,0.0012,3.54e-09,0,0.0012,0.00010982,9.0109e+07,284.59,0,2.3706e+08,887.36,13887,11998,1,11998,1,0.00030852,-6.3315e-11,0,0.00046223,-5.6248e-05,5.1465e+07,-11.742,0,7.3295e+07,-4.3088,11997,10083,1,10083,1,-0.00058293,-2.3317e-09,0,1.137e-05,-0.00022252,-2.3706e+08,-766.51,0,2.0024e+06,-19.171,10082,11053,1,11053,1,-0.00015371,-4.9857e-10,0,0.00023112,-0.00014224,-6.2458e+07,-78.474,0,5.1944e+07,-10.019,11052,12943,1,12943,1,0.00077076,1.6304e-10,0,0.00077076,2.9632e-05,7.3295e+07,26.686,0,8.787e+07,-0.43472,12942,1091.8,0,1091.8,0,0.00053347,5.9268e-10,0,0.00034072,9.9333e-05,9.9382e+07,99.375,0,5.4148e+07,83.664,1091.8,1
3780,3.25,11998,1,11998,1,0.00030948,-9.4273e-11,0,0.00051505,-5.6457e-05,8.7591,-20.628,0,8.3581e+07,14.499,11997,13888,1,13888,1,0.0012037,3.6304e-09,0,0.0012037,0.00011016,9.0387e+07,292.67,0,2.3779e+08,890.67,13887,11998,1,11998,1,0.00030947,-2.5663e-11,0,0.00046366,-5.6422e-05,5.1623e+07,-4.2928,0,7.3521e+07,-4.6511,11997,10083,1,10083,1,-0.00058473,-2.289e-09,0,1.1406e-05,-0.00022321,-2.3779e+08,-756.81,0,2.0086e+06,-23.191,10082,11053,1,11053,1,-0.00015419,-4.2925e-10,0,0.00023183,-0.00014268,-6.2651e+07,-67.519,0,5.2105e+07,-10.555,11052,12943,1,12943,1,0.00077314,2.3383e-10,0,0.00077314,2.9724e-05,7.3521e+07,36.808,0,8.8141e+07,-0.48174,12942,1091.8,0,1091.8,0,0.00053512,5.9843e-10,0,0.00034177,9.9639e-05,9.9689e+07,99.779,0,5.4315e+07,84.268,1091.8,1
3780,3.26,11998,1,11998,1,0.00031043,1.7457e-11,0,0.00051663,-5.663e-05,9.2451,-3.1662,0,8.3838e+07,15.955,11997,13888,1,13888,1,0.0012074,4.0513e-09,0,0.0012074,0.00011049,9.0665e+07,329.93,0,2.3853e+08,897.36,13887,11998,1,11998,1,0.00031043,1.5287e-11,0,0.00046509,-5.6595e-05,5.1782e+07,2.9739,0,7.3747e+07,-3.8626,11997,10083,1,10083,1,-0.00058653,-2.0534e-09,0,1.1441e-05,-0.00022389,-2.3853e+08,-700.13,0,2.0149e+06,-22.927,10082,11053,1,11053,1,-0.00015466,-3.0071e-10,0,0.00023254,-0.00014312,-6.2843e+07,-47.056,0,5.2265e+07,-8.2834,11052,12943,1,12943,1,0.00077552,3.2408e-10,0,0.00077552,2.9815e-05,7.3747e+07,50.548,0,8.8412e+07,0.039933,12942,1091.8,0,1091.8,0,0.00053677,5.5729e-10,0,0.00034282,9.9946e-05,9.9995e+07,91.003,0,5.4482e+07,85.089,1091.8,1
3780,3.27,11998,1,11998,1,0.00031138,-1.2997e-10,0,0.00051822,-5.6805e-05,12.723,-26.047,0,8.4096e+07,12.802,11997,13888,1,13888,1,0.0012111,3.1847e-09,0,0.0012111,0.00011083,9.0944e+07,294.39,0,2.3926e+08,897.68,13887,11998,1,11998,1,0.00031138,-2.6802e-11,0,0.00046652,-5.677e-05,5.1942e+07,-3.3179,0,7.3973e+07,-5.5988,11997,10083,1,10083,1,-0.00058833,-2.6531e-09,0,1.1477e-05,-0.00022458,-2.3926e+08,-825.39,0,2.0212e+06,-32.938,10082,11053,1,11053,1,-0.00015513,-6.1257e-10,0,0.00023326,-0.00014356,-6.3036e+07,-98.044,0,5.2426e+07,-12.009,11052,12943,1,12943,1,0.0007779,3.5274e-10,0,0.0007779,2.9907e-05,7.3973e+07,56.441,0,8.8684e+07,-0.55952,12942,1091.8,0,1091.8,0,0.00053842,7.8779e-10,0,0.00034388,0.00010025,1.003e+08,128.33,0,5.465e+07,85.131,1091.8,1
3780,3.28,11998,1,11998,1,0.00031233,1.8063e-10,0,0.00051981,-5.6978e-05,4.762,21.326,0,8.4353e+07,13.867,11997,13888,1,13888,1,0.0012148,3.7726e-09,0,0.0012148,0.00011117,9.1222e+07,341.79,0,2.3999e+08,906.46,13887,11998,1,11998,1,0.00031233,1.0351e-10,0,0.00046794,-5.6943e-05,5.21e+07,18.366,0,7.4199e+07,-4.9587,11997,10083,1,10083,1,-0.00059013,-2.1953e-09,0,1.1512e-05,-0.00022527,-2.3999e+08,-743.98,0,2.0274e+06,-29.034,10082,11053,1,11053,1,-0.00015561,-2.4954e-10,0,0.00023397,-0.000144,-6.3229e+07,-37.595,0,5.2586e+07,-11.2,11052,12943,1,12943,1,0.00078028,6.2295e-10,0,0.00078028,2.9998e-05,7.4199e+07,95.39,0,8.8955e+07,-0.17672,12942,1091.8,0,1091.8,0,0.00054006,7.1966e-10,0,0.00034493,0.00010056,1.0061e+08,116.36,0,5.4817e+07,85.663,1091.8,1
3780,3.29,11998,1,11998,1,0.00031329,3.9075e-11,0,0.00052139,-5.7152e-05,6.3241,-0.075764,0,8.461e+07,14.413,11997,13888,1,13888,1,0.0012185,3.7328e-09,0,0.0012185,0.00011151,9.15e+07,306.8,0,2.4072e+08,910.22,13887,11998,1,11998,1,0.00031328,2.7466e-11,0,0.00046937,-5.7117e-05,5.2259e+07,5.3255,0,7.4425e+07,-4.7225,11997,10083,1,10083,1,-0.00059193,-2.2622e-09,0,1.1547e-05,-0.00022595,-2.4072e+08,-758.36,0,2.0337e+06,-27.703,10082,11053,1,11053,1,-0.00015608,-3.8825e-10,0,0.00023468,-0.00014444,-6.3422e+07,-60.595,0,5.2746e+07,-10.99,11052,12943,1,12943,1,0.00078266,4.5676e-10,0,0.00078266,3.0089e-05,7.4425e+07,71.167,0,8.9226e+07,-0.092185,12942,1091.8,0,1091.8,0,0.00054171,7.051e-10,0,0.00034598,0.00010087,1.0092e+08,114.67,0,5.4984e+07,86.303,1091.8,1
3780,3.3,11998,1,11998,1,0.00031424,-2.2414e-10,0,0.00052298,-5.7326e-05,19.171,-39.523,0,8.4867e+07,13.404,11997,13888,1,13888,1,0.0012222,3.3135e-09,0,0.0012222,0.00011185,9.1778e+07,264.04,0,2.4145e+08,910.82,13887,11998,1,11998,1,0.00031424,-5.5161e-11,0,0.0004708,-5.729e-05,5.2418e+07,-9.9171,0,7.4651e+07,-5.6069,11997,10083,1,10083,1,-0.00059373,-2.6201e-09,0,1.1583e-05,-0.00022664,-2.4145e+08,-821.78,0,2.04e+06,-30.852,10082,11053,1,11053,1,-0.00015656,-6.2019e-10,0,0.0002354,-0.00014488,-6.3614e+07,-98.471,0,5.2906e+07,-11.7,11052,12943,1,12943,1,0.00078504,1.9657e-10,0,0.00078504,3.0181e-05,7.4651e+07,32.576,0,8.9497e+07,-0.95485,12942,1091.8,0,1091.8,0,0.00054336,6.9863e-10,0,0.00034703,0.00010117,1.0122e+08,116.26,0,5.5151e+07,86.226,1091.8,1
3780,3.31,11998,1,11998,1,0.00031519,-9.0724e-11,0,0.00052456,-5.75e-05,2.47,-19.656,0,8.5124e+07,15.129,11997,13888,1,13888,1,0.0012259,3.5506e-09,0,0.0012259,0.00011219,9.2056e+07,284.89,0,2.4218e+08,909.88,13887,11998,1,11998,1,0.00031519,-1.4981e-11,0,0.00047222,-5.7464e-05,5.2577e+07,-1.4913,0,7.4877e+07,-4.0411,11997,10083,1,10083,1,-0.00059553,-2.4194e-09,0,1.1618e-05,-0.00022733,-2.4218e+08,-789.64,0,2.0463e+06,-24.667,10082,11053,1,11053,1,-0.00015703,-4.6763e-10,0,0.00023611,-0.00014532,-6.3807e+07,-73.459,0,5.3067e+07,-9.9457,11052,12943,1,12943,1,0.00078741,2.871e-10,0,0.00078741,3.0272e-05,7.4877e+07,45.734,0,8.9768e+07,0.23482,12942,1091.8,0,1091.8,0,0.000545,6.5643e-10,0,0.00034808,0.00010148,1.0153e+08,109.42,0,5.5318e+07,85.739,1091.8,1
3780,3.32,11998,1,11998,1,0.00031614,-1.0875e-10,0,0.00052614,-5.7673e-05,2.2184,-22.511,0,8.5381e+07,15.996,11997,13888,1,13888,1,0.0012296,3.7834e-09,0,0.0012296,0.00011253,9.2334e+07,305.5,0,2.4292e+08,910.37,13887,11998,1,11998,1,0.00031614,-3.3468e-11,0,0.00047365,-5.7637e-05,5.2736e+07,-5.4562,0,7.5103e+07,-3.7055,11997,10083,1,10083,1,-0.00059732,-2.2517e-09,0,1.1654e-05,-0.00022801,-2.4292e+08,-761.51,0,2.0525e+06,-20.833,10082,11053,1,11053,1,-0.0001575,-4.5781e-10,0,0.00023682,-0.00014575,-6.3999e+07,-73.118,0,5.3227e+07,-9.0093,11052,12943,1,12943,1,0.00078979,2.2259e-10,0,0.00078979,3.0363e-05,7.5103e+07,35.38,0,9.0039e+07,0.21084,12942,1091.8,0,1091.8,0,0.00054665,6.0624e-10,0,0.00034914,0.00010179,1.0184e+08,100.54,0,5.5485e+07,85.898,1091.8,1
3780,3.33,11998,1,11998,1,0.0003171,-1.8977e-10,0,0.00052773,-5.7847e-05,17.459,-34.525,0,8.5638e+07,14.441,11997,13888,1,13888,1,0.0012333,3.6567e-09,0,0.0012333,0.00011287,9.2612e+07,294.22,0,2.4365e+08,912.66,13887,11998,1,11998,1,0.00031709,-8.4842e-11,0,0.00047507,-5.7811e-05,5.2895e+07,-15.303,0,7.5329e+07,-5.091,11997,10083,1,10083,1,-0.00059912,-2.3734e-09,0,1.1689e-05,-0.0002287,-2.4365e+08,-783.88,0,2.0588e+06,-24.999,10082,11053,1,11053,1,-0.00015798,-5.9233e-10,0,0.00023754,-0.00014619,-6.4192e+07,-94.89,0,5.3387e+07,-11.406,11052,12943,1,12943,1,0.00079217,1.8781e-10,0,0.00079217,3.0455e-05,7.5329e+07,29.815,0,9.0311e+07,-0.6981,12942,1091.8,0,1091.8,0,0.00054829,6.6662e-10,0,0.00035019,0.00010209,1.0214e+08,109.6,0,5.5652e+07,86.499,1091.8,1
3780,3.34,11998,1,11998,1,0.00031805,5.5365e-11,0,0.00052932,-5.8021e-05,24.55,3.2796,0,8.5896e+07,12.911,11997,13888,1,13888,1,0.001237,3.9002e-09,0,0.001237,0.00011321,9.2891e+07,341.7,0,2.4438e+08,917.2,13887,11998,1,11998,1,0.00031805,3.7654e-11,0,0.0004765,-5.7985e-05,5.3054e+07,5.1576,0,7.5555e+07,-6.0842,11997,10083,1,10083,1,-0.00060092,-2.1853e-09,0,1.1725e-05,-0.00022939,-2.4438e+08,-745.09,0,2.0652e+06,-31.802,10082,11053,1,11053,1,-0.00015845,-3.8927e-10,0,0.00023825,-0.00014663,-6.4385e+07,-61.957,0,5.3548e+07,-12.535,11052,12943,1,12943,1,0.00079455,4.5985e-10,0,0.00079455,3.0546e-05,7.5555e+07,72.144,0,9.0582e+07,-1.4418,12942,1091.8,0,1091.8,0,0.00054994,7.1116e-10,0,0.00035124,0.0001024,1.0245e+08,114.72,0,5.5819e+07,86.798,1091.8,1
3780,3.35,11998,1,11998,1,0.000319,-1.8817e-10,0,0.0005309,-5.8195e-05,5.3207,-34.102,0,8.6153e+07,13.195,11997,13888,1,13888,1,0.0012407,3.371e-09,0,0.0012407,0.00011355,9.3169e+07,333.72,0,2.4511e+08,934.98,13887,11998,1,11998,1,0.000319,-4.6396e-11,0,0.00047793,-5.8159e-05,5.3212e+07,-7.973,0,7.5781e+07,-5.6794,11997,10083,1,10083,1,-0.00060273,-2.6351e-09,0,1.176e-05,-0.00023008,-2.4511e+08,-830.13,0,2.0714e+06,-41.314,10082,11053,1,11053,1,-0.00015893,-7.4469e-10,0,0.00023897,-0.00014707,-6.4578e+07,-121.02,0,5.3708e+07,-13.192,11052,12943,1,12943,1,0.00079693,3.623e-10,0,0.00079693,3.0638e-05,7.5781e+07,57.137,0,9.0853e+07,-0.26157,12942,1091.8,0,1091.8,0,0.00055159,8.9016e-10,0,0.00035229,0.00010271,1.0276e+08,141.58,0,5.5986e+07,89.079,1091.8,1
3780,3.36,11998,1,11998,1,0.00031995,-5.7479e-11,0,0.00053248,-5.8368e-05,10.134,-14.726,0,8.641e+07,15.181,11997,13888,1,13888,1,0.0012444,3.836e-09,0,0.0012444,0.00011388,9.3447e+07,309.79,0,2.4584e+08,922.6,13887,11998,1,11998,1,0.00031995,-6.9141e-12,0,0.00047935,-5.8332e-05,5.3371e+07,-0.72056,0,7.6007e+07,-4.4979,11997,10083,1,10083,1,-0.00060452,-2.2665e-09,0,1.1795e-05,-0.00023076,-2.4584e+08,-768.8,0,2.0777e+06,-24.3,10082,11053,1,11053,1,-0.0001594,-4.2975e-10,0,0.00023968,-0.00014751,-6.477e+07,-68.164,0,5.3868e+07,-10.202,11052,12943,1,12943,1,0.00079931,2.983e-10,0,0.00079931,3.0729e-05,7.6007e+07,47.633,0,9.1124e+07,-0.39597,12942,1091.8,0,1091.8,0,0.00055323,6.3692e-10,0,0.00035334,0.00010301,1.0306e+08,105,0,5.6153e+07,87.131,1091.8,1
3780,3.37,11998,1,11998,1,0.00032091,-2.2243e-10,0,0.00053407,-5.8542e-05,22.969,-39.392,0,8.6667e+07,12.647,11997,13888,1,13888,1,0.0012481,3.4032e-09,0,0.0012481,0.00011422,9.3725e+07,279.26,0,2.4657e+08,932.27,13887,11998,1,11998,1,0.00032091,-5.513e-11,0,0.00048078,-5.8506e-05,5.353e+07,-9.6641,0,7.6233e+07,-6.6842,11997,10083,1,10083,1,-0.00060632,-2.6467e-09,0,1.1831e-05,-0.00023145,-2.4657e+08,-833.39,0,2.084e+06,-39.853,10082,11053,1,11053,1,-0.00015988,-7.1171e-10,0,0.00024039,-0.00014795,-6.4963e+07,-115.92,0,5.4028e+07,-13.055,11052,12943,1,12943,1,0.00080169,2.7583e-10,0,0.00080169,3.0821e-05,7.6233e+07,44.328,0,9.1396e+07,-1.4652,12942,1091.8,0,1091.8,0,0.00055488,8.0643e-10,0,0.0003544,0.00010332,1.0337e+08,130.17,0,5.6321e+07,88.886,1091.8,1
3780,3.38,11998,1,11998,1,0.00032186,-1.9415e-10,0,0.00053566,-5.8716e-05,7.5269,-36.05,0,8.6924e+07,12.581,11997,13888,1,13888,1,0.0012518,3.2287e-09,0,0.0012518,0.00011456,9.4004e+07,325.58,0,2.4731e+08,940.98,13887,11998,1,11998,1,0.00032186,-4.4036e-11,0,0.00048221,-5.868e-05,5.3689e+07,-8.9213,0,7.6459e+07,-6.5551,11997,10083,1,10083,1,-0.00060812,-2.8167e-09,0,1.1866e-05,-0.00023214,-2.4731e+08,-864.26,0,2.0902e+06,-39.833,10082,11053,1,11053,1,-0.00016035,-7.6331e-10,0,0.00024111,-0.00014839,-6.5156e+07,-122.43,0,5.4189e+07,-13.845,11052,12943,1,12943,1,0.00080407,3.7476e-10,0,0.00080407,3.0912e-05,7.6459e+07,60.168,0,9.1667e+07,-0.52238,12942,1091.8,0,1091.8,0,0.00055653,9.1583e-10,0,0.00035545,0.00010363,1.0368e+08,146.04,0,5.6488e+07,89.79,1091.8,1
3780,3.39,11998,1,11998,1,0.00032281,-3.9582e-11,0,0.00053724,-5.889e-05,5.181,-12.149,0,8.7181e+07,14.55,11997,13888,1,13888,1,0.0012555,3.6848e-09,0,0.0012555,0.0001149,9.4281e+07,311.87,0,2.4804e+08,936.54,13887,11998,1,11998,1,0.00032281,2.3993e-12,0,0.00048364,-5.8853e-05,5.3848e+07,0.23503,0,7.6685e+07,-4.9528,11997,10083,1,10083,1,-0.00060992,-2.4486e-09,0,1.1902e-05,-0.00023282,-2.4804e+08,-802.67,0,2.0965e+06,-29.297,10082,11053,1,11053,1,-0.00016082,-4.9125e-10,0,0.00024182,-0.00014883,-6.5348e+07,-76.791,0,5.4349e+07,-11.51,11052,12943,1,12943,1,0.00080645,3.9458e-10,0,0.00080645,3.1003e-05,7.6685e+07,62.359,0,9.1938e+07,-0.054243,12942,1091.8,0,1091.8,0,0.00055817,7.4051e-10,0,0.0003565,0.00010393,1.0398e+08,120.68,0,5.6655e+07,88.623,1091.8,1
3780,3.4,11998,1,11998,1,0.00032377,-1.0578e-10,0,0.00053883,-5.9064e-05,23.821,-22.608,0,8.7439e+07,11.668,11997,13888,1,13888,1,0.0012593,3.3015e-09,0,0.0012593,0.00011524,9.456e+07,330.5,0,2.4877e+08,942.23,13887,11998,1,11998,1,0.00032376,-1.2547e-11,0,0.00048506,-5.9027e-05,5.4007e+07,-1.015,0,7.6911e+07,-7.4578,11997,10083,1,10083,1,-0.00061172,-2.7987e-09,0,1.1937e-05,-0.00023351,-2.4877e+08,-857.91,0,2.1028e+06,-43.095,10082,11053,1,11053,1,-0.0001613,-6.775e-10,0,0.00024253,-0.00014927,-6.5541e+07,-107.93,0,5.4509e+07,-15.194,11052,12943,1,12943,1,0.00080883,4.6104e-10,0,0.00080883,3.1095e-05,7.6911e+07,73.414,0,9.221e+07,-1.4084,12942,1091.8,0,1091.8,0,0.00055982,9.0986e-10,0,0.00035755,0.00010424,1.0429e+08,145.39,0,5.6822e+07,90.166,1091.8,1
3780,3.41,11998,1,11998,1,0.00032472,-1.4456e-10,0,0.00054041,-5.9237e-05,4.3736,-28.373,0,8.7695e+07,15.922,11997,13888,1,13888,1,0.001263,3.7529e-09,0,0.001263,0.00011558,9.4837e+07,302.02,0,2.495e+08,934.97,13887,11998,1,11998,1,0.00032472,-4.1785e-11,0,0.00048649,-5.9201e-05,5.4166e+07,-7.5954,0,7.7137e+07,-4.0552,11997,10083,1,10083,1,-0.00061351,-2.4277e-09,0,1.1972e-05,-0.0002342,-2.495e+08,-802.86,0,2.1091e+06,-23.323,10082,11053,1,11053,1,-0.00016177,-5.1393e-10,0,0.00024324,-0.00014971,-6.5733e+07,-82.545,0,5.4669e+07,-9.6022,11052,12943,1,12943,1,0.00081121,2.2012e-10,0,0.00081121,3.1186e-05,7.7137e+07,35.064,0,9.248e+07,0.12138,12942,1091.8,0,1091.8,0,0.00056147,6.452e-10,0,0.0003586,0.00010454,1.046e+08,107.32,0,5.6989e+07,88.215,1091.8,1
3780,3.42,11998,1,11998,1,0.00032567,-2.0134e-10,0,0.000542,-5.9411e-05,12.731,-36.891,0,8.7953e+07,12.29,11997,13888,1,13888,1,0.0012667,3.0984e-09,0,0.0012667,0.00011592,9.5116e+07,312.82,0,2.5023e+08,958.27,13887,11998,1,11998,1,0.00032567,-2.7768e-11,0,0.00048792,-5.9375e-05,5.4325e+07,-3.4267,0,7.7363e+07,-6.9395,11997,10083,1,10083,1,-0.00061532,-2.9996e-09,0,1.2008e-05,-0.00023489,-2.5023e+08,-899.9,0,2.1154e+06,-45.619,10082,11053,1,11053,1,-0.00016225,-7.7837e-10,0,0.00024396,-0.00015015,-6.5926e+07,-124.68,0,5.483e+07,-14.302,11052,12943,1,12943,1,0.00081359,3.9772e-10,0,0.00081359,3.1278e-05,7.7363e+07,65.244,0,9.2752e+07,-0.72865,12942,1091.8,0,1091.8,0,0.00056312,9.4836e-10,0,0.00035966,0.00010485,1.049e+08,151.75,0,5.7156e+07,91.138,1091.8,1
3780,3.43,11998,1,11998,1,0.00032663,-2.5827e-10,0,0.00054358,-5.9585e-05,13.763,-45.154,0,8.821e+07,11.219,11997,13888,1,13888,1,0.0012704,2.8151e-09,0,0.0012704,0.00011626,9.5395e+07,363.49,0,2.5097e+08,952.7,13887,11998,1,11998,1,0.00032662,-6.6655e-11,0,0.00048934,-5.9548e-05,5.4484e+07,-12.227,0,7.7589e+07,-7.2066,11997,10083,1,10083,1,-0.00061712,-3.2148e-09,0,1.2043e-05,-0.00023557,-2.5097e+08,-941.17,0,2.1217e+06,-43.568,10082,11053,1,11053,1,-0.00016272,-8.8492e-10,0,0.00024467,-0.00015059,-6.6119e+07,-141.52,0,5.499e+07,-16.129,11052,12943,1,12943,1,0.00081597,3.7875e-10,0,0.00081597,3.1369e-05,7.7589e+07,60.471,0,9.3024e+07,-1.256,12942,1091.8,0,1091.8,0,0.00056476,1.0157e-09,0,0.00036071,0.00010516,1.0521e+08,162.96,0,5.7323e+07,90.344,1091.8,1
3780,3.44,11998,1,11998,1,0.00032758,-9.7874e-11,0,0.00054516,-5.9759e-05,6.0577,-20.446,0,8.8467e+07,15.056,11997,13888,1,13888,1,0.0012741,3.7954e-09,0,0.0012741,0.0001166,9.5672e+07,305.54,0,2.5169e+08,957.39,13887,11998,1,11998,1,0.00032757,-6.8191e-12,0,0.00049077,-5.9722e-05,5.4642e+07,-0.75432,0,7.7815e+07,-5.0528,11997,10083,1,10083,1,-0.00061891,-2.43e-09,0,1.2079e-05,-0.00023626,-2.5169e+08,-803.74,0,2.1279e+06,-34.685,10082,11053,1,11053,1,-0.00016319,-5.583e-10,0,0.00024538,-0.00015102,-6.6311e+07,-90.218,0,5.515e+07,-10.908,11052,12943,1,12943,1,0.00081835,3.6022e-10,0,0.00081835,3.146e-05,7.7815e+07,57.018,0,9.3294e+07,-0.039541,12942,1091.8,0,1091.8,0,0.00056641,7.6089e-10,0,0.00036176,0.00010546,1.0552e+08,122.82,0,5.749e+07,90.755,1091.8,1
3780,3.45,11998,1,11998,1,0.00032853,-2.1032e-10,0,0.00054675,-5.9933e-05,9.9181,-38.297,0,8.8724e+07,13.06,11997,13888,1,13888,1,0.0012778,3.3573e-09,0,0.0012778,0.00011693,9.5951e+07,314.69,0,2.5243e+08,961.28,13887,11998,1,11998,1,0.00032853,-5.4043e-11,0,0.0004922,-5.9896e-05,5.4801e+07,-9.6606,0,7.8041e+07,-6.5478,11997,10083,1,10083,1,-0.00062071,-2.8256e-09,0,1.2114e-05,-0.00023695,-2.5243e+08,-873.69,0,2.1342e+06,-41.695,10082,11053,1,11053,1,-0.00016367,-7.8044e-10,0,0.0002461,-0.00015146,-6.6504e+07,-125.75,0,5.5311e+07,-13.821,11052,12943,1,12943,1,0.00082073,3.5998e-10,0,0.00082073,3.1552e-05,7.8041e+07,58.102,0,9.3566e+07,-0.54925,12942,1091.8,0,1091.8,0,0.00056805,9.1252e-10,0,0.00036281,0.00010577,1.0582e+08,145.63,0,5.7657e+07,91.881,1091.8,1
3780,3.46,11998,1,11998,1,0.00032948,1.4248e-10,0,0.00054833,-6.0106e-05,9.9421,15.346,0,8.8981e+07,14.405,11997,13888,1,13888,1,0.0012815,3.8068e-09,0,0.0012815,0.00011727,9.6228e+07,348.64,0,2.5316e+08,951.91,13887,11998,1,11998,1,0.00032948,8.6274e-11,0,0.00049362,-6.0069e-05,5.496e+07,16.318,0,7.8267e+07,-5.162,11997,10083,1,10083,1,-0.00062251,-2.48e-09,0,1.215e-05,-0.00023763,-2.5316e+08,-810.8,0,2.1405e+06,-30.94,10082,11053,1,11053,1,-0.00016414,-2.7018e-10,0,0.00024681,-0.0001519,-6.6696e+07,-40.529,0,5.5471e+07,-12.043,11052,12943,1,12943,1,0.0008231,5.8414e-10,0,0.0008231,3.1643e-05,7.8267e+07,89.985,0,9.3837e+07,-0.40212,12942,1091.8,0,1091.8,0,0.0005697,7.3661e-10,0,0.00036386,0.00010608,1.0613e+08,121.59,0,5.7824e+07,89.585,1091.8,1
3780,3.47,11998,1,11998,1,0.00033043,-7.1378e-11,0,0.00054992,-6.028e-05,3.0801,-17.047,0,8.9237e+07,16.207,11997,13888,1,13888,1,0.0012852,3.8089e-09,0,0.0012852,0.00011761,9.6506e+07,306.38,0,2.5389e+08,950.82,13887,11998,1,11998,1,0.00033043,-1.3536e-11,0,0.00049505,-6.0243e-05,5.5119e+07,-1.4039,0,7.8493e+07,-3.9647,11997,10083,1,10083,1,-0.00062431,-2.4841e-09,0,1.2185e-05,-0.00023832,-2.5389e+08,-819.21,0,2.1468e+06,-22.054,10082,11053,1,11053,1,-0.00016462,-4.2415e-10,0,0.00024752,-0.00015234,-6.6889e+07,-64.802,0,5.5631e+07,-10.1,11052,12943,1,12943,1,0.00082548,2.7143e-10,0,0.00082548,3.1734e-05,7.8493e+07,42.819,0,9.4108e+07,0.12731,12942,1091.8,0,1091.8,0,0.00057134,6.3709e-10,0,0.00036491,0.00010638,1.0644e+08,107.76,0,5.7991e+07,89.395,1091.8,1
3780,3.48,11998,1,11998,1,0.00033139,-1.4237e-10,0,0.0005515,-6.0454e-05,19.833,-27.526,0,8.9495e+07,14.853,11997,13888,1,13888,1,0.0012889,3.8124e-09,0,0.0012889,0.00011795,9.6785e+07,306.71,0,2.5462e+08,956.56,13887,11998,1,11998,1,0.00033138,-3.3905e-11,0,0.00049648,-6.0416e-05,5.5278e+07,-5.1408,0,7.8719e+07,-5.475,11997,10083,1,10083,1,-0.00062611,-2.5011e-09,0,1.2221e-05,-0.00023901,-2.5462e+08,-819.1,0,2.1531e+06,-27.989,10082,11053,1,11053,1,-0.00016509,-5.3403e-10,0,0.00024824,-0.00015278,-6.7082e+07,-85.304,0,5.5791e+07,-12.022,11052,12943,1,12943,1,0.00082786,2.4356e-10,0,0.00082786,3.1826e-05,7.8719e+07,38.618,0,9.4379e+07,-0.92855,12942,1091.8,0,1091.8,0,0.00057299,6.8091e-10,0,0.00036597,0.00010669,1.0674e+08,112.73,0,5.8158e+07,90.698,1091.8,1
3780,3.49,11998,1,11998,1,0.00033234,3.0877e-11,0,0.00055309,-6.0628e-05,8.5967,-2.1042,0,8.9752e+07,12.711,11997,13888,1,13888,1,0.0012926,3.401e-09,0,0.0012926,0.00011829,9.7063e+07,410.91,0,2.5535e+08,956.98,13887,11998,1,11998,1,0.00033234,1.6358e-11,0,0.0004979,-6.0591e-05,5.5437e+07,1.989,0,7.8945e+07,-6.228,11997,10083,1,10083,1,-0.00062791,-2.8303e-09,0,1.2256e-05,-0.00023969,-2.5535e+08,-880.44,0,2.1594e+06,-30.362,10082,11053,1,11053,1,-0.00016557,-5.1502e-10,0,0.00024895,-0.00015322,-6.7275e+07,-80.069,0,5.5952e+07,-15.08,11052,12943,1,12943,1,0.00083025,5.5071e-10,0,0.00083025,3.1917e-05,7.8945e+07,86.803,0,9.4651e+07,-0.89259,12942,1091.8,0,1091.8,0,0.00057464,8.945e-10,0,0.00036702,0.000107,1.0705e+08,145.08,0,5.8326e+07,90.235,1091.8,1
3780,3.5,11998,1,11998,1,0.00033329,-1.9339e-10,0,0.00055467,-6.0801e-05,3.885,-35.868,0,9.0009e+07,16.288,11997,13888,1,13888,1,0.0012963,3.7948e-09,0,0.0012963,0.00011863,9.7341e+07,304.92,0,2.5608e+08,958.97,13887,11998,1,11998,1,0.00033329,-8.6652e-11,0,0.00049933,-6.0764e-05,5.5596e+07,-15.384,0,7.9171e+07,-4.2089,11997,10083,1,10083,1,-0.0006297,-2.55e-09,0,1.2292e-05,-0.00024038,-2.5608e+08,-833.13,0,2.1657e+06,-21.542,10082,11053,1,11053,1,-0.00016604,-5.8552e-10,0,0.00024966,-0.00015366,-6.7467e+07,-93.089,0,5.6112e+07,-10.388,11052,12943,1,12943,1,0.00083262,1.803e-10,0,0.00083262,3.2009e-05,7.9171e+07,29.106,0,9.4922e+07,0.080384,12942,1091.8,0,1091.8,0,0.00057628,6.7397e-10,0,0.00036807,0.0001073,1.0736e+08,112.22,0,5.8493e+07,90.549,1091.8,1
3780,3.51,11998,1,11998,1,0.00033425,7.8395e-11,0,0.00055626,-6.0975e-05,8.5928,5.4601,0,9.0266e+07,12.521,11997,13888,1,13888,1,0.0013,3.4856e-09,0,0.0013,0.00011897,9.7619e+07,390.59,0,2.5682e+08,978.9,13887,11998,1,11998,1,0.00033424,5.9243e-11,0,0.00050076,-6.0938e-05,5.5755e+07,11.888,0,7.9397e+07,-6.9604,11997,10083,1,10083,1,-0.00063151,-2.8e-09,0,1.2327e-05,-0.00024107,-2.5682e+08,-875.61,0,2.172e+06,-42.715,10082,11053,1,11053,1,-0.00016651,-5.1654e-10,0,0.00025038,-0.0001541,-6.766e+07,-81.116,0,5.6272e+07,-14.83,11052,12943,1,12943,1,0.000835,6.793e-10,0,0.000835,3.21e-05,7.9397e+07,106.76,0,9.5193e+07,-0.74193,12942,1091.8,0,1091.8,0,0.00057793,9.512e-10,0,0.00036912,0.00010761,1.0766e+08,151.95,0,5.866e+07,92.645,1091.8,1
3780,3.52,11998,1,11998,1,0.0003352,-7.5259e-12,0,0.00055784,-6.1149e-05,12.834,-8.8021,0,9.0523e+07,15.373,11997,13888,1,13888,1,0.0013037,3.8411e-09,0,0.0013037,0.00011931,9.7897e+07,308.68,0,2.5755e+08,956.43,13887,11998,1,11998,1,0.00033519,-1.0751e-11,0,0.00050218,-6.1111e-05,5.5913e+07,-1.363,0,7.9623e+07,-5.2495,11997,10083,1,10083,1,-0.0006333,-2.5242e-09,0,1.2363e-05,-0.00024175,-2.5755e+08,-830.94,0,2.1783e+06,-22.24,10082,11053,1,11053,1,-0.00016699,-3.5376e-10,0,0.00025109,-0.00015454,-6.7852e+07,-54.76,0,5.6433e+07,-11.173,11052,12943,1,12943,1,0.00083738,3.4215e-10,0,0.00083738,3.2191e-05,7.9623e+07,54.527,0,9.5464e+07,-0.75269,12942,1091.8,0,1091.8,0,0.00057958,6.4769e-10,0,0.00037017,0.00010792,1.0797e+08,109.17,0,5.8827e+07,90.026,1091.8,1
3780,3.53,11998,1,11998,1,0.00033615,-5.8091e-11,0,0.00055943,-6.1322e-05,13.521,-14.806,0,9.078e+07,16.131,11997,13888,1,13888,1,0.0013074,4.1718e-09,0,0.0013074,0.00011964,9.8175e+07,338.18,0,2.5828e+08,975.94,13887,11998,1,11998,1,0.00033615,-3.0853e-13,0,0.00050361,-6.1285e-05,5.6072e+07,-0.061986,0,7.9848e+07,-4.8616,11997,10083,1,10083,1,-0.0006351,-2.3168e-09,0,1.2398e-05,-0.00024244,-2.5828e+08,-789.94,0,2.1845e+06,-25.305,10082,11053,1,11053,1,-0.00016746,-4.1958e-10,0,0.0002518,-0.00015497,-6.8045e+07,-66.115,0,5.6593e+07,-10.807,11052,12943,1,12943,1,0.00083976,2.8989e-10,0,0.00083976,3.2283e-05,7.9848e+07,45.663,0,9.5735e+07,-0.50593,12942,1091.8,0,1091.8,0,0.00058122,6.4016e-10,0,0.00037122,0.00010822,1.0827e+08,105.36,0,5.8994e+07,92.323,1091.8,1
3780,3.54,11998,1,11998,1,0.0003371,3.0187e-11,0,0.00056101,-6.1496e-05,5.4378,-1.7275,0,9.1037e+07,16.438,11997,13888,1,13888,1,0.0013111,4.2621e-09,0,0.0013111,0.00011998,9.8453e+07,346,0,2.5901e+08,974.16,13887,11998,1,11998,1,0.0003371,1.8592e-11,0,0.00050503,-6.1458e-05,5.6231e+07,2.2672,0,8.0074e+07,-4.5046,11997,10083,1,10083,1,-0.0006369,-2.279e-09,0,1.2433e-05,-0.00024313,-2.5901e+08,-777.04,0,2.1909e+06,-25.483,10082,11053,1,11053,1,-0.00016793,-3.8309e-10,0,0.00025252,-0.00015541,-6.8237e+07,-60.512,0,5.6753e+07,-10.565,11052,12943,1,12943,1,0.00084214,4.0475e-10,0,0.00084214,3.2374e-05,8.0074e+07,63.458,0,9.6007e+07,-0.062369,12942,1091.8,0,1091.8,0,0.00058287,6.8172e-10,0,0.00037227,0.00010853,1.0858e+08,110.43,0,5.9161e+07,92.25,1091.8,1
3780,3.55,11998,1,11998,1,0.00033805,-2.3687e-10,0,0.0005626,-6.167e-05,4.6589,-42.45,0,9.1294e+07,17.755,11997,13888,1,13888,1,0.0013148,4.0295e-09,0,0.0013148,0.00012032,9.8731e+07,325.35,0,2.5974e+08,971.68,13887,11998,1,11998,1,0.00033805,-1.1119e-10,0,0.00050646,-6.1632e-05,5.639e+07,-19.366,0,8.03e+07,-3.5403,11997,10083,1,10083,1,-0.0006387,-2.4357e-09,0,1.2469e-05,-0.00024381,-2.5974e+08,-820.27,0,2.1972e+06,-22.268,10082,11053,1,11053,1,-0.00016841,-6.0043e-10,0,0.00025323,-0.00015585,-6.843e+07,-95.969,0,5.6913e+07,-8.7138,11052,12943,1,12943,1,0.00084452,1.1455e-10,0,0.00084452,3.2465e-05,8.03e+07,18.406,0,9.6278e+07,0.30538,12942,1091.8,0,1091.8,0,0.00058452,6.2674e-10,0,0.00037333,0.00010884,1.0889e+08,104.28,0,5.9328e+07,91.903,1091.8,1
3780,3.56,11998,1,11998,1,0.00033901,-1.1492e-10,0,0.00056419,-6.1844e-05,7.4965,-23.719,0,9.1552e+07,11.998,11997,13888,1,13888,1,0.0013185,3.1142e-09,0,0.0013185,0.00012066,9.901e+07,378.91,0,2.6047e+08,995.86,13887,11998,1,11998,1,0.00033901,-2.1419e-12,0,0.00050789,-6.1806e-05,5.6549e+07,-0.16604,0,8.0527e+07,-7.3595,11997,10083,1,10083,1,-0.0006405,-3.2072e-09,0,1.2504e-05,-0.0002445,-2.6047e+08,-952.5,0,2.2034e+06,-43.771,10082,11053,1,11053,1,-0.00016888,-7.4467e-10,0,0.00025395,-0.00015629,-6.8623e+07,-117.78,0,5.7074e+07,-16.382,11052,12943,1,12943,1,0.0008469,5.2788e-10,0,0.0008469,3.2557e-05,8.0527e+07,83.457,0,9.655e+07,-0.99338,12942,1091.8,0,1091.8,0,0.00058617,1.0286e-09,0,0.00037438,0.00010914,1.092e+08,165,0,5.9495e+07,94.187,1091.8,1
3780,3.57,11998,1,11998,1,0.00033996,1.2231e-12,0,0.00056577,-6.2018e-05,4.465,-6.757,0,9.1808e+07,15.808,11997,13888,1,13888,1,0.0013222,4.1139e-09,0,0.0013222,0.000121,9.9288e+07,332.49,0,2.612e+08,980.54,13887,11998,1,11998,1,0.00033996,4.2602e-12,0,0.00050932,-6.198e-05,5.6708e+07,0.36188,0,8.0752e+07,-4.8629,11997,10083,1,10083,1,-0.0006423,-2.3714e-09,0,1.254e-05,-0.00024519,-2.612e+08,-808.54,0,2.2098e+06,-32.327,10082,11053,1,11053,1,-0.00016936,-4.6634e-10,0,0.00025466,-0.00015673,-6.8815e+07,-74.905,0,5.7234e+07,-10.519,11052,12943,1,12943,1,0.00084928,4.3723e-10,0,0.00084928,3.2648e-05,8.0752e+07,68.901,0,9.682e+07,0.066423,12942,1091.8,0,1091.8,0,0.00058781,7.48e-10,0,0.00037543,0.00010945,1.095e+08,120.18,0,5.9662e+07,92.828,1091.8,1
3780,3.58,11998,1,11998,1,0.00034091,-2.5481e-11,0,0.00056736,-6.2192e-05,7.8284,-9.9889,0,9.2066e+07,13.763,11997,13888,1,13888,1,0.0013259,3.7979e-09,0,0.0013259,0.00012134,9.9567e+07,370.69,0,2.6194e+08,998.03,13887,11998,1,11998,1,0.00034091,2.1105e-11,0,0.00051074,-6.2153e-05,5.6867e+07,2.0233,0,8.0979e+07,-6.6469,11997,10083,1,10083,1,-0.0006441,-2.6582e-09,0,1.2575e-05,-0.00024588,-2.6194e+08,-858.77,0,2.216e+06,-43.926,10082,11053,1,11053,1,-0.00016983,-6.08e-10,0,0.00025537,-0.00015717,-6.9008e+07,-96.308,0,5.7394e+07,-13.272,11052,12943,1,12943,1,0.00085166,5.3235e-10,0,0.00085166,3.274e-05,8.0979e+07,83.723,0,9.7092e+07,-0.73633,12942,1091.8,0,1091.8,0,0.00058946,9.1304e-10,0,0.00037648,0.00010976,1.0981e+08,145.35,0,5.983e+07,94.796,1091.8,1
3780,3.59,11998,1,11998,1,0.00034186,1.4718e-10,0,0.00056894,-6.2365e-05,3.6465,16.265,0,9.2322e+07,17.859,11997,13888,1,13888,1,0.0013296,4.5594e-09,0,0.0013296,0.00012168,9.9844e+07,371.83,0,2.6267e+08,983.82,13887,11998,1,11998,1,0.00034186,7.5342e-11,0,0.00051217,-6.2327e-05,5.7025e+07,13.815,0,8.1204e+07,-3.5167,11997,10083,1,10083,1,-0.00064589,-2.2129e-09,0,1.2611e-05,-0.00024656,-2.6267e+08,-754.52,0,2.2224e+06,-19.411,10082,11053,1,11053,1,-0.0001703,-1.8688e-10,0,0.00025608,-0.00015761,-6.92e+07,-28.975,0,5.7554e+07,-8.6469,11052,12943,1,12943,1,0.00085403,4.552e-10,0,0.00085403,3.2831e-05,8.1204e+07,70.765,0,9.7363e+07,0.21459,12942,1091.8,0,1091.8,0,0.0005911,5.9822e-10,0,0.00037753,0.00011006,1.1011e+08,98.148,0,5.9996e+07,92.502,1091.8,1
3780,3.6,11998,1,11998,1,0.00034282,-2.2104e-10,0,0.00057053,-6.254e-05,6.282,-40.4,0,9.258e+07,14.236,11997,13888,1,13888,1,0.0013333,3.5331e-09,0,0.0013333,0.00012202,1.0012e+08,325.94,0,2.634e+08,985.14,13887,11998,1,11998,1,0.00034282,-9.6656e-11,0,0.0005136,-6.2501e-05,5.7185e+07,-17.679,0,8.1431e+07,-6.1092,11997,10083,1,10083,1,-0.0006477,-2.8899e-09,0,1.2646e-05,-0.00024725,-2.634e+08,-902.69,0,2.2287e+06,-26.788,10082,11053,1,11053,1,-0.00017078,-7.147e-10,0,0.0002568,-0.00015805,-6.9393e+07,-113.17,0,5.7715e+07,-13.534,11052,12943,1,12943,1,0.00085642,2.411e-10,0,0.00085642,3.2923e-05,8.1431e+07,39.074,0,9.7635e+07,-0.78385,12942,1091.8,0,1091.8,0,0.00059275,8.0513e-10,0,0.00037859,0.00011037,1.1042e+08,132.17,0,6.0164e+07,92.795,1091.8,1
3780,3.61,11998,1,11998,1,0.00034377,-5.0105e-11,0,0.00057211,-6.2713e-05,27.847,-14.411,0,9.2837e+07,12.129,11997,13888,1,13888,1,0.001337,3.6671e-09,0,0.001337,0.00012236,1.004e+08,350.81,0,2.6413e+08,992.78,13887,11998,1,11998,1,0.00034377,7.9459e-13,0,0.00051502,-6.2675e-05,5.7344e+07,0.076279,0,8.1657e+07,-8.213,11997,10083,1,10083,1,-0.0006495,-2.818e-09,0,1.2682e-05,-0.00024794,-2.6413e+08,-887.95,0,2.235e+06,-38.687,10082,11053,1,11053,1,-0.00017125,-5.4652e-10,0,0.00025751,-0.00015849,-6.9586e+07,-85.391,0,5.7875e+07,-16.743,11052,12943,1,12943,1,0.0008588,4.457e-10,0,0.0008588,3.3014e-05,8.1657e+07,70.631,0,9.7906e+07,-2.3664,12942,1091.8,0,1091.8,0,0.0005944,8.3997e-10,0,0.00037964,0.00011068,1.1073e+08,137.03,0,6.0331e+07,94.408,1091.8,1
3780,3.62,11998,1,11998,1,0.00034472,-1.5592e-10,0,0.00057369,-6.2887e-05,11.704,-30.308,0,9.3094e+07,16.956,11997,13888,1,13888,1,0.0013407,4.1384e-09,0,0.0013407,0.00012269,1.0068e+08,334.27,0,2.6486e+08,990.13,13887,11998,1,11998,1,0.00034472,-5.815e-11,0,0.00051645,-6.2848e-05,5.7502e+07,-10.305,0,8.1882e+07,-4.4906,11997,10083,1,10083,1,-0.00065129,-2.4519e-09,0,1.2717e-05,-0.00024862,-2.6486e+08,-829.2,0,2.2413e+06,-22.267,10082,11053,1,11053,1,-0.00017173,-4.8761e-10,0,0.00025822,-0.00015893,-6.9778e+07,-77.924,0,5.8035e+07,-10.304,11052,12943,1,12943,1,0.00086117,1.6571e-10,0,0.00086117,3.3105e-05,8.1882e+07,26.724,0,9.8176e+07,-0.40455,12942,1091.8,0,1091.8,0,0.00059604,6.13e-10,0,0.00038069,0.00011098,1.1103e+08,103,0,6.0498e+07,93.431,1091.8,1
3780,3.63,11998,1,11998,1,0.00034568,-2.973e-10,0,0.00057528,-6.3061e-05,8.2323,-51.397,0,9.3351e+07,15.792,11997,13888,1,13888,1,0.0013444,3.639e-09,0,0.0013444,0.00012303,1.0096e+08,290.03,0,2.6559e+08,1004.1,13887,11998,1,11998,1,0.00034567,-9.4867e-11,0,0.00051787,-6.3022e-05,5.7661e+07,-17.916,0,8.2108e+07,-5.3372,11997,10083,1,10083,1,-0.00065309,-2.8935e-09,0,1.2753e-05,-0.00024931,-2.6559e+08,-908.19,0,2.2476e+06,-34.924,10082,11053,1,11053,1,-0.0001722,-7.7179e-10,0,0.00025894,-0.00015937,-6.9971e+07,-123.64,0,5.8196e+07,-11.946,11052,12943,1,12943,1,0.00086355,1.9913e-10,0,0.00086355,3.3197e-05,8.2108e+07,33.339,0,9.8448e+07,-0.23351,12942,1091.8,0,1091.8,0,0.00059769,8.0842e-10,0,0.00038174,0.00011129,1.1134e+08,132.72,0,6.0665e+07,95.299,1091.8,1
3780,3.64,11998,1,11998,1,0.00034663,-7.5387e-11,0,0.00057686,-6.3234e-05,8.4015,-17.502,0,9.3608e+07,17.176,11997,13888,1,13888,1,0.0013481,4.2625e-09,0,0.0013481,0.00012337,1.0123e+08,345.07,0,2.6632e+08,1002,13887,11998,1,11998,1,0.00034663,-1.3772e-11,0,0.0005193,-6.3195e-05,5.782e+07,-1.6854,0,8.2334e+07,-4.4653,11997,10083,1,10083,1,-0.00065489,-2.3981e-09,0,1.2788e-05,-0.00024999,-2.6632e+08,-817.65,0,2.2539e+06,-22.624,10082,11053,1,11053,1,-0.00017267,-4.3599e-10,0,0.00025965,-0.00015981,-7.0163e+07,-68.662,0,5.8356e+07,-10.235,11052,12943,1,12943,1,0.00086593,2.6509e-10,0,0.00086593,3.3288e-05,8.2334e+07,41.757,0,9.8719e+07,-0.1465,12942,1091.8,0,1091.8,0,0.00059934,6.4152e-10,0,0.00038279,0.0001116,1.1165e+08,106.4,0,6.0832e+07,94.429,1091.8,1
3780,3.65,11998,1,11998,1,0.00034758,-1.8425e-10,0,0.00057845,-6.3408e-05,21.861,-34.131,0,9.3865e+07,16.243,11997,13888,1,13888,1,0.0013519,3.8934e-09,0,0.0013519,0.00012371,1.0151e+08,312.21,0,2.6706e+08,992.84,13887,11998,1,11998,1,0.00034758,-7.9601e-11,0,0.00052073,-6.3369e-05,5.7979e+07,-13.636,0,8.256e+07,-4.6538,11997,10083,1,10083,1,-0.00065669,-2.7059e-09,0,1.2824e-05,-0.00025068,-2.6706e+08,-877.95,0,2.2602e+06,-21.884,10082,11053,1,11053,1,-0.00017315,-5.654e-10,0,0.00026036,-0.00016024,-7.0356e+07,-88.671,0,5.8516e+07,-11.325,11052,12943,1,12943,1,0.00086831,1.8032e-10,0,0.00086831,3.3379e-05,8.256e+07,27.308,0,9.899e+07,-0.5004,12942,1091.8,0,1091.8,0,0.00060098,6.7212e-10,0,0.00038384,0.0001119,1.1195e+08,114.45,0,6.0999e+07,93.389,1091.8,1
3780,3.66,11998,1,11998,1,0.00034853,-5.4963e-11,0,0.00058003,-6.3582e-05,5.3167,-14.988,0,9.4122e+07,18.705,11997,13888,1,13888,1,0.0013556,4.4015e-09,0,0.0013556,0.00012405,1.0179e+08,357.21,0,2.6779e+08,995,13887,11998,1,11998,1,0.00034853,-3.029e-11,0,0.00052215,-6.3543e-05,5.8138e+07,-4.105,0,8.2786e+07,-3.3138,11997,10083,1,10083,1,-0.00065848,-2.3661e-09,0,1.286e-05,-0.00025137,-2.6779e+08,-806.69,0,2.2665e+06,-15.348,10082,11053,1,11053,1,-0.00017362,-3.7034e-10,0,0.00026108,-0.00016068,-7.0549e+07,-58.739,0,5.8676e+07,-8.1005,11052,12943,1,12943,1,0.00087069,2.2205e-10,0,0.00087069,3.3471e-05,8.2786e+07,34.952,0,9.9261e+07,0.34764,12942,1091.8,0,1091.8,0,0.00060263,5.7825e-10,0,0.0003849,0.00011221,1.1226e+08,97.482,0,6.1166e+07,93.436,1091.8,1
3780,3.67,11998,1,11998,1,0.00034949,-2.3386e-11,0,0.00058162,-6.3756e-05,7.6289,-10.678,0,9.4379e+07,14.226,11997,13888,1,13888,1,0.0013593,3.8578e-09,0,0.0013593,0.00012439,1.0207e+08,370.9,0,2.6852e+08,1023.3,13887,11998,1,11998,1,0.00034948,9.2499e-12,0,0.00052358,-6.3717e-05,5.8297e+07,1.3268,0,8.3012e+07,-6.5199,11997,10083,1,10083,1,-0.00066029,-2.7498e-09,0,1.2895e-05,-0.00025206,-2.6852e+08,-884.73,0,2.2728e+06,-46.374,10082,11053,1,11053,1,-0.0001741,-6.4989e-10,0,0.00026179,-0.00016112,-7.0741e+07,-102.91,0,5.8837e+07,-13.642,11052,12943,1,12943,1,0.00087307,5.7867e-10,0,0.00087307,3.3562e-05,8.3012e+07,93.16,0,9.9533e+07,-0.19114,12942,1091.8,0,1091.8,0,0.00060428,9.6894e-10,0,0.00038595,0.00011252,1.1257e+08,153.14,0,6.1333e+07,97.625,1091.8,1
3780,3.68,11998,1,11998,1,0.00035044,-7.9848e-11,0,0.0005832,-6.393e-05,6.9951,-18.526,0,9.4636e+07,16.385,11997,13888,1,13888,1,0.001363,3.9654e-09,0,0.001363,0.00012473,1.0235e+08,338.89,0,2.6925e+08,1012.3,13887,11998,1,11998,1,0.00035044,-1.6705e-11,0,0.00052501,-6.389e-05,5.8456e+07,-1.6251,0,8.3238e+07,-4.6664,11997,10083,1,10083,1,-0.00066208,-2.6937e-09,0,1.2931e-05,-0.00025274,-2.6925e+08,-879,0,2.2791e+06,-27.366,10082,11053,1,11053,1,-0.00017457,-5.4577e-10,0,0.00026251,-0.00016156,-7.0934e+07,-86.759,0,5.8997e+07,-12.227,11052,12943,1,12943,1,0.00087545,3.6646e-10,0,0.00087545,3.3654e-05,8.3238e+07,57.748,0,9.9804e+07,0.099731,12942,1091.8,0,1091.8,0,0.00060592,7.7999e-10,0,0.000387,0.00011282,1.1287e+08,128.74,0,6.15e+07,95.615,1091.8,1
3780,3.69,11998,1,11998,1,0.00035139,-1.4597e-10,0,0.00058479,-6.4103e-05,5.1797,-29.648,0,9.4893e+07,15.748,11997,13888,1,13888,1,0.0013667,4.0035e-09,0,0.0013667,0.00012507,1.0263e+08,321.81,0,2.6998e+08,1021.7,13887,11998,1,11998,1,0.00035139,-4.2887e-11,0,0.00052643,-6.4064e-05,5.8614e+07,-7.0979,0,8.3464e+07,-5.7682,11997,10083,1,10083,1,-0.00066388,-2.6849e-09,0,1.2966e-05,-0.00025343,-2.6998e+08,-877.06,0,2.2854e+06,-35.648,10082,11053,1,11053,1,-0.00017504,-6.7355e-10,0,0.00026322,-0.000162,-7.1127e+07,-107.97,0,5.9157e+07,-12.566,11052,12943,1,12943,1,0.00087783,3.592e-10,0,0.00087783,3.3745e-05,8.3464e+07,58.849,0,1.0008e+08,-0.044138,12942,1091.8,0,1091.8,0,0.00060757,8.492e-10,0,0.00038805,0.00011313,1.1318e+08,135.97,0,6.1667e+07,97.402,1091.8,1
3780,3.7,11998,1,11998,1,0.00035235,2.4272e-11,0,0.00058637,-6.4277e-05,14.451,-3.1237,0,9.5151e+07,14.064,11997,13888,1,13888,1,0.0013704,4.1454e-09,0,0.0013704,0.00012541,1.029e+08,402.28,0,2.7072e+08,1035.2,13887,11998,1,11998,1,0.00035234,2.5672e-11,0,0.00052786,-6.4238e-05,5.8774e+07,3.6476,0,8.369e+07,-6.973,11997,10083,1,10083,1,-0.00066568,-2.5659e-09,0,1.3002e-05,-0.00025412,-2.7072e+08,-853.25,0,2.2917e+06,-50.082,10082,11053,1,11053,1,-0.00017552,-6.2538e-10,0,0.00026393,-0.00016244,-7.1319e+07,-99.851,0,5.9318e+07,-14.91,11052,12943,1,12943,1,0.00088021,6.3194e-10,0,0.00088021,3.3836e-05,8.369e+07,100.38,0,1.0035e+08,-0.37649,12942,1091.8,0,1091.8,0,0.00060922,9.9254e-10,0,0.0003891,0.00011344,1.1349e+08,154.67,0,6.1834e+07,99.269,1091.8,1
3780,3.71,11998,1,11998,1,0.0003533,-9.9597e-11,0,0.00058796,-6.4451e-05,6.0649,-21.806,0,9.5407e+07,18.223,11997,13888,1,13888,1,0.0013741,4.2606e-09,0,0.0013741,0.00012574,1.0318e+08,344.14,0,2.7144e+08,1005.7,13887,11998,1,11998,1,0.00035329,-5.6131e-11,0,0.00052929,-6.4411e-05,5.8932e+07,-8.9551,0,8.3915e+07,-3.614,11997,10083,1,10083,1,-0.00066748,-2.4894e-09,0,1.3037e-05,-0.0002548,-2.7144e+08,-847.75,0,2.2981e+06,-18.996,10082,11053,1,11053,1,-0.00017599,-3.9804e-10,0,0.00026464,-0.00016288,-7.1512e+07,-62.06,0,5.9478e+07,-8.2704,11052,12943,1,12943,1,0.00088259,1.6365e-10,0,0.00088259,3.3928e-05,8.3915e+07,25.208,0,1.0062e+08,0.20587,12942,1091.8,0,1091.8,0,0.00061086,5.7429e-10,0,0.00039015,0.00011374,1.1379e+08,99.215,0,6.2001e+07,94.014,1091.8,1
3780,3.72,11998,1,11998,1,0.00035425,-6.4457e-11,0,0.00058954,-6.4625e-05,8.6982,-16.431,0,9.5665e+07,17.745,11997,13888,1,13888,1,0.0013778,4.3081e-09,0,0.0013778,0.00012608,1.0346e+08,348.43,0,2.7218e+08,1018.5,13887,11998,1,11998,1,0.00035425,-1.7246e-11,0,0.00053072,-6.4585e-05,5.9091e+07,-1.8182,0,8.4142e+07,-4.1047,11997,10083,1,10083,1,-0.00066928,-2.4715e-09,0,1.3073e-05,-0.00025549,-2.7218e+08,-842.65,0,2.3044e+06,-24.774,10082,11053,1,11053,1,-0.00017647,-4.7377e-10,0,0.00026536,-0.00016332,-7.1705e+07,-75.617,0,5.9638e+07,-10.321,11052,12943,1,12943,1,0.00088497,3.1731e-10,0,0.00088497,3.4019e-05,8.4142e+07,50.542,0,1.0089e+08,0.21768,12942,1091.8,0,1091.8,0,0.00061251,6.9486e-10,0,0.00039121,0.00011405,1.141e+08,114.64,0,6.2169e+07,96.172,1091.8,1
3780,3.73,11998,1,11998,1,0.0003552,-9.3845e-11,0,0.00059113,-6.4799e-05,6.654,-20.291,0,9.5922e+07,15.405,11997,13888,1,13888,1,0.0013815,4.2765e-09,0,0.0013815,0.00012642,1.0374e+08,358.99,0,2.7291e+08,1049,13887,11998,1,11998,1,0.0003552,3.5503e-13,0,0.00053214,-6.4759e-05,5.925e+07,0.028531,0,8.4367e+07,-6.1599,11997,10083,1,10083,1,-0.00067108,-2.5264e-09,0,1.3108e-05,-0.00025618,-2.7291e+08,-850.77,0,2.3106e+06,-45.782,10082,11053,1,11053,1,-0.00017694,-6.6997e-10,0,0.00026607,-0.00016376,-7.1897e+07,-107.61,0,5.9798e+07,-14.191,11052,12943,1,12943,1,0.00088735,4.5913e-10,0,0.00088735,3.411e-05,8.4367e+07,72.353,0,1.0116e+08,-0.24508,12942,1091.8,0,1091.8,0,0.00061416,9.1608e-10,0,0.00039226,0.00011436,1.1441e+08,143.74,0,6.2336e+07,100.2,1091.8,1
3780,3.74,11998,1,11998,1,0.00035616,-1.8922e-10,0,0.00059271,-6.4972e-05,8.858,-35.833,0,9.6179e+07,16.232,11997,13888,1,13888,1,0.0013852,3.8028e-09,0,0.0013852,0.00012676,1.0402e+08,303.46,0,2.7364e+08,1027,13887,11998,1,11998,1,0.00035615,-4.0545e-11,0,0.00053357,-6.4932e-05,5.9409e+07,-7.1769,0,8.4593e+07,-5.2995,11997,10083,1,10083,1,-0.00067288,-2.929e-09,0,1.3144e-05,-0.00025686,-2.7364e+08,-926.04,0,2.317e+06,-30.926,10082,11053,1,11053,1,-0.00017741,-6.3551e-10,0,0.00026678,-0.0001642,-7.209e+07,-100.04,0,5.9959e+07,-12.152,11052,12943,1,12943,1,0.00088973,2.7903e-10,0,0.00088973,3.4202e-05,8.4593e+07,45.281,0,1.0143e+08,-0.19793,12942,1091.8,0,1091.8,0,0.0006158,7.7898e-10,0,0.00039331,0.00011466,1.1471e+08,129.77,0,6.2503e+07,97.178,1091.8,1
3780,3.75,11998,1,11998,1,0.00035711,-4.559e-11,0,0.00059429,-6.5146e-05,3.787,-13.609,0,9.6435e+07,18.127,11997,13888,1,13888,1,0.0013889,4.4566e-09,0,0.0013889,0.0001271,1.0429e+08,361.39,0,2.7437e+08,1032.2,13887,11998,1,11998,1,0.0003571,-3.7765e-12,0,0.00053499,-6.5106e-05,5.9568e+07,-0.31312,0,8.4819e+07,-4.1324,11997,10083,1,10083,1,-0.00067467,-2.4526e-09,0,1.3179e-05,-0.00025755,-2.7437e+08,-836.22,0,2.3233e+06,-23.603,10082,11053,1,11053,1,-0.00017789,-4.3028e-10,0,0.0002675,-0.00016464,-7.2282e+07,-67.733,0,6.0119e+07,-10.17,11052,12943,1,12943,1,0.0008921,3.1605e-10,0,0.0008921,3.4293e-05,8.4819e+07,49.741,0,1.017e+08,0.2325,12942,1091.8,0,1091.8,0,0.00061745,6.7212e-10,0,0.00039436,0.00011497,1.1502e+08,110.78,0,6.2669e+07,97.42,1091.8,1
3780,3.76,11998,1,11998,1,0.00035806,-3.0365e-11,0,0.00059588,-6.532e-05,7.2855,-11.439,0,9.6693e+07,17.26,11997,13888,1,13888,1,0.0013926,4.2878e-09,0,0.0013926,0.00012744,1.0457e+08,346.29,0,2.751e+08,1037.8,13887,11998,1,11998,1,0.00035806,7.0435e-12,0,0.00053642,-6.528e-05,5.9727e+07,0.96459,0,8.5045e+07,-4.9258,11997,10083,1,10083,1,-0.00067647,-2.5544e-09,0,1.3215e-05,-0.00025824,-2.751e+08,-863.02,0,2.3296e+06,-30.88,10082,11053,1,11053,1,-0.00017836,-4.5922e-10,0,0.00026821,-0.00016508,-7.2475e+07,-72.091,0,6.0279e+07,-10.797,11052,12943,1,12943,1,0.00089448,4.0033e-10,0,0.00089448,3.4385e-05,8.5045e+07,62.753,0,1.0197e+08,0.055943,12942,1091.8,0,1091.8,0,0.0006191,7.3305e-10,0,0.00039541,0.00011528,1.1533e+08,120.42,0,6.2837e+07,98.16,1091.8,1
3780,3.77,11998,1,11998,1,0.00035901,-4.5345e-11,0,0.00059747,-6.5494e-05,3.7014,-13.376,0,9.695e+07,19.054,11997,13888,1,13888,1,0.0013963,4.4431e-09,0,0.0013963,0.00012778,1.0485e+08,360.01,0,2.7583e+08,1035.7,13887,11998,1,11998,1,0.00035901,4.2586e-12,0,0.00053785,-6.5453e-05,5.9886e+07,0.59388,0,8.5271e+07,-3.4402,11997,10083,1,10083,1,-0.00067827,-2.4838e-09,0,1.325e-05,-0.00025892,-2.7583e+08,-846.86,0,2.3359e+06,-24.385,10082,11053,1,11053,1,-0.00017884,-3.7852e-10,0,0.00026892,-0.00016551,-7.2667e+07,-58.427,0,6.0439e+07,-8.8818,11052,12943,1,12943,1,0.00089686,2.9519e-10,0,0.00089686,3.4476e-05,8.5271e+07,46.149,0,1.0225e+08,0.60766,12942,1091.8,0,1091.8,0,0.00062074,6.3155e-10,0,0.00039647,0.00011558,1.1563e+08,106.39,0,6.3004e+07,97.564,1091.8,1
3780,3.78,11998,1,11998,1,0.00035997,-6.6228e-11,0,0.00059905,-6.5668e-05,2.5705,-16.474,0,9.7207e+07,17.824,11997,13888,1,13888,1,0.0014,4.2902e-09,0,0.0014,0.00012812,1.0513e+08,346.48,0,2.7657e+08,1049.6,13887,11998,1,11998,1,0.00035996,7.792e-12,0,0.00053928,-6.5627e-05,6.0045e+07,0.64442,0,8.5497e+07,-3.8125,11997,10083,1,10083,1,-0.00068007,-2.5736e-09,0,1.3286e-05,-0.00025961,-2.7657e+08,-868.4,0,2.3422e+06,-43.257,10082,11053,1,11053,1,-0.00017931,-6.1886e-10,0,0.00026964,-0.00016595,-7.286e+07,-99.034,0,6.06e+07,-10.586,11052,12943,1,12943,1,0.00089925,4.7373e-10,0,0.00089925,3.4567e-05,8.5497e+07,75.526,0,1.0252e+08,1.0132,12942,1091.8,0,1091.8,0,0.00062239,8.6697e-10,0,0.00039752,0.00011589,1.1594e+08,138.62,0,6.3171e+07,100.15,1091.8,1
3780,3.79,11998,1,11998,1,0.00036092,-4.4953e-11,0,0.00060063,-6.5841e-05,2.5829,-13.824,0,9.7464e+07,19.754,11997,13888,1,13888,1,0.0014037,4.6781e-09,0,0.0014037,0.00012846,1.0541e+08,380.65,0,2.773e+08,1035.4,13887,11998,1,11998,1,0.00036092,-1.8604e-11,0,0.0005407,-6.5801e-05,6.0203e+07,-2.1476,0,8.5723e+07,-3.2047,11997,10083,1,10083,1,-0.00068187,-2.4032e-09,0,1.3322e-05,-0.0002603,-2.773e+08,-819.37,0,2.3486e+06,-17.236,10082,11053,1,11053,1,-0.00017978,-3.607e-10,0,0.00027035,-0.00016639,-7.3052e+07,-57.044,0,6.076e+07,-8.3356,11052,12943,1,12943,1,0.00090162,2.3953e-10,0,0.00090162,3.4659e-05,8.5723e+07,37.627,0,1.0279e+08,0.48472,12942,1091.8,0,1091.8,0,0.00062403,5.9115e-10,0,0.00039857,0.00011619,1.1625e+08,98.329,0,6.3338e+07,97.524,1091.8,1
3780,3.8,11998,1,11998,1,0.00036187,-1.1851e-10,0,0.00060222,-6.6015e-05,7.0443,-25.105,0,9.7721e+07,17.093,11997,13888,1,13888,1,0.0014074,4.0127e-09,0,0.0014074,0.00012879,1.0569e+08,321.46,0,2.7803e+08,1039.3,13887,11998,1,11998,1,0.00036187,-2.218e-11,0,0.00054213,-6.5975e-05,6.0362e+07,-2.0748,0,8.5949e+07,-4.6997,11997,10083,1,10083,1,-0.00068367,-2.8332e-09,0,1.3357e-05,-0.00026099,-2.7803e+08,-917.06,0,2.3549e+06,-33.304,10082,11053,1,11053,1,-0.00018026,-6.0675e-10,0,0.00027107,-0.00016683,-7.3245e+07,-96.815,0,6.092e+07,-10.817,11052,12943,1,12943,1,0.000904,3.6455e-10,0,0.000904,3.475e-05,8.5949e+07,58.186,0,1.0306e+08,0.22236,12942,1091.8,0,1091.8,0,0.00062568,8.0431e-10,0,0.00039962,0.0001165,1.1655e+08,132.59,0,6.3505e+07,98.213,1091.8,1
3780,3.81,11998,1,11998,1,0.00036283,-9.2849e-11,0,0.00060381,-6.6189e-05,11.046,-20.828,0,9.7979e+07,13.708,11997,13888,1,13888,1,0.0014111,3.7598e-09,0,0.0014111,0.00012913,1.0596e+08,403.81,0,2.7876e+08,1066.3,13887,11998,1,11998,1,0.00036282,8.2036e-13,0,0.00054356,-6.6148e-05,6.0522e+07,0.072036,0,8.6175e+07,-7.8045,11997,10083,1,10083,1,-0.00068547,-3.0593e-09,0,1.3393e-05,-0.00026167,-2.7876e+08,-952.33,0,2.3612e+06,-51.656,10082,11053,1,11053,1,-0.00018073,-7.6993e-10,0,0.00027178,-0.00016727,-7.3438e+07,-124.74,0,6.1081e+07,-15.655,11052,12943,1,12943,1,0.00090639,5.7977e-10,0,0.00090639,3.4842e-05,8.6175e+07,91.924,0,1.0333e+08,-0.70797,12942,1091.8,0,1091.8,0,0.00062733,1.0712e-09,0,0.00040068,0.00011681,1.1686e+08,169.42,0,6.3673e+07,101.76,1091.8,1
3780,3.82,11998,1,11998,1,0.00036378,2.8713e-11,0,0.00060539,-6.6363e-05,25.699,-2.9056,0,9.8235e+07,17.534,11997,13888,1,13888,1,0.0014148,4.6739e-09,0,0.0014148,0.00012947,1.0624e+08,380.06,0,2.7949e+08,1047.6,13887,11998,1,11998,1,0.00036377,1.4539e-11,0,0.00054498,-6.6322e-05,6.068e+07,2.6936,0,8.6401e+07,-5.2017,11997,10083,1,10083,1,-0.00068727,-2.4295e-09,0,1.3428e-05,-0.00026236,-2.7949e+08,-828.34,0,2.3676e+06,-33.537,10082,11053,1,11053,1,-0.00018121,-4.2027e-10,0,0.00027249,-0.00016771,-7.363e+07,-65.97,0,6.1241e+07,-10.831,11052,12943,1,12943,1,0.00090876,4.5462e-10,0,0.00090876,3.4933e-05,8.6401e+07,71.409,0,1.036e+08,-0.33736,12942,1091.8,0,1091.8,0,0.00062898,7.2685e-10,0,0.00040173,0.00011711,1.1717e+08,116.97,0,6.3839e+07,99.74,1091.8,1
3780,3.83,11998,1,11998,1,0.00036473,-8.7315e-11,0,0.00060698,-6.6537e-05,8.6042,-20.53,0,9.8492e+07,16.692,11997,13888,1,13888,1,0.0014185,4.1454e-09,0,0.0014185,0.00012981,1.0652e+08,333.15,0,2.8022e+08,1061.2,13887,11998,1,11998,1,0.00036473,-7.8905e-12,0,0.00054641,-6.6496e-05,6.0839e+07,-0.80325,0,8.6627e+07,-5.4895,11997,10083,1,10083,1,-0.00068907,-2.7889e-09,0,1.3464e-05,-0.00026305,-2.8022e+08,-911.65,0,2.3738e+06,-39.961,10082,11053,1,11053,1,-0.00018168,-6.438e-10,0,0.00027321,-0.00016815,-7.3823e+07,-102.73,0,6.1401e+07,-12.355,11052,12943,1,12943,1,0.00091114,4.5813e-10,0,0.00091114,3.5024e-05,8.6627e+07,72.722,0,1.0387e+08,0.30304,12942,1091.8,0,1091.8,0,0.00063062,8.8849e-10,0,0.00040278,0.00011742,1.1747e+08,142.95,0,6.4006e+07,101.09,1091.8,1
3780,3.84,11998,1,11998,1,0.00036568,-3.7736e-11,0,0.00060856,-6.671e-05,9.5111,-12.738,0,9.8749e+07,16.194,11997,13888,1,13888,1,0.0014222,4.1393e-09,0,0.0014222,0.00013015,1.068e+08,351.75,0,2.8096e+08,1064,13887,11998,1,11998,1,0.00036568,8.4706e-12,0,0.00054784,-6.6669e-05,6.0998e+07,0.73369,0,8.6853e+07,-5.9157,11997,10083,1,10083,1,-0.00069087,-2.8201e-09,0,1.3499e-05,-0.00026373,-2.8096e+08,-917.5,0,2.3802e+06,-35.499,10082,11053,1,11053,1,-0.00018215,-5.5945e-10,0,0.00027392,-0.00016859,-7.4016e+07,-88.566,0,6.1561e+07,-13.444,11052,12943,1,12943,1,0.00091352,4.7944e-10,0,0.00091352,3.5116e-05,8.6853e+07,74.895,0,1.0414e+08,-0.23034,12942,1091.8,0,1091.8,0,0.00063227,8.6386e-10,0,0.00040383,0.00011773,1.1778e+08,140.57,0,6.4174e+07,100.86,1091.8,1
3780,3.85,11998,1,11998,1,0.00036664,-1.302e-10,0,0.00061015,-6.6884e-05,3.593,-26.777,0,9.9006e+07,19.129,11997,13888,1,13888,1,0.0014259,4.3697e-09,0,0.0014259,0.00013049,1.0708e+08,352.77,0,2.8169e+08,1053.9,13887,11998,1,11998,1,0.00036663,-3.2751e-11,0,0.00054926,-6.6843e-05,6.1157e+07,-5.3412,0,8.7078e+07,-3.6957,11997,10083,1,10083,1,-0.00069266,-2.6366e-09,0,1.3535e-05,-0.00026442,-2.8169e+08,-889.09,0,2.3865e+06,-22.889,10082,11053,1,11053,1,-0.00018263,-4.9831e-10,0,0.00027463,-0.00016903,-7.4208e+07,-78.772,0,6.1721e+07,-9.6377,11052,12943,1,12943,1,0.0009159,2.3775e-10,0,0.0009159,3.5207e-05,8.7078e+07,38.108,0,1.0442e+08,0.48986,12942,1091.8,0,1091.8,0,0.00063391,6.712e-10,0,0.00040488,0.00011803,1.1809e+08,113.03,0,6.434e+07,99.357,1091.8,1
3780,3.86,11998,1,11998,1,0.00036759,2.5632e-10,0,0.00061173,-6.7058e-05,4.4625,31.38,0,9.9264e+07,17.408,11997,13888,1,13888,1,0.0014296,4.759e-09,0,0.0014296,0.00013083,1.0735e+08,394.01,0,2.8242e+08,1069.1,13887,11998,1,11998,1,0.00036759,1.3099e-10,0,0.00055069,-6.7017e-05,6.1316e+07,22.361,0,8.7304e+07,-5.2889,11997,10083,1,10083,1,-0.00069446,-2.4309e-09,0,1.3571e-05,-0.00026511,-2.8242e+08,-828.87,0,2.3928e+06,-37.128,10082,11053,1,11053,1,-0.0001831,-2.7149e-10,0,0.00027535,-0.00016947,-7.4401e+07,-42.723,0,6.1882e+07,-11.892,11052,12943,1,12943,1,0.00091828,7.857e-10,0,0.00091828,3.5298e-05,8.7304e+07,120.2,0,1.0469e+08,0.55454,12942,1091.8,0,1091.8,0,0.00063556,8.4252e-10,0,0.00040593,0.00011834,1.1839e+08,133.3,0,6.4508e+07,101.65,1091.8,1
3780,3.87,11998,1,11998,1,0.00036854,-2.7499e-10,0,0.00061332,-6.7232e-05,4.9059,-48.824,0,9.9521e+07,16.246,11997,13888,1,13888,1,0.0014334,3.9142e-09,0,0.0014334,0.00013117,1.0763e+08,312.26,0,2.8315e+08,1071.6,13887,11998,1,11998,1,0.00036854,-8.9442e-11,0,0.00055212,-6.719e-05,6.1475e+07,-16.491,0,8.753e+07,-6.1329,11997,10083,1,10083,1,-0.00069626,-3.0459e-09,0,1.3606e-05,-0.00026579,-2.8315e+08,-959.96,0,2.3991e+06,-35.708,10082,11053,1,11053,1,-0.00018358,-8.046e-10,0,0.00027606,-0.00016991,-7.4593e+07,-129.29,0,6.2042e+07,-13.9,11052,12943,1,12943,1,0.00092066,2.5957e-10,0,0.00092066,3.539e-05,8.753e+07,42.379,0,1.0496e+08,-0.34786,12942,1091.8,0,1091.8,0,0.00063721,8.8462e-10,0,0.00040699,0.00011865,1.187e+08,143.93,0,6.4675e+07,101.78,1091.8,1
3780,3.88,11998,1,11998,1,0.0003695,-2.6404e-10,0,0.0006149,-6.7406e-05,9.0992,-47.022,0,9.9778e+07,16.166,11997,13888,1,13888,1,0.0014371,3.7334e-09,0,0.0014371,0.00013151,1.0791e+08,323.8,0,2.8388e+08,1077.4,13887,11998,1,11998,1,0.00036949,-6.9431e-11,0,0.00055354,-6.7364e-05,6.1634e+07,-12.951,0,8.7756e+07,-6.0558,11997,10083,1,10083,1,-0.00069806,-3.2265e-09,0,1.3642e-05,-0.00026648,-2.8388e+08,-993.48,0,2.4055e+06,-41.452,10082,11053,1,11053,1,-0.00018405,-8.4377e-10,0,0.00027677,-0.00017034,-7.4786e+07,-135.58,0,6.2202e+07,-14.077,11052,12943,1,12943,1,0.00092304,3.3812e-10,0,0.00092304,3.5481e-05,8.7756e+07,54.266,0,1.0523e+08,0.054932,12942,1091.8,0,1091.8,0,0.00063886,9.6295e-10,0,0.00040804,0.00011896,1.1901e+08,156.41,0,6.4842e+07,102.33,1091.8,1
3780,3.89,11998,1,11998,1,0.00037045,2.0581e-11,0,0.00061649,-6.7579e-05,5.7383,-3.8163,0,1.0003e+08,17.761,11997,13888,1,13888,1,0.0014408,4.5918e-09,0,0.0014408,0.00013184,1.0819e+08,372.18,0,2.8461e+08,1079.2,13887,11998,1,11998,1,0.00037044,2.3951e-11,0,0.00055497,-6.7538e-05,6.1792e+07,4.1122,0,8.7982e+07,-5.2745,11997,10083,1,10083,1,-0.00069986,-2.5426e-09,0,1.3677e-05,-0.00026717,-2.8461e+08,-866.94,0,2.4118e+06,-36.023,10082,11053,1,11053,1,-0.00018452,-4.8274e-10,0,0.00027748,-0.00017078,-7.4978e+07,-76.296,0,6.2363e+07,-11.218,11052,12943,1,12943,1,0.00092542,4.9989e-10,0,0.00092542,3.5572e-05,8.7982e+07,79.135,0,1.055e+08,0.22114,12942,1091.8,0,1091.8,0,0.0006405,8.0959e-10,0,0.00040909,0.00011926,1.1931e+08,129.93,0,6.5009e+07,102.44,1091.8,1
3780,3.9,11998,1,11998,1,0.0003714,-1.9534e-10,0,0.00061807,-6.7753e-05,5.4302,-36.9,0,1.0029e+08,17.812,11997,13888,1,13888,1,0.0014445,4.1131e-09,0,0.0014445,0.00013218,1.0847e+08,329.49,0,2.8534e+08,1071.4,13887,11998,1,11998,1,0.0003714,-5.6035e-11,0,0.0005564,-6.7712e-05,6.1951e+07,-10.744,0,8.8208e+07,-4.8018,11997,10083,1,10083,1,-0.00070166,-2.9181e-09,0,1.3713e-05,-0.00026785,-2.8534e+08,-942.15,0,2.4181e+06,-34.592,10082,11053,1,11053,1,-0.000185,-7.0402e-10,0,0.0002782,-0.00017122,-7.5171e+07,-113.96,0,6.2523e+07,-10.587,11052,12943,1,12943,1,0.0009278,3.0865e-10,0,0.0009278,3.5664e-05,8.8208e+07,49.484,0,1.0577e+08,0.41574,12942,1091.8,0,1091.8,0,0.00064215,8.3689e-10,0,0.00041014,0.00011957,1.1962e+08,137.04,0,6.5176e+07,101.36,1091.8,1
3780,3.91,11998,1,11998,1,0.00037235,-2.0195e-10,0,0.00061966,-6.7927e-05,3.872,-37.581,0,1.0055e+08,17.221,11997,13888,1,13888,1,0.0014482,3.9734e-09,0,0.0014482,0.00013252,1.0875e+08,324.2,0,2.8608e+08,1081.7,13887,11998,1,11998,1,0.00037235,-3.8659e-11,0,0.00055782,-6.7885e-05,6.211e+07,-6.8694,0,8.8434e+07,-5.2926,11997,10083,1,10083,1,-0.00070346,-3.0639e-09,0,1.3748e-05,-0.00026854,-2.8608e+08,-969.51,0,2.4245e+06,-35.886,10082,11053,1,11053,1,-0.00018547,-7.3148e-10,0,0.00027891,-0.00017166,-7.5364e+07,-116.78,0,6.2683e+07,-12.629,11052,12943,1,12943,1,0.00093018,3.3628e-10,0,0.00093018,3.5755e-05,8.8434e+07,54.038,0,1.0604e+08,0.3047,12942,1091.8,0,1091.8,0,0.0006438,8.8718e-10,0,0.00041119,0.00011987,1.1993e+08,145.44,0,6.5343e+07,102.44,1091.8,1
3780,3.92,11998,1,11998,1,0.00037331,1.1637e-11,0,0.00062124,-6.8101e-05,7.912,-5.4201,0,1.0081e+08,16.849,11997,13888,1,13888,1,0.0014519,4.2638e-09,0,0.0014519,0.00013286,1.0902e+08,365.46,0,2.8681e+08,1088.6,13887,11998,1,11998,1,0.0003733,2.7775e-11,0,0.00055925,-6.8059e-05,6.2269e+07,5.282,0,8.866e+07,-5.7468,11997,10083,1,10083,1,-0.00070526,-2.846e-09,0,1.3784e-05,-0.00026923,-2.8681e+08,-930.35,0,2.4308e+06,-40.8,10082,11053,1,11053,1,-0.00018595,-5.5188e-10,0,0.00027963,-0.0001721,-7.5556e+07,-86.306,0,6.2844e+07,-13.3,11052,12943,1,12943,1,0.00093256,5.733e-10,0,0.00093256,3.5847e-05,8.866e+07,90.344,0,1.0631e+08,0.22631,12942,1091.8,0,1091.8,0,0.00064544,9.1282e-10,0,0.00041224,0.00012018,1.2023e+08,147.43,0,6.551e+07,103.41,1091.8,1
3780,3.93,11998,1,11998,1,0.00037426,-1.4493e-10,0,0.00062283,-6.8275e-05,17.098,-29.426,0,1.0106e+08,16.653,11997,13888,1,13888,1,0.0014556,4.2179e-09,0,0.0014556,0.0001332,1.093e+08,338.84,0,2.8754e+08,1086.5,13887,11998,1,11998,1,0.00037426,-2.6988e-11,0,0.00056068,-6.8233e-05,6.2428e+07,-3.9067,0,8.8886e+07,-6.2445,11997,10083,1,10083,1,-0.00070705,-2.9018e-09,0,1.382e-05,-0.00026992,-2.8754e+08,-940.61,0,2.4372e+06,-40.813,10082,11053,1,11053,1,-0.00018642,-7.0611e-10,0,0.00028034,-0.00017254,-7.5749e+07,-113.33,0,6.3004e+07,-13.993,11052,12943,1,12943,1,0.00093494,4.0693e-10,0,0.00093494,3.5938e-05,8.8886e+07,65.25,0,1.0659e+08,-0.22104,12942,1091.8,0,1091.8,0,0.00064709,9.0708e-10,0,0.0004133,0.00012049,1.2054e+08,146.23,0,6.5677e+07,103.87,1091.8,1
3780,3.94,11998,1,11998,1,0.00037521,-1.9501e-10,0,0.00062441,-6.8448e-05,9.69,-36.72,0,1.0132e+08,17.677,11997,13888,1,13888,1,0.0014593,4.3576e-09,0,0.0014593,0.00013354,1.0958e+08,350.99,0,2.8827e+08,1090.4,13887,11998,1,11998,1,0.00037521,-3.7611e-11,0,0.0005621,-6.8406e-05,6.2587e+07,-7.6766,0,8.9111e+07,-5.6544,11997,10083,1,10083,1,-0.00070885,-2.7886e-09,0,1.3855e-05,-0.0002706,-2.8827e+08,-924.13,0,2.4435e+06,-37.619,10082,11053,1,11053,1,-0.00018689,-6.7551e-10,0,0.00028105,-0.00017298,-7.5941e+07,-108.8,0,6.3164e+07,-11.77,11052,12943,1,12943,1,0.00093731,2.9221e-10,0,0.00093731,3.6029e-05,8.9111e+07,47.5,0,1.0686e+08,-0.22326,12942,1091.8,0,1091.8,0,0.00064873,8.1668e-10,0,0.00041435,0.00012079,1.2085e+08,132.71,0,6.5844e+07,103.67,1091.8,1
3780,3.95,11998,1,11998,1,0.00037616,-4.3421e-11,0,0.000626,-6.8622e-05,6.1078,-12.498,0,1.0158e+08,17.63,11997,13888,1,13888,1,0.001463,4.2807e-09,0,0.001463,0.00013388,1.0986e+08,364.19,0,2.89e+08,1108.2,13887,11998,1,11998,1,0.00037616,2.0595e-11,0,0.00056353,-6.858e-05,6.2746e+07,3.2826,0,8.9337e+07,-5.6208,11997,10083,1,10083,1,-0.00071065,-2.978e-09,0,1.3891e-05,-0.00027129,-2.89e+08,-956.97,0,2.4499e+06,-40.459,10082,11053,1,11053,1,-0.00018737,-5.3862e-10,0,0.00028177,-0.00017342,-7.6134e+07,-83.58,0,6.3324e+07,-13.352,11052,12943,1,12943,1,0.00093969,4.7503e-10,0,0.00093969,3.6121e-05,8.9337e+07,72.829,0,1.0713e+08,0.38739,12942,1091.8,0,1091.8,0,0.00065038,8.7191e-10,0,0.0004154,0.0001211,1.2115e+08,144,0,6.6011e+07,105.34,1091.8,1
3780,3.96,11998,1,11998,1,0.00037712,-5.6095e-11,0,0.00062759,-6.8797e-05,1.4492,-14.911,0,1.0183e+08,17.517,11997,13888,1,13888,1,0.0014667,4.0499e-09,0,0.0014667,0.00013422,1.1014e+08,403.58,0,2.8973e+08,1087.2,13887,11998,1,11998,1,0.00037712,-1.309e-11,0,0.00056496,-6.8754e-05,6.2905e+07,-1.3095,0,8.9564e+07,-5.8432,11997,10083,1,10083,1,-0.00071245,-3.1357e-09,0,1.3927e-05,-0.00027198,-2.8973e+08,-999.9,0,2.4563e+06,-39.07,10082,11053,1,11053,1,-0.00018784,-5.9031e-10,0,0.00028248,-0.00017386,-7.6326e+07,-92.953,0,6.3485e+07,-14.951,11052,12943,1,12943,1,0.00094208,4.8197e-10,0,0.00094208,3.6212e-05,8.9564e+07,75.021,0,1.074e+08,1.7581,12942,1091.8,0,1091.8,0,0.00065203,9.0793e-10,0,0.00041645,0.00012141,1.2146e+08,149.98,0,6.6179e+07,103.96,1091.8,1
3780,3.97,11998,1,11998,1,0.00037807,4.0517e-11,0,0.00062917,-6.897e-05,10.669,-0.18415,0,1.0209e+08,20.81,11997,13888,1,13888,1,0.0014704,5.3488e-09,0,0.0014704,0.00013455,1.1041e+08,440.99,0,2.9046e+08,1094,13887,11998,1,11998,1,0.00037807,6.3907e-12,0,0.00056638,-6.8928e-05,6.3064e+07,0.59302,0,8.9789e+07,-3.8465,11997,10083,1,10083,1,-0.00071424,-2.3169e-09,0,1.3963e-05,-0.00027266,-2.9046e+08,-790.01,0,2.4628e+06,-24.149,10082,11053,1,11053,1,-0.00018831,-2.6841e-10,0,0.00028319,-0.0001743,-7.6518e+07,-42.286,0,6.3645e+07,-9.3003,11052,12943,1,12943,1,0.00094445,2.9832e-10,0,0.00094445,3.6303e-05,8.9789e+07,45.296,0,1.0767e+08,0.87014,12942,1091.8,0,1091.8,0,0.00065367,5.9794e-10,0,0.0004175,0.00012171,1.2177e+08,95.536,0,6.6345e+07,103.96,1091.8,1
3780,3.98,11998,1,11998,1,0.00037902,-1.4574e-10,0,0.00063075,-6.9144e-05,-0.043788,-28.683,0,1.0235e+08,20.617,11997,13888,1,13888,1,0.0014741,4.7445e-09,0,0.0014741,0.00013489,1.1069e+08,384.34,0,2.912e+08,1085.9,13887,11998,1,11998,1,0.00037902,-1.0045e-10,0,0.00056781,-6.9102e-05,6.3223e+07,-16.08,0,9.0015e+07,-3.7924,11997,10083,1,10083,1,-0.00071605,-2.6119e-09,0,1.3999e-05,-0.00027335,-2.912e+08,-890.49,0,2.4693e+06,-23.214,10082,11053,1,11053,1,-0.00018879,-5.2827e-10,0,0.00028391,-0.00017474,-7.6711e+07,-81.154,0,6.3805e+07,-9.591,11052,12943,1,12943,1,0.00094684,1.7407e-10,0,0.00094684,3.6395e-05,9.0015e+07,27.176,0,1.0794e+08,1.2676,12942,1091.8,0,1091.8,0,0.00065532,6.6516e-10,0,0.00041856,0.00012202,1.2207e+08,111.01,0,6.6513e+07,103.12,1091.8,1
3780,3.99,11998,1,11998,1,0.00037998,-2.3909e-10,0,0.00063234,-6.9318e-05,7.2035,-43.579,0,1.026e+08,18.339,11997,13888,1,13888,1,0.0014778,4.188e-09,0,0.0014778,0.00013523,1.1097e+08,334.65,0,2.9193e+08,1092.3,13887,11998,1,11998,1,0.00037998,-9.8966e-11,0,0.00056924,-6.9275e-05,6.3382e+07,-20.516,0,9.0241e+07,-5.3098,11997,10083,1,10083,1,-0.00071785,-3.063e-09,0,1.4035e-05,-0.00027404,-2.9193e+08,-977.65,0,2.4757e+06,-37.171,10082,11053,1,11053,1,-0.00018926,-7.5548e-10,0,0.00028462,-0.00017518,-7.6904e+07,-121.61,0,6.3965e+07,-12.696,11052,12943,1,12943,1,0.00094922,2.861e-10,0,0.00094922,3.6486e-05,9.0241e+07,45.167,0,1.0821e+08,1.7861,12942,1091.8,0,1091.8,0,0.00065697,8.5675e-10,0,0.00041961,0.00012233,1.2238e+08,140.45,0,6.668e+07,104.26,1091.8,1
3780,4,11998,1,11998,1,0.00038093,3.8153e-11,0,0.00063393,-6.9492e-05,2.9808,-0.53159,0,1.0286e+08,19.693,11997,13888,1,13888,1,0.0014815,4.3432e-09,0,0.0014815,0.00013557,1.1125e+08,465.09,0,2.9266e+08,1122.3,13887,11998,1,11998,1,0.00038093,3.8548e-11,0,0.00057067,-6.9449e-05,6.3541e+07,7.3053,0,9.0467e+07,-3.2238,11997,10083,1,10083,1,-0.00071965,-2.9303e-09,0,1.4071e-05,-0.00027473,-2.9266e+08,-960.93,0,2.4822e+06,-43.498,10082,11053,1,11053,1,-0.00018974,-6.1197e-10,0,0.00028533,-0.00017562,-7.7096e+07,-94.577,0,6.4126e+07,-13.998,11052,12943,1,12943,1,0.0009516,6.743e-10,0,0.0009516,3.6577e-05,9.0467e+07,103.55,0,1.0848e+08,2.9415,12942,1091.8,0,1091.8,0,0.00065862,1.0425e-09,0,0.00042066,0.00012263,1.2269e+08,168.98,0,6.6847e+07,107.61,1091.8,1
3780,4.01,11998,1,11998,1,0.00038188,-7.9116e-11,0,0.00063551,-6.9665e-05,7.3051,-18.725,0,1.0312e+08,22.427,11997,13888,1,13888,1,0.0014852,5.1567e-09,0,0.0014852,0.00013591,1.1153e+08,421.36,0,2.9339e+08,1098.6,13887,11998,1,11998,1,0.00038188,-3.1671e-11,0,0.00057209,-6.9623e-05,6.37e+07,-5.262,0,9.0692e+07,-2.511,11997,10083,1,10083,1,-0.00072144,-2.4949e-09,0,1.4107e-05,-0.00027541,-2.9339e+08,-850.62,0,2.4887e+06,-17.225,10082,11053,1,11053,1,-0.00019021,-3.5126e-10,0,0.00028604,-0.00017605,-7.7288e+07,-54.536,0,6.4285e+07,-7.1972,11052,12943,1,12943,1,0.00095397,1.7105e-10,0,0.00095397,3.6668e-05,9.0692e+07,26.222,0,1.0876e+08,0.67187,12942,1091.8,0,1091.8,0,0.00066026,5.7358e-10,0,0.00042171,0.00012294,1.2299e+08,96.265,0,6.7013e+07,104.04,1091.8,1
3780,4.02,11998,1,11998,1,0.00038284,-1.6772e-10,0,0.00063709,-6.984e-05,6.4662,-32.093,0,1.0338e+08,20.808,11997,13888,1,13888,1,0.0014889,4.6632e-09,0,0.0014889,0.00013625,1.1181e+08,377.32,0,2.9412e+08,1104.7,13887,11998,1,11998,1,0.00038283,-4.4851e-11,0,0.00057352,-6.9797e-05,6.3859e+07,-6.8109,0,9.0919e+07,-3.3533,11997,10083,1,10083,1,-0.00072324,-2.6792e-09,0,1.4143e-05,-0.0002761,-2.9412e+08,-913.46,0,2.4951e+06,-26.077,10082,11053,1,11053,1,-0.00019068,-5.1979e-10,0,0.00028676,-0.00017649,-7.7481e+07,-80.767,0,6.4446e+07,-9.0202,11052,12943,1,12943,1,0.00095636,1.9259e-10,0,0.00095636,3.676e-05,9.0919e+07,30.04,0,1.0903e+08,0.28746,12942,1091.8,0,1091.8,0,0.00066191,6.7999e-10,0,0.00042276,0.00012325,1.233e+08,115.6,0,6.7181e+07,104.74,1091.8,1
3780,4.03,11998,1,11998,1,0.00038379,1.3659e-11,0,0.00063868,-7.0014e-05,1.6987,-4.5264,0,1.0363e+08,17.752,11997,13888,1,13888,1,0.0014926,4.348e-09,0,0.0014926,0.00013659,1.1208e+08,454.72,0,2.9485e+08,1134.3,13887,11998,1,11998,1,0.00038379,2.8444e-11,0,0.00057495,-6.9971e-05,6.4018e+07,5.7126,0,9.1145e+07,-5.4473,11997,10083,1,10083,1,-0.00072504,-2.9295e-09,0,1.4179e-05,-0.00027679,-2.9485e+08,-963.14,0,2.5015e+06,-47.428,10082,11053,1,11053,1,-0.00019116,-6.336e-10,0,0.00028747,-0.00017693,-7.7673e+07,-98.181,0,6.4606e+07,-16.1,11052,12943,1,12943,1,0.00095874,6.5232e-10,0,0.00095874,3.6851e-05,9.1145e+07,100.88,0,1.093e+08,1.2447,12942,1091.8,0,1091.8,0,0.00066356,1.0441e-09,0,0.00042382,0.00012355,1.2361e+08,167.91,0,6.7348e+07,109.03,1091.8,1
3780,4.04,11998,1,11998,1,0.00038474,-3.5446e-10,0,0.00064026,-7.0187e-05,-2.7496,-60.349,0,1.0389e+08,24.024,11997,13888,1,13888,1,0.0014963,4.9463e-09,0,0.0014963,0.00013693,1.1236e+08,402.41,0,2.9558e+08,1102.1,13887,11998,1,11998,1,0.00038474,-2.6211e-10,0,0.00057637,-7.0144e-05,6.4177e+07,-41.006,0,9.137e+07,-1.8709,11997,10083,1,10083,1,-0.00072683,-2.6296e-09,0,1.4215e-05,-0.00027747,-2.9558e+08,-896.52,0,2.508e+06,-15.535,10082,11053,1,11053,1,-0.00019163,-6.2721e-10,0,0.00028819,-0.00017737,-7.7865e+07,-92.521,0,6.4766e+07,-4.5905,11052,12943,1,12943,1,0.00096111,-7.4968e-11,0,0.00096111,3.6942e-05,9.137e+07,-13.955,0,1.0957e+08,1.7812,12942,1091.8,0,1091.8,0,0.0006652,5.3804e-10,0,0.00042487,0.00012386,1.2391e+08,90.738,0,6.7514e+07,104.01,1091.8,1
3780,4.05,11998,1,11998,1,0.0003857,-1.1309e-10,0,0.00064186,-7.0362e-05,1.9996,-23.815,0,1.0415e+08,15.645,11997,13888,1,13888,1,0.0015001,3.9478e-09,0,0.0015001,0.00013727,1.1264e+08,455.27,0,2.9632e+08,1118.1,13887,11998,1,11998,1,0.0003857,-2.7103e-11,0,0.0005778,-7.0319e-05,6.4337e+07,-4.1849,0,9.1598e+07,-7.3374,11997,10083,1,10083,1,-0.00072865,-3.341e-09,0,1.4252e-05,-0.00027816,-2.9632e+08,-1049,0,2.5145e+06,-53.81,10082,11053,1,11053,1,-0.00019211,-7.8539e-10,0,0.0002889,-0.00017781,-7.8059e+07,-125.02,0,6.4927e+07,-17.86,11052,12943,1,12943,1,0.00096351,5.4418e-10,0,0.00096351,3.7034e-05,9.1598e+07,86.148,0,1.0984e+08,1.849,12942,1091.8,0,1091.8,0,0.00066686,1.0845e-09,0,0.00042593,0.00012417,1.2422e+08,173.74,0,6.7683e+07,107.4,1091.8,1
3780,4.06,11998,1,11998,1,0.00038665,-1.8013e-10,0,0.00064344,-7.0536e-05,-1.1145,-34.1,0,1.044e+08,18.796,11997,13888,1,13888,1,0.0015037,4.4669e-09,0,0.0015037,0.00013761,1.1292e+08,360.48,0,2.9705e+08,1120.2,13887,11998,1,11998,1,0.00038665,-6.841e-11,0,0.00057923,-7.0492e-05,6.4495e+07,-12.632,0,9.1823e+07,-5.2796,11997,10083,1,10083,1,-0.00073044,-2.8508e-09,0,1.4288e-05,-0.00027885,-2.9705e+08,-959.85,0,2.521e+06,-27.308,10082,11053,1,11053,1,-0.00019258,-5.5604e-10,0,0.00028961,-0.00017825,-7.8251e+07,-84.674,0,6.5087e+07,-12.136,11052,12943,1,12943,1,0.00096588,2.035e-10,0,0.00096588,3.7125e-05,9.1823e+07,32.744,0,1.1011e+08,0.079036,12942,1091.8,0,1091.8,0,0.0006685,7.3346e-10,0,0.00042698,0.00012447,1.2453e+08,124.3,0,6.7849e+07,105.5,1091.8,1
3780,4.07,11998,1,11998,1,0.0003876,-5.8016e-11,0,0.00064502,-7.0709e-05,-1.0883,-14.644,0,1.0466e+08,21.151,11997,13888,1,13888,1,0.0015074,5.1469e-09,0,0.0015074,0.00013794,1.132e+08,420.59,0,2.9778e+08,1126.4,13887,11998,1,11998,1,0.0003876,6.4614e-12,0,0.00058065,-7.0666e-05,6.4654e+07,0.62332,0,9.2048e+07,-4.0949,11997,10083,1,10083,1,-0.00073223,-2.5403e-09,0,1.4324e-05,-0.00027953,-2.9778e+08,-866.17,0,2.5275e+06,-38.264,10082,11053,1,11053,1,-0.00019305,-4.5116e-10,0,0.00029033,-0.00017869,-7.8443e+07,-70.882,0,6.5247e+07,-10.016,11052,12943,1,12943,1,0.00096826,3.2177e-10,0,0.00096826,3.7216e-05,9.2048e+07,50.434,0,1.1038e+08,2.1571,12942,1091.8,0,1091.8,0,0.00067014,7.0711e-10,0,0.00042802,0.00012478,1.2483e+08,113.66,0,6.8016e+07,107.37,1091.8,1
3780,4.08,11998,1,11998,1,0.00038856,-5.2413e-10,0,0.00064661,-7.0884e-05,-1.9445,-86.682,0,1.0492e+08,17.125,11997,13888,1,13888,1,0.0015112,3.7857e-09,0,0.0015112,0.00013828,1.1348e+08,390.09,0,2.9851e+08,1136.5,13887,11998,1,11998,1,0.00038856,-2.8908e-10,0,0.00058208,-7.084e-05,6.4813e+07,-49.359,0,9.2275e+07,-6.2777,11997,10083,1,10083,1,-0.00073404,-3.4829e-09,0,1.436e-05,-0.00028022,-2.9851e+08,-1074.5,0,2.5339e+06,-43.405,10082,11053,1,11053,1,-0.00019352,-1.2091e-09,0,0.00029104,-0.00017913,-7.8635e+07,-190.43,0,6.5407e+07,-18.297,11052,12943,1,12943,1,0.00097064,1.7615e-10,0,0.00097064,3.7308e-05,9.2275e+07,28.74,0,1.1066e+08,1.766,12942,1091.8,0,1091.8,0,0.00067179,1.1129e-09,0,0.00042908,0.00012509,1.2514e+08,178.44,0,6.8183e+07,109.2,1091.8,1
3780,4.09,11998,1,11998,1,0.00038951,-3.8096e-10,0,0.00064819,-7.1057e-05,4.0569,-64.632,0,1.0517e+08,19.999,11997,13888,1,13888,1,0.0015149,4.465e-09,0,0.0015149,0.00013862,1.1375e+08,360.17,0,2.9924e+08,1123.5,13887,11998,1,11998,1,0.00038951,-2.3137e-10,0,0.00058351,-7.1014e-05,6.4972e+07,-37.71,0,9.2501e+07,-4.4377,11997,10083,1,10083,1,-0.00073583,-2.9059e-09,0,1.4396e-05,-0.00028091,-2.9924e+08,-970.26,0,2.5404e+06,-27.323,10082,11053,1,11053,1,-0.000194,-8.5241e-10,0,0.00029175,-0.00017957,-7.8828e+07,-134,0,6.5568e+07,-12.226,11052,12943,1,12943,1,0.00097302,7.8615e-11,0,0.00097302,3.7399e-05,9.2501e+07,13.042,0,1.1093e+08,0.97591,12942,1091.8,0,1091.8,0,0.00067344,8.0313e-10,0,0.00043013,0.00012539,1.2544e+08,133.01,0,6.835e+07,106.7,1091.8,1
3780,4.1,11998,1,11998,1,0.00039047,-3.2566e-10,0,0.00064978,-7.1231e-05,1.1803,-56.23,0,1.0543e+08,18.321,11997,13888,1,13888,1,0.0015186,4.2612e-09,0,0.0015186,0.00013896,1.1403e+08,353.24,0,2.9997e+08,1146.9,13887,11998,1,11998,1,0.00039046,-1.1181e-10,0,0.00058493,-7.1187e-05,6.5131e+07,-20.492,0,9.2726e+07,-5.8034,11997,10083,1,10083,1,-0.00073763,-3.1469e-09,0,1.4432e-05,-0.0002816,-2.9997e+08,-1018.4,0,2.5469e+06,-42.47,10082,11053,1,11053,1,-0.00019447,-9.0428e-10,0,0.00029247,-0.00018001,-7.902e+07,-141.7,0,6.5728e+07,-15.618,11052,12943,1,12943,1,0.0009754,2.8378e-10,0,0.0009754,3.749e-05,9.2726e+07,44.689,0,1.112e+08,1.1342,12942,1091.8,0,1091.8,0,0.00067509,9.8985e-10,0,0.00043118,0.0001257,1.2575e+08,160.4,0,6.8517e+07,109.8,1091.8,1
3780,4.11,11998,1,11998,1,0.00039142,-3.0007e-10,0,0.00065137,-7.1405e-05,1.9452,-52.078,0,1.0569e+08,17.714,11997,13888,1,13888,1,0.0015223,4.4855e-09,0,0.0015223,0.0001393,1.1431e+08,395.44,0,3.0071e+08,1149.4,13887,11998,1,11998,1,0.00039142,-1.222e-10,0,0.00058636,-7.1361e-05,6.529e+07,-23.307,0,9.2953e+07,-6.3643,11997,10083,1,10083,1,-0.00073943,-2.9599e-09,0,1.4468e-05,-0.00028228,-3.0071e+08,-982.32,0,2.5534e+06,-46.061,10082,11053,1,11053,1,-0.00019494,-8.9418e-10,0,0.00029318,-0.00018045,-7.9213e+07,-142.36,0,6.5888e+07,-17.104,11052,12943,1,12943,1,0.00097778,2.9448e-10,0,0.00097778,3.7581e-05,9.2953e+07,46.71,0,1.1147e+08,0.79497,12942,1091.8,0,1091.8,0,0.00067673,1.0037e-09,0,0.00043224,0.00012601,1.2606e+08,160.03,0,6.8684e+07,110.37,1091.8,1
3780,4.12,11998,1,11998,1,0.00039237,-4.3137e-10,0,0.00065295,-7.1579e-05,-3.075,-72.233,0,1.0595e+08,22.089,11997,13888,1,13888,1,0.001526,4.802e-09,0,0.001526,0.00013964,1.1459e+08,389.66,0,3.0144e+08,1135,13887,11998,1,11998,1,0.00039237,-2.7423e-10,0,0.00058779,-7.1535e-05,6.5449e+07,-42.86,0,9.3178e+07,-2.9807,11997,10083,1,10083,1,-0.00074122,-2.7566e-09,0,1.4504e-05,-0.00028297,-3.0144e+08,-939.85,0,2.5599e+06,-26.312,10082,11053,1,11053,1,-0.00019542,-8.6985e-10,0,0.00029389,-0.00018089,-7.9405e+07,-134.46,0,6.6048e+07,-10.188,11052,12943,1,12943,1,0.00098016,-3.7692e-12,0,0.00098016,3.7673e-05,9.3178e+07,-0.57817,0,1.1174e+08,1.8652,12942,1091.8,0,1091.8,0,0.00067838,7.416e-10,0,0.00043329,0.00012631,1.2636e+08,121.22,0,6.8851e+07,107.96,1091.8,1
3780,4.13,11998,1,11998,1,0.00039333,-3.8992e-10,0,0.00065454,-7.1753e-05,-3.8737,-65.225,0,1.062e+08,18.503,11997,13888,1,13888,1,0.0015297,4.138e-09,0,0.0015297,0.00013998,1.1487e+08,375.87,0,3.0217e+08,1166.2,13887,11998,1,11998,1,0.00039332,-1.2088e-10,0,0.00058921,-7.1709e-05,6.5608e+07,-22.264,0,9.3404e+07,-5.7537,11997,10083,1,10083,1,-0.00074303,-3.2941e-09,0,1.454e-05,-0.00028366,-3.0217e+08,-1051.2,0,2.5663e+06,-54.135,10082,11053,1,11053,1,-0.00019589,-1.0395e-09,0,0.00029461,-0.00018133,-7.9597e+07,-163.78,0,6.6208e+07,-16.486,11052,12943,1,12943,1,0.00098254,3.0847e-10,0,0.00098254,3.7764e-05,9.3404e+07,48.695,0,1.1201e+08,2.1809,12942,1091.8,0,1091.8,0,0.00068003,1.1068e-09,0,0.00043434,0.00012662,1.2667e+08,176.74,0,6.9018e+07,112.15,1091.8,1
3780,4.14,11998,1,11998,1,0.00039428,-3.8735e-10,0,0.00065612,-7.1927e-05,0.87887,-65.764,0,1.0646e+08,19.597,11997,13888,1,13888,1,0.0015334,4.5944e-09,0,0.0015334,0.00014032,1.1514e+08,371.25,0,3.029e+08,1151.5,13887,11998,1,11998,1,0.00039427,-1.7015e-10,0,0.00059064,-7.1883e-05,6.5767e+07,-31.489,0,9.363e+07,-5.1565,11997,10083,1,10083,1,-0.00074482,-2.933e-09,0,1.4576e-05,-0.00028434,-3.029e+08,-979.13,0,2.5728e+06,-42.559,10082,11053,1,11053,1,-0.00019636,-9.304e-10,0,0.00029532,-0.00018176,-7.979e+07,-151.02,0,6.6369e+07,-14.894,11052,12943,1,12943,1,0.00098492,1.8054e-10,0,0.00098492,3.7855e-05,9.363e+07,29.6,0,1.1228e+08,1.6871,12942,1091.8,0,1091.8,0,0.00068167,9.2856e-10,0,0.00043539,0.00012693,1.2698e+08,148.71,0,6.9185e+07,110.53,1091.8,1
3780,4.15,11998,1,11998,1,0.00039523,-3.381e-10,0,0.00065771,-7.2101e-05,1.4436,-58.113,0,1.0672e+08,19.249,11997,13888,1,13888,1,0.0015371,4.5917e-09,0,0.0015371,0.00014065,1.1542e+08,370.87,0,3.0363e+08,1153.1,13887,11998,1,11998,1,0.00039523,-1.6184e-10,0,0.00059207,-7.2056e-05,6.5926e+07,-29.04,0,9.3856e+07,-5.3469,11997,10083,1,10083,1,-0.00074662,-2.9365e-09,0,1.4612e-05,-0.00028503,-3.0363e+08,-985.61,0,2.5793e+06,-40.529,10082,11053,1,11053,1,-0.00019684,-8.8523e-10,0,0.00029603,-0.0001822,-7.9982e+07,-142.14,0,6.6529e+07,-15.03,11052,12943,1,12943,1,0.0009873,2.0805e-10,0,0.0009873,3.7947e-05,9.3856e+07,33.28,0,1.1255e+08,1.5395,12942,1091.8,0,1091.8,0,0.00068332,9.1899e-10,0,0.00043644,0.00012723,1.2728e+08,148.01,0,6.9352e+07,110.3,1091.8,1
3780,4.16,11998,1,11998,1,0.00039619,-6.6049e-10,0,0.0006593,-7.2275e-05,1.794,-106.49,0,1.0697e+08,18.161,11997,13888,1,13888,1,0.0015408,3.8452e-09,0,0.0015408,0.00014099,1.157e+08,318.83,0,3.0436e+08,1152.5,13887,11998,1,11998,1,0.00039618,-4.2677e-10,0,0.0005935,-7.2231e-05,6.6085e+07,-66.922,0,9.4082e+07,-5.7449,11997,10083,1,10083,1,-0.00074843,-3.5354e-09,0,1.4649e-05,-0.00028572,-3.0436e+08,-1093.3,0,2.5859e+06,-37.318,10082,11053,1,11053,1,-0.00019731,-1.2625e-09,0,0.00029675,-0.00018264,-8.0175e+07,-194.06,0,6.6689e+07,-14.381,11052,12943,1,12943,1,0.00098968,-2.7789e-11,0,0.00098968,3.8038e-05,9.4082e+07,-4.0372,0,1.1283e+08,0.67793,12942,1091.8,0,1091.8,0,0.00068497,9.775e-10,0,0.0004375,0.00012754,1.2759e+08,160.55,0,6.952e+07,108.88,1091.8,1
3780,4.17,11998,1,11998,1,0.00039714,-7.4353e-11,0,0.00066088,-7.2449e-05,0.48359,-17.94,0,1.0723e+08,21.106,11997,13888,1,13888,1,0.0015445,5.1585e-09,0,0.0015445,0.00014133,1.1598e+08,420.84,0,3.0509e+08,1155.8,13887,11998,1,11998,1,0.00039714,-3.3641e-12,0,0.00059492,-7.2404e-05,6.6244e+07,-0.42973,0,9.4308e+07,-4.2307,11997,10083,1,10083,1,-0.00075022,-2.6594e-09,0,1.4685e-05,-0.0002864,-3.0509e+08,-906.76,0,2.5923e+06,-40.039,10082,11053,1,11053,1,-0.00019779,-5.4097e-10,0,0.00029746,-0.00018308,-8.0367e+07,-84.492,0,6.6849e+07,-10.425,11052,12943,1,12943,1,0.00099206,3.8345e-10,0,0.00099206,3.8129e-05,9.4308e+07,59.796,0,1.131e+08,1.6511,12942,1091.8,0,1091.8,0,0.00068661,7.9549e-10,0,0.00043855,0.00012785,1.279e+08,128.02,0,6.9686e+07,110.28,1091.8,1
3780,4.18,11998,1,11998,1,0.00039809,-8.7133e-11,0,0.00066246,-7.2623e-05,1.4167,-19.803,0,1.0749e+08,20.295,11997,13888,1,13888,1,0.0015482,5.0498e-09,0,0.0015482,0.00014167,1.1626e+08,411.16,0,3.0582e+08,1162.4,13887,11998,1,11998,1,0.00039809,-6.4493e-12,0,0.00059635,-7.2578e-05,6.6403e+07,-0.96047,0,9.4534e+07,-4.9887,11997,10083,1,10083,1,-0.00075202,-2.7162e-09,0,1.4721e-05,-0.00028709,-3.0582e+08,-926.14,0,2.5988e+06,-40.736,10082,11053,1,11053,1,-0.00019826,-5.6814e-10,0,0.00029817,-0.00018352,-8.0559e+07,-88.037,0,6.701e+07,-11.701,11052,12943,1,12943,1,0.00099444,3.8835e-10,0,0.00099444,3.822e-05,9.4534e+07,60.132,0,1.1337e+08,1.2063,12942,1091.8,0,1091.8,0,0.00068826,8.2358e-10,0,0.0004396,0.00012815,1.282e+08,132.88,0,6.9853e+07,110.81,1091.8,1
3780,4.19,11998,1,11998,1,0.00039905,-1.2728e-11,0,0.00066405,-7.2797e-05,-0.19608,-8.8288,0,1.0774e+08,20.917,11997,13888,1,13888,1,0.0015519,5.2022e-09,0,0.0015519,0.00014201,1.1654e+08,424.53,0,3.0656e+08,1155.2,13887,11998,1,11998,1,0.00039904,4.8759e-12,0,0.00059778,-7.2752e-05,6.6562e+07,0.56876,0,9.476e+07,-3.8829,11997,10083,1,10083,1,-0.00075382,-2.6521e-09,0,1.4757e-05,-0.00028778,-3.0656e+08,-904.27,0,2.6054e+06,-35.21,10082,11053,1,11053,1,-0.00019873,-4.9721e-10,0,0.00029889,-0.00018396,-8.0752e+07,-77.586,0,6.717e+07,-11.832,11052,12943,1,12943,1,0.00099682,4.4037e-10,0,0.00099682,3.8312e-05,9.476e+07,67.428,0,1.1364e+08,1.5104,12942,1091.8,0,1091.8,0,0.00068991,8.0709e-10,0,0.00044065,0.00012846,1.2851e+08,129.96,0,7.002e+07,109.75,1091.8,1
3780,4.2,11998,1,11998,1,0.0004,-3.1955e-11,0,0.00066564,-7.2971e-05,0.96235,-12.403,0,1.08e+08,18.202,11997,13888,1,13888,1,0.0015556,4.7163e-09,0,0.0015556,0.00014235,1.1681e+08,424.46,0,3.0729e+08,1142.2,13887,11998,1,11998,1,0.0004,-1.9934e-11,0,0.0005992,-7.2926e-05,6.6721e+07,-2.2187,0,9.4986e+07,-5.8746,11997,10083,1,10083,1,-0.00075562,-2.8281e-09,0,1.4793e-05,-0.00028847,-3.0729e+08,-964.27,0,2.6119e+06,-26.636,10082,11053,1,11053,1,-0.00019921,-5.3404e-10,0,0.0002996,-0.0001844,-8.0944e+07,-83.063,0,6.733e+07,-14.537,11052,12943,1,12943,1,0.00099921,4.4159e-10,0,0.00099921,3.8403e-05,9.4986e+07,68.494,0,1.1391e+08,-0.2899,12942,1091.8,0,1091.8,0,0.00069156,8.5428e-10,0,0.00044171,0.00012877,1.2882e+08,141.09,0,7.0188e+07,107.71,1091.8,1
3780,4.21,11998,1,11998,1,0.00040095,3.2132e-11,0,0.00066722,-7.3145e-05,1.7281,-1.4218,0,1.0826e+08,19.256,11997,13888,1,13888,1,0.0015593,4.9733e-09,0,0.0015593,0.00014269,1.1709e+08,406.33,0,3.0802e+08,1173.6,13887,11998,1,11998,1,0.00040095,4.6001e-11,0,0.00060063,-7.31e-05,6.688e+07,10.795,0,9.5212e+07,-5.4043,11997,10083,1,10083,1,-0.00075741,-2.777e-09,0,1.4829e-05,-0.00028915,-3.0802e+08,-946.89,0,2.6184e+06,-50.433,10082,11053,1,11053,1,-0.00019968,-5.6427e-10,0,0.00030032,-0.00018484,-8.1137e+07,-85.772,0,6.749e+07,-12.942,11052,12943,1,12943,1,0.0010016,6.1801e-10,0,0.0010016,3.8494e-05,9.5212e+07,95.813,0,1.1418e+08,1.2245,12942,1091.8,0,1091.8,0,0.0006932,9.5625e-10,0,0.00044276,0.00012907,1.2912e+08,152.86,0,7.0354e+07,111.98,1091.8,1
3780,4.22,11998,1,11998,1,0.00040191,-1.9041e-10,0,0.0006688,-7.3319e-05,5.9756,-33.868,0,1.0851e+08,18.882,11997,13888,1,13888,1,0.001563,4.7915e-09,0,0.001563,0.00014303,1.1737e+08,402.27,0,3.0875e+08,1197,13887,11998,1,11998,1,0.0004019,1.8137e-12,0,0.00060206,-7.3273e-05,6.7039e+07,0.18876,0,9.5437e+07,-5.9938,11997,10083,1,10083,1,-0.00075921,-2.8937e-09,0,1.4865e-05,-0.00028984,-3.0875e+08,-986.64,0,2.6248e+06,-69.309,10082,11053,1,11053,1,-0.00020015,-8.7315e-10,0,0.00030103,-0.00018528,-8.1329e+07,-139.23,0,6.765e+07,-15.504,11052,12943,1,12943,1,0.001004,5.0288e-10,0,0.001004,3.8586e-05,9.5437e+07,78.341,0,1.1445e+08,2.4778,12942,1091.8,0,1091.8,0,0.00069485,1.1083e-09,0,0.00044381,0.00012938,1.2943e+08,173.43,0,7.0521e+07,116.08,1091.8,1
3780,4.23,11998,1,11998,1,0.00040286,-2.1537e-10,0,0.00067039,-7.3492e-05,1.6393,-39.817,0,1.0877e+08,21.702,11997,13888,1,13888,1,0.0015667,5.0533e-09,0,0.0015667,0.00014336,1.1765e+08,411,0,3.0948e+08,1165.5,13887,11998,1,11998,1,0.00040285,-7.9175e-11,0,0.00060348,-7.3447e-05,6.7198e+07,-15.859,0,9.5663e+07,-3.9578,11997,10083,1,10083,1,-0.00076101,-2.773e-09,0,1.4902e-05,-0.00029053,-3.0948e+08,-945.46,0,2.6314e+06,-34.978,10082,11053,1,11053,1,-0.00020063,-6.6057e-10,0,0.00030174,-0.00018572,-8.1521e+07,-105.49,0,6.781e+07,-10.385,11052,12943,1,12943,1,0.0010063,2.3649e-10,0,0.0010063,3.8677e-05,9.5663e+07,36.764,0,1.1472e+08,1.7098,12942,1091.8,0,1091.8,0,0.00069649,7.8148e-10,0,0.00044486,0.00012969,1.2973e+08,127.48,0,7.0688e+07,110.78,1091.8,1
3780,4.24,11998,1,11998,1,0.00040381,-2.8475e-10,0,0.00067198,-7.3666e-05,1.9517,-49.91,0,1.0903e+08,19.264,11997,13888,1,13888,1,0.0015704,4.7068e-09,0,0.0015704,0.0001437,1.1793e+08,393.87,0,3.1021e+08,1175,13887,11998,1,11998,1,0.00040381,-1.3213e-10,0,0.00060491,-7.3621e-05,6.7357e+07,-24.547,0,9.5889e+07,-5.164,11997,10083,1,10083,1,-0.00076281,-2.9637e-09,0,1.4938e-05,-0.00029122,-3.1021e+08,-1000.4,0,2.6379e+06,-43.769,10082,11053,1,11053,1,-0.0002011,-8.8228e-10,0,0.00030246,-0.00018616,-8.1714e+07,-142.63,0,6.7971e+07,-16.033,11052,12943,1,12943,1,0.0010087,3.0414e-10,0,0.0010087,3.8768e-05,9.5889e+07,47.002,0,1.15e+08,1.2661,12942,1091.8,0,1091.8,0,0.00069814,9.8398e-10,0,0.00044591,0.00012999,1.3004e+08,157.71,0,7.0856e+07,112.29,1091.8,1
3780,4.25,11998,1,11998,1,0.00040477,-2.3285e-10,0,0.00067356,-7.384e-05,-1.5523,-40.957,0,1.0929e+08,18.618,11997,13888,1,13888,1,0.0015741,4.582e-09,0,0.0015741,0.00014404,1.1821e+08,414.1,0,3.1095e+08,1193.1,13887,11998,1,11998,1,0.00040476,-5.2328e-11,0,0.00060634,-7.3795e-05,6.7516e+07,-9.4625,0,9.6115e+07,-6.0815,11997,10083,1,10083,1,-0.00076461,-3.0882e-09,0,1.4974e-05,-0.0002919,-3.1095e+08,-1026.6,0,2.6444e+06,-56.213,10082,11053,1,11053,1,-0.00020157,-8.7272e-10,0,0.00030317,-0.0001866,-8.1906e+07,-137.1,0,6.8131e+07,-16.688,11052,12943,1,12943,1,0.0010111,4.1762e-10,0,0.0010111,3.8859e-05,9.6115e+07,64.09,0,1.1527e+08,1.7368,12942,1091.8,0,1091.8,0,0.00069979,1.0671e-09,0,0.00044697,0.0001303,1.3035e+08,170.22,0,7.1023e+07,114.24,1091.8,1
3780,4.26,11998,1,11998,1,0.00040572,-2.7145e-10,0,0.00067514,-7.4014e-05,-1.0893,-48.031,0,1.0954e+08,22.922,11997,13888,1,13888,1,0.0015778,5.0932e-09,0,0.0015778,0.00014438,1.1848e+08,414.29,0,3.1167e+08,1170.9,13887,11998,1,11998,1,0.00040572,-1.5764e-10,0,0.00060776,-7.3968e-05,6.7675e+07,-24.539,0,9.6341e+07,-3.2735,11997,10083,1,10083,1,-0.0007664,-2.7858e-09,0,1.501e-05,-0.00029259,-3.1167e+08,-949.85,0,2.6509e+06,-24.603,10082,11053,1,11053,1,-0.00020205,-6.0054e-10,0,0.00030388,-0.00018704,-8.2098e+07,-93.241,0,6.8291e+07,-8.1238,11052,12943,1,12943,1,0.0010135,5.5096e-11,0,0.0010135,3.8951e-05,9.6341e+07,8.2872,0,1.1554e+08,1.1276,12942,1091.8,0,1091.8,0,0.00070143,6.6363e-10,0,0.00044802,0.00013061,1.3065e+08,112.19,0,7.1189e+07,110.37,1091.8,1
3780,4.27,11998,1,11998,1,0.00040667,-2.5127e-10,0,0.00067673,-7.4188e-05,3.5637,-45.139,0,1.098e+08,21.854,11997,13888,1,13888,1,0.0015815,5.2701e-09,0,0.0015815,0.00014472,1.1876e+08,429.92,0,3.1241e+08,1180.9,13887,11998,1,11998,1,0.00040667,-1.0437e-10,0,0.00060919,-7.4142e-05,6.7834e+07,-19.757,0,9.6566e+07,-4.5605,11997,10083,1,10083,1,-0.0007682,-2.7253e-09,0,1.5046e-05,-0.00029328,-3.1241e+08,-929.21,0,2.6574e+06,-38.462,10082,11053,1,11053,1,-0.00020252,-6.9367e-10,0,0.0003046,-0.00018748,-8.229e+07,-112.45,0,6.8451e+07,-11.67,11052,12943,1,12943,1,0.0010159,1.9119e-10,0,0.0010159,3.9042e-05,9.6566e+07,31.405,0,1.1581e+08,1.7124,12942,1091.8,0,1091.8,0,0.00070308,7.8542e-10,0,0.00044907,0.00013091,1.3096e+08,125.38,0,7.1356e+07,113.27,1091.8,1
3780,4.28,11998,1,11998,1,0.00040763,-3.6209e-10,0,0.00067832,-7.4362e-05,-0.82377,-62.045,0,1.1006e+08,21.04,11997,13888,1,13888,1,0.0015853,5.0063e-09,0,0.0015853,0.00014506,1.1904e+08,406.44,0,3.1314e+08,1187.9,13887,11998,1,11998,1,0.00040762,-1.7674e-10,0,0.00061062,-7.4316e-05,6.7993e+07,-30.5,0,9.6792e+07,-5.1239,11997,10083,1,10083,1,-0.00077,-2.8676e-09,0,1.5083e-05,-0.00029396,-3.1314e+08,-977.73,0,2.6639e+06,-38.039,10082,11053,1,11053,1,-0.00020299,-8.3532e-10,0,0.00030531,-0.00018791,-8.2483e+07,-134.14,0,6.8612e+07,-13.368,11052,12943,1,12943,1,0.0010182,1.1791e-10,0,0.0010182,3.9133e-05,9.6792e+07,20.56,0,1.1608e+08,1.3938,12942,1091.8,0,1091.8,0,0.00070473,8.3054e-10,0,0.00045012,0.00013122,1.3127e+08,133.94,0,7.1523e+07,113.72,1091.8,1
3780,4.29,11998,1,11998,1,0.00040858,-1.9275e-10,0,0.00067991,-7.4536e-05,4.1628,-35.643,0,1.1031e+08,18.733,11997,13888,1,13888,1,0.001589,4.8173e-09,0,0.001589,0.0001454,1.1932e+08,400.18,0,3.1387e+08,1185.8,13887,11998,1,11998,1,0.00040858,-8.621e-11,0,0.00061205,-7.4491e-05,6.8153e+07,-15.678,0,9.7019e+07,-6.3914,11997,10083,1,10083,1,-0.0007718,-2.9057e-09,0,1.5119e-05,-0.00029465,-3.1387e+08,-990.76,0,2.6705e+06,-34.03,10082,11053,1,11053,1,-0.00020347,-6.694e-10,0,0.00030602,-0.00018836,-8.2676e+07,-104.34,0,6.8772e+07,-14.667,11052,12943,1,12943,1,0.0010206,2.5923e-10,0,0.0010206,3.9225e-05,9.7019e+07,41.86,0,1.1635e+08,0.051451,12942,1091.8,0,1091.8,0,0.00070638,8.522e-10,0,0.00045118,0.00013153,1.3157e+08,139.84,0,7.1691e+07,112.14,1091.8,1
3780,4.3,11998,1,11998,1,0.00040954,-4.2992e-10,0,0.00068149,-7.471e-05,17.548,-72.126,0,1.1057e+08,17.978,11997,13888,1,13888,1,0.0015927,4.4331e-09,0,0.0015927,0.00014574,1.196e+08,358.67,0,3.146e+08,1180.9,13887,11998,1,11998,1,0.00040953,-2.6717e-10,0,0.00061347,-7.4664e-05,6.8311e+07,-43.172,0,9.7245e+07,-6.6959,11997,10083,1,10083,1,-0.0007736,-3.2161e-09,0,1.5155e-05,-0.00029534,-3.146e+08,-1050.6,0,2.677e+06,-37.232,10082,11053,1,11053,1,-0.00020394,-9.8224e-10,0,0.00030674,-0.00018879,-8.2868e+07,-152.92,0,6.8932e+07,-15.691,11052,12943,1,12943,1,0.001023,1.0165e-10,0,0.001023,3.9316e-05,9.7245e+07,16.271,0,1.1662e+08,-0.29468,12942,1091.8,0,1091.8,0,0.00070802,9.0241e-10,0,0.00045223,0.00013183,1.3188e+08,148.4,0,7.1858e+07,111.44,1091.8,1
3780,4.31,11998,1,11998,1,0.00041049,-2.2178e-10,0,0.00068307,-7.4884e-05,3.0718,-40.727,0,1.1083e+08,23.611,11997,13888,1,13888,1,0.0015964,5.5437e-09,0,0.0015964,0.00014607,1.1987e+08,453.7,0,3.1533e+08,1178.6,13887,11998,1,11998,1,0.00041048,-1.4753e-10,0,0.0006149,-7.4838e-05,6.847e+07,-23.147,0,9.747e+07,-3.3179,11997,10083,1,10083,1,-0.00077539,-2.6423e-09,0,1.5191e-05,-0.00029602,-3.1533e+08,-900.91,0,2.6836e+06,-18.395,10082,11053,1,11053,1,-0.00020441,-5.0807e-10,0,0.00030745,-0.00018923,-8.306e+07,-77.982,0,6.9092e+07,-7.9348,11052,12943,1,12943,1,0.0010254,2.6185e-11,0,0.0010254,3.9407e-05,9.747e+07,4.2793,0,1.169e+08,0.74144,12942,1091.8,0,1091.8,0,0.00070966,5.9548e-10,0,0.00045328,0.00013214,1.3219e+08,97.448,0,7.2024e+07,111.16,1091.8,1
3780,4.32,11998,1,11998,1,0.00041144,-1.5786e-10,0,0.00068466,-7.5058e-05,2.2797,-31.092,0,1.1108e+08,21.777,11997,13888,1,13888,1,0.0016001,5.3121e-09,0,0.0016001,0.00014641,1.2015e+08,433.22,0,3.1606e+08,1185.7,13887,11998,1,11998,1,0.00041144,-8.6621e-11,0,0.00061633,-7.5012e-05,6.8629e+07,-16.224,0,9.7696e+07,-4.2952,11997,10083,1,10083,1,-0.00077719,-2.7452e-09,0,1.5228e-05,-0.00029671,-3.1606e+08,-936,0,2.6901e+06,-30.633,10082,11053,1,11053,1,-0.00020489,-6.0559e-10,0,0.00030816,-0.00018967,-8.3252e+07,-96.425,0,6.9253e+07,-11.924,11052,12943,1,12943,1,0.0010278,2.5204e-10,0,0.0010278,3.9498e-05,9.7696e+07,39.14,0,1.1717e+08,1.3714,12942,1091.8,0,1091.8,0,0.00071131,7.6862e-10,0,0.00045433,0.00013245,1.3249e+08,124.73,0,7.2192e+07,112.46,1091.8,1
3780,4.33,11998,1,11998,1,0.0004124,-1.1365e-10,0,0.00068625,-7.5232e-05,0.69951,-24.511,0,1.1134e+08,19.177,11997,13888,1,13888,1,0.0016038,4.9491e-09,0,0.0016038,0.00014675,1.2043e+08,450.49,0,3.168e+08,1191.4,13887,11998,1,11998,1,0.00041239,-8.9552e-11,0,0.00061775,-7.5186e-05,6.8789e+07,-16.283,0,9.7922e+07,-5.9569,11997,10083,1,10083,1,-0.000779,-2.8998e-09,0,1.5264e-05,-0.0002974,-3.168e+08,-988.72,0,2.6966e+06,-32.033,10082,11053,1,11053,1,-0.00020536,-6.349e-10,0,0.00030888,-0.00019011,-8.3445e+07,-98.598,0,6.9413e+07,-14.602,11052,12943,1,12943,1,0.0010302,3.371e-10,0,0.0010302,3.959e-05,9.7922e+07,51.815,0,1.1744e+08,0.23526,12942,1091.8,0,1091.8,0,0.00071296,8.8458e-10,0,0.00045538,0.00013275,1.328e+08,144.88,0,7.2359e+07,112.51,1091.8,1
3780,4.34,11998,1,11998,1,0.00041335,-9.668e-11,0,0.00068783,-7.5406e-05,-0.92077,-20.786,0,1.116e+08,21.778,11997,13888,1,13888,1,0.0016075,5.4931e-09,0,0.0016075,0.00014709,1.2071e+08,449.02,0,3.1753e+08,1210.7,13887,11998,1,11998,1,0.00041334,-2.1218e-11,0,0.00061918,-7.5359e-05,6.8947e+07,-2.9594,0,9.8148e+07,-4.6519,11997,10083,1,10083,1,-0.00078079,-2.7163e-09,0,1.53e-05,-0.00029809,-3.1753e+08,-926.18,0,2.7031e+06,-46.659,10082,11053,1,11053,1,-0.00020583,-6.0659e-10,0,0.00030959,-0.00019055,-8.3637e+07,-96.656,0,6.9573e+07,-13.61,11052,12943,1,12943,1,0.0010325,3.915e-10,0,0.0010325,3.9681e-05,9.8148e+07,61.169,0,1.1771e+08,2.4871,12942,1091.8,0,1091.8,0,0.00071461,8.6623e-10,0,0.00045643,0.00013306,1.3311e+08,136.47,0,7.2525e+07,116.08,1091.8,1
3780,4.35,11998,1,11998,1,0.0004143,-3.6422e-11,0,0.00068941,-7.5579e-05,5.258,-12.531,0,1.1185e+08,23.551,11997,13888,1,13888,1,0.0016112,5.8258e-09,0,0.0016112,0.00014743,1.2099e+08,480.68,0,3.1826e+08,1196.2,13887,11998,1,11998,1,0.0004143,-1.3074e-11,0,0.0006206,-7.5533e-05,6.9106e+07,-2.3112,0,9.8373e+07,-3.9083,11997,10083,1,10083,1,-0.00078258,-2.5704e-09,0,1.5336e-05,-0.00029877,-3.1826e+08,-876.43,0,2.7097e+06,-25.83,10082,11053,1,11053,1,-0.00020631,-3.6557e-10,0,0.0003103,-0.00019099,-8.3829e+07,-57.378,0,6.9733e+07,-9.1285,11052,12943,1,12943,1,0.0010349,2.5981e-10,0,0.0010349,3.9772e-05,9.8373e+07,39.727,0,1.1798e+08,1.2003,12942,1091.8,0,1091.8,0,0.00071625,6.468e-10,0,0.00045749,0.00013337,1.3341e+08,103.3,0,7.2692e+07,113.56,1091.8,1
3780,4.36,11998,1,11998,1,0.00041526,-3.2312e-10,0,0.000691,-7.5754e-05,3.354,-55.638,0,1.1211e+08,18.742,11997,13888,1,13888,1,0.0016149,4.9021e-09,0,0.0016149,0.00014777,1.2127e+08,396.68,0,3.1899e+08,1221,13887,11998,1,11998,1,0.00041525,-1.5339e-10,0,0.00062203,-7.5707e-05,6.9266e+07,-27.174,0,9.86e+07,-7.0551,11997,10083,1,10083,1,-0.00078439,-3.0093e-09,0,1.5373e-05,-0.00029946,-3.1899e+08,-1021.8,0,2.7162e+06,-51.38,10082,11053,1,11053,1,-0.00020678,-9.3109e-10,0,0.00031102,-0.00019143,-8.4022e+07,-150.91,0,6.9894e+07,-18.521,11052,12943,1,12943,1,0.0010373,2.8802e-10,0,0.0010373,3.9863e-05,9.86e+07,47.39,0,1.1825e+08,1.3953,12942,1091.8,0,1091.8,0,0.00071791,1.0227e-09,0,0.00045854,0.00013367,1.3372e+08,161.46,0,7.286e+07,117.41,1091.8,1
3780,4.37,11998,1,11998,1,0.00041621,-5.2707e-10,0,0.00069259,-7.5928e-05,0.09703,-87.179,0,1.1237e+08,19.955,11997,13888,1,13888,1,0.0016186,4.6306e-09,0,0.0016186,0.00014811,1.2154e+08,372.45,0,3.1972e+08,1210.4,13887,11998,1,11998,1,0.00041621,-3.4208e-10,0,0.00062346,-7.5881e-05,6.9425e+07,-54.96,0,9.8826e+07,-5.7114,11997,10083,1,10083,1,-0.00078619,-3.2496e-09,0,1.5409e-05,-0.00030015,-3.1972e+08,-1064.6,0,2.7227e+06,-35.391,10082,11053,1,11053,1,-0.00020725,-1.1176e-09,0,0.00031173,-0.00019187,-8.4214e+07,-173.21,0,7.0054e+07,-15.237,11052,12943,1,12943,1,0.0010397,3.6839e-11,0,0.0010397,3.9955e-05,9.8826e+07,5.6839,0,1.1852e+08,0.60899,12942,1091.8,0,1091.8,0,0.00071955,9.3485e-10,0,0.00045959,0.00013398,1.3403e+08,151.96,0,7.3027e+07,115.36,1091.8,1
3780,4.38,11998,1,11998,1,0.00041716,-5.6652e-11,0,0.00069417,-7.6101e-05,0.37428,-16.75,0,1.1262e+08,24.417,11997,13888,1,13888,1,0.0016223,5.7992e-09,0,0.0016223,0.00014845,1.2182e+08,477.28,0,3.2045e+08,1190.2,13887,11998,1,11998,1,0.00041716,-5.6675e-11,0,0.00062488,-7.6055e-05,6.9583e+07,-10.2,0,9.9051e+07,-2.8479,11997,10083,1,10083,1,-0.00078798,-2.6087e-09,0,1.5445e-05,-0.00030083,-3.2045e+08,-889.47,0,2.7293e+06,-15.226,10082,11053,1,11053,1,-0.00020773,-3.0328e-10,0,0.00031244,-0.00019231,-8.4406e+07,-47.26,0,7.0214e+07,-6.3969,11052,12943,1,12943,1,0.001042,1.357e-10,0,0.001042,4.0046e-05,9.9051e+07,20.949,0,1.1879e+08,0.68823,12942,1091.8,0,1091.8,0,0.00072119,5.6752e-10,0,0.00046064,0.00013429,1.3433e+08,93.375,0,7.3193e+07,111.93,1091.8,1
3780,4.39,11998,1,11998,1,0.00041812,-8.7483e-11,0,0.00069576,-7.6276e-05,-0.57196,-21.422,0,1.1288e+08,19.05,11997,13888,1,13888,1,0.001626,4.529e-09,0,0.001626,0.00014879,1.221e+08,415.27,0,3.2118e+08,1202,13887,11998,1,11998,1,0.00041811,-2.1548e-11,0,0.00062632,-7.6229e-05,6.9743e+07,-2.5927,0,9.9277e+07,-5.7899,11997,10083,1,10083,1,-0.00078979,-3.3362e-09,0,1.5482e-05,-0.00030152,-3.2118e+08,-1081,0,2.7359e+06,-33.952,10082,11053,1,11053,1,-0.0002082,-6.0011e-10,0,0.00031316,-0.00019275,-8.4599e+07,-93.188,0,7.0374e+07,-14.831,11052,12943,1,12943,1,0.0010444,4.5097e-10,0,0.0010444,4.0137e-05,9.9277e+07,69.388,0,1.1907e+08,0.1525,12942,1091.8,0,1091.8,0,0.00072284,9.2986e-10,0,0.0004617,0.00013459,1.3464e+08,156.18,0,7.3361e+07,113.35,1091.8,1
3780,4.4,11998,1,11998,1,0.00041907,-1.8323e-10,0,0.00069734,-7.645e-05,3.253,-35.277,0,1.1314e+08,19.213,11997,13888,1,13888,1,0.0016297,4.5178e-09,0,0.0016297,0.00014912,1.2238e+08,412.75,0,3.2191e+08,1200.3,13887,11998,1,11998,1,0.00041907,-8.6419e-11,0,0.00062774,-7.6403e-05,6.9902e+07,-13.792,0,9.9503e+07,-5.5889,11997,10083,1,10083,1,-0.00079158,-3.3671e-09,0,1.5518e-05,-0.00030221,-3.2191e+08,-1086.9,0,2.7424e+06,-33.994,10082,11053,1,11053,1,-0.00020867,-6.0777e-10,0,0.00031387,-0.00019319,-8.4791e+07,-93.074,0,7.0534e+07,-12.053,11052,12943,1,12943,1,0.0010468,2.402e-10,0,0.0010468,4.0228e-05,9.9503e+07,35.668,0,1.1934e+08,0.031297,12942,1091.8,0,1091.8,0,0.00072449,8.4154e-10,0,0.00046275,0.0001349,1.3495e+08,145.24,0,7.3528e+07,112.49,1091.8,1
3780,4.41,11998,1,11998,1,0.00042003,-1.6655e-10,0,0.00069893,-7.6624e-05,3.3657,-33.25,0,1.134e+08,17.118,11997,13888,1,13888,1,0.0016334,4.366e-09,0,0.0016334,0.00014946,1.2266e+08,476.25,0,3.2265e+08,1203.1,13887,11998,1,11998,1,0.00042002,-1.0017e-10,0,0.00062917,-7.6577e-05,7.0061e+07,-17.68,0,9.973e+07,-7.5972,11997,10083,1,10083,1,-0.00079339,-3.458e-09,0,1.5554e-05,-0.0003029,-3.2265e+08,-1102.9,0,2.749e+06,-36.549,10082,11053,1,11053,1,-0.00020915,-7.4131e-10,0,0.00031459,-0.00019363,-8.4984e+07,-113.22,0,7.0695e+07,-17.125,11052,12943,1,12943,1,0.0010492,3.6797e-10,0,0.0010492,4.032e-05,9.973e+07,57.63,0,1.1961e+08,-1.5668,12942,1091.8,0,1091.8,0,0.00072614,9.8461e-10,0,0.0004638,0.00013521,1.3525e+08,163.31,0,7.3695e+07,113.11,1091.8,1
3780,4.42,11998,1,11998,1,0.00042098,-1.7478e-10,0,0.00070052,-7.6798e-05,4.7787,-34.049,0,1.1365e+08,19.033,11997,13888,1,13888,1,0.0016371,4.6545e-09,0,0.0016371,0.0001498,1.2294e+08,433.77,0,3.2338e+08,1210.8,13887,11998,1,11998,1,0.00042098,-9.8898e-11,0,0.0006306,-7.6751e-05,7.022e+07,-17.959,0,9.9955e+07,-5.9894,11997,10083,1,10083,1,-0.00079518,-3.2578e-09,0,1.5591e-05,-0.00030358,-3.2338e+08,-1071.6,0,2.7555e+06,-31.735,10082,11053,1,11053,1,-0.00020962,-6.2231e-10,0,0.0003153,-0.00019407,-8.5176e+07,-94.878,0,7.0855e+07,-14.477,11052,12943,1,12943,1,0.0010516,2.4269e-10,0,0.0010516,4.0411e-05,9.9955e+07,36.822,0,1.1988e+08,-0.68525,12942,1091.8,0,1091.8,0,0.00072779,8.5172e-10,0,0.00046486,0.00013551,1.3556e+08,144.53,0,7.3862e+07,113.39,1091.8,1
3780,4.43,11998,1,11998,1,0.00042193,-4.0887e-10,0,0.0007021,-7.6971e-05,3.9286,-68.988,0,1.1391e+08,20.505,11997,13888,1,13888,1,0.0016408,4.9355e-09,0,0.0016408,0.00015014,1.2321e+08,398.79,0,3.2411e+08,1227.3,13887,11998,1,11998,1,0.00042193,-2.4317e-10,0,0.00063202,-7.6924e-05,7.0378e+07,-41.39,0,1.0018e+08,-5.3194,11997,10083,1,10083,1,-0.00079698,-3.1192e-09,0,1.5627e-05,-0.00030427,-3.2411e+08,-1046.1,0,2.762e+06,-43.955,10082,11053,1,11053,1,-0.00021009,-1.0199e-09,0,0.00031601,-0.0001945,-8.5368e+07,-158.52,0,7.1015e+07,-16.968,11052,12943,1,12943,1,0.001054,1.4118e-10,0,0.001054,4.0502e-05,1.0018e+08,24.274,0,1.2015e+08,1.4671,12942,1091.8,0,1091.8,0,0.00072943,9.8459e-10,0,0.00046591,0.00013582,1.3586e+08,157.45,0,7.4029e+07,117.48,1091.8,1
3780,4.44,11998,1,11998,1,0.00042289,-3.2962e-10,0,0.00070369,-7.7146e-05,-1.6434,-57.288,0,1.1417e+08,21.981,11997,13888,1,13888,1,0.0016446,4.9592e-09,0,0.0016446,0.00015048,1.2349e+08,400.71,0,3.2484e+08,1221.6,13887,11998,1,11998,1,0.00042288,-1.985e-10,0,0.00063345,-7.7098e-05,7.0538e+07,-31.872,0,1.0041e+08,-4.6471,11997,10083,1,10083,1,-0.00079878,-3.0584e-09,0,1.5663e-05,-0.00030496,-3.2484e+08,-1039.1,0,2.7686e+06,-28.683,10082,11053,1,11053,1,-0.00021057,-7.6826e-10,0,0.00031673,-0.00019494,-8.556e+07,-119.21,0,7.1175e+07,-11.975,11052,12943,1,12943,1,0.0010563,8.553e-11,0,0.0010563,4.0593e-05,1.0041e+08,13.311,0,1.2042e+08,1.4062,12942,1091.8,0,1091.8,0,0.00073108,8.0876e-10,0,0.00046696,0.00013613,1.3617e+08,135.6,0,7.4196e+07,115.11,1091.8,1
3780,4.45,11998,1,11998,1,0.00042384,-3.3358e-10,0,0.00070527,-7.7319e-05,0.54885,-58.139,0,1.1442e+08,24.382,11997,13888,1,13888,1,0.0016482,5.3943e-09,0,0.0016482,0.00015082,1.2377e+08,439.04,0,3.2557e+08,1218.7,13887,11998,1,11998,1,0.00042383,-2.2185e-10,0,0.00063487,-7.7272e-05,7.0696e+07,-35.282,0,1.0063e+08,-3.085,11997,10083,1,10083,1,-0.00080057,-2.8884e-09,0,1.5699e-05,-0.00030564,-3.2557e+08,-984.79,0,2.7751e+06,-22.057,10082,11053,1,11053,1,-0.00021104,-7.2655e-10,0,0.00031744,-0.00019538,-8.5752e+07,-112.53,0,7.1335e+07,-9.3831,11052,12943,1,12943,1,0.0010587,1.7038e-11,0,0.0010587,4.0684e-05,1.0063e+08,2.7327,0,1.2069e+08,1.3212,12942,1091.8,0,1091.8,0,0.00073272,7.1003e-10,0,0.00046801,0.00013643,1.3648e+08,117.95,0,7.4362e+07,115.43,1091.8,1
3780,4.46,11998,1,11998,1,0.00042479,-4.6152e-10,0,0.00070686,-7.7494e-05,7.5751,-78.466,0,1.1468e+08,19.168,11997,13888,1,13888,1,0.001652,4.171e-09,0,0.001652,0.00015116,1.2405e+08,382.66,0,3.263e+08,1219.4,13887,11998,1,11998,1,0.00042479,-2.6344e-10,0,0.00063631,-7.7446e-05,7.0856e+07,-44.005,0,1.0086e+08,-6.1382,11997,10083,1,10083,1,-0.00080238,-3.7304e-09,0,1.5736e-05,-0.00030633,-3.263e+08,-1160.9,0,2.7817e+06,-35.216,10082,11053,1,11053,1,-0.00021151,-9.8095e-10,0,0.00031815,-0.00019582,-8.5945e+07,-153.47,0,7.1496e+07,-14.585,11052,12943,1,12943,1,0.0010611,7.6129e-11,0,0.0010611,4.0776e-05,1.0086e+08,12.051,0,1.2097e+08,0.80352,12942,1091.8,0,1091.8,0,0.00073438,9.4856e-10,0,0.00046907,0.00013674,1.3678e+08,161.32,0,7.453e+07,114.25,1091.8,1
3780,4.47,11998,1,11998,1,0.00042575,-3.9793e-10,0,0.00070844,-7.7668e-05,9.0253,-67.31,0,1.1494e+08,20.882,11997,13888,1,13888,1,0.0016557,4.9024e-09,0,0.0016557,0.0001515,1.2433e+08,395.45,0,3.2704e+08,1231.1,13887,11998,1,11998,1,0.00042574,-2.6354e-10,0,0.00063773,-7.762e-05,7.1015e+07,-41.747,0,1.0108e+08,-4.9865,11997,10083,1,10083,1,-0.00080417,-3.1668e-09,0,1.5772e-05,-0.00030702,-3.2704e+08,-1061.5,0,2.7883e+06,-32.747,10082,11053,1,11053,1,-0.00021199,-9.2001e-10,0,0.00031887,-0.00019626,-8.6137e+07,-141.96,0,7.1656e+07,-14.073,11052,12943,1,12943,1,0.0010635,7.1483e-11,0,0.0010635,4.0867e-05,1.0108e+08,12.056,0,1.2124e+08,0.50354,12942,1091.8,0,1091.8,0,0.00073602,8.9452e-10,0,0.00047012,0.00013705,1.3709e+08,147.58,0,7.4697e+07,116.61,1091.8,1
3780,4.48,11998,1,11998,1,0.0004267,-5.8324e-10,0,0.00071003,-7.7842e-05,9.5828,-95.465,0,1.152e+08,18.64,11997,13888,1,13888,1,0.0016594,3.87e-09,0,0.0016594,0.00015184,1.2461e+08,414.8,0,3.2777e+08,1237.3,13887,11998,1,11998,1,0.0004267,-3.3881e-10,0,0.00063916,-7.7794e-05,7.1174e+07,-54.465,0,1.0131e+08,-7.1477,11997,10083,1,10083,1,-0.00080598,-3.9884e-09,0,1.5809e-05,-0.00030771,-3.2777e+08,-1210.1,0,2.7948e+06,-46.063,10082,11053,1,11053,1,-0.00021246,-1.161e-09,0,0.00031958,-0.0001967,-8.633e+07,-178.98,0,7.1816e+07,-15.165,11052,12943,1,12943,1,0.0010659,3.4335e-11,0,0.0010659,4.0958e-05,1.0131e+08,5.1224,0,1.2151e+08,1.1965,12942,1091.8,0,1091.8,0,0.00073767,1.0548e-09,0,0.00047117,0.00013735,1.374e+08,176.78,0,7.4864e+07,115.81,1091.8,1
3780,4.49,11998,1,11998,1,0.00042765,-4.9661e-10,0,0.00071161,-7.8016e-05,5.7614,-82.988,0,1.1545e+08,20.687,11997,13888,1,13888,1,0.0016631,4.6855e-09,0,0.0016631,0.00015217,1.2488e+08,384.38,0,3.285e+08,1225.3,13887,11998,1,11998,1,0.00042765,-3.6077e-10,0,0.00064058,-7.7968e-05,7.1333e+07,-56.159,0,1.0154e+08,-5.0669,11997,10083,1,10083,1,-0.00080777,-3.3617e-09,0,1.5845e-05,-0.0003084,-3.285e+08,-1095.3,0,2.8014e+06,-35.081,10082,11053,1,11053,1,-0.00021293,-1.0641e-09,0,0.00032029,-0.00019714,-8.6522e+07,-162.54,0,7.1976e+07,-13.885,11052,12943,1,12943,1,0.0010682,-6.5902e-12,0,0.0010682,4.105e-05,1.0154e+08,-1.5571,0,1.2178e+08,0.52339,12942,1091.8,0,1091.8,0,0.00073931,9.0443e-10,0,0.00047222,0.00013766,1.377e+08,150.74,0,7.5031e+07,115.69,1091.8,1
3780,4.5,11998,1,11998,1,0.00042861,-4.5555e-10,0,0.0007132,-7.819e-05,-2.3359,-75.577,0,1.1571e+08,18.96,11997,13888,1,13888,1,0.0016668,4.2401e-09,0,0.0016668,0.00015251,1.2516e+08,480.09,0,3.2923e+08,1250.2,13887,11998,1,11998,1,0.00042861,-2.4576e-10,0,0.00064201,-7.8142e-05,7.1492e+07,-40.483,0,1.0176e+08,-6.5455,11997,10083,1,10083,1,-0.00080957,-3.7398e-09,0,1.5881e-05,-0.00030908,-3.2923e+08,-1167.6,0,2.8079e+06,-45.914,10082,11053,1,11053,1,-0.00021341,-1.1081e-09,0,0.00032101,-0.00019758,-8.6715e+07,-172.48,0,7.2137e+07,-17.517,11052,12943,1,12943,1,0.0010706,1.7969e-10,0,0.0010706,4.1141e-05,1.0176e+08,29.614,0,1.2205e+08,1.121,12942,1091.8,0,1091.8,0,0.00074097,1.1349e-09,0,0.00047328,0.00013797,1.3801e+08,185.13,0,7.5198e+07,118.61,1091.8,1
3780,4.51,11998,1,11998,1,0.00042956,-3.2087e-10,0,0.00071478,-7.8363e-05,5.5811,-56.166,0,1.1597e+08,23.618,11997,13888,1,13888,1,0.0016705,5.2988e-09,0,0.0016705,0.00015285,1.2544e+08,430.12,0,3.2996e+08,1237.1,13887,11998,1,11998,1,0.00042956,-1.7212e-10,0,0.00064344,-7.8315e-05,7.1651e+07,-28.745,0,1.0199e+08,-4.0052,11997,10083,1,10083,1,-0.00081136,-2.9848e-09,0,1.5918e-05,-0.00030977,-3.2996e+08,-1017.7,0,2.8145e+06,-30.754,10082,11053,1,11053,1,-0.00021388,-7.3068e-10,0,0.00032172,-0.00019802,-8.6906e+07,-114.71,0,7.2296e+07,-10.499,11052,12943,1,12943,1,0.001073,7.4515e-11,0,0.001073,4.1232e-05,1.0199e+08,12.87,0,1.2232e+08,1.9196,12942,1091.8,0,1091.8,0,0.0007426,7.6206e-10,0,0.00047432,0.00013827,1.3832e+08,126.49,0,7.5365e+07,116.96,1091.8,1
3780,4.52,11998,1,11998,1,0.00043051,-2.9462e-10,0,0.00071637,-7.8537e-05,-2.0887,-51.279,0,1.1622e+08,22.947,11997,13888,1,13888,1,0.0016742,5.4979e-09,0,0.0016742,0.00015319,1.2572e+08,447.78,0,3.3069e+08,1250.6,13887,11998,1,11998,1,0.00043051,-1.6275e-10,0,0.00064486,-7.8489e-05,7.181e+07,-27.968,0,1.0221e+08,-4.3748,11997,10083,1,10083,1,-0.00081316,-2.9112e-09,0,1.5954e-05,-0.00031046,-3.3069e+08,-992.6,0,2.8211e+06,-40.222,10082,11053,1,11053,1,-0.00021435,-7.9273e-10,0,0.00032243,-0.00019846,-8.7099e+07,-126.49,0,7.2457e+07,-13.913,11052,12943,1,12943,1,0.0010754,1.4337e-10,0,0.0010754,4.1323e-05,1.0221e+08,24.838,0,1.2259e+08,2.3047,12942,1091.8,0,1091.8,0,0.00074425,8.6283e-10,0,0.00047538,0.00013858,1.3862e+08,137.59,0,7.5532e+07,119.51,1091.8,1
3780,4.53,11998,1,11998,1,0.00043147,-2.626e-10,0,0.00071796,-7.8712e-05,6.8737,-46.624,0,1.1648e+08,14.94,11997,13888,1,13888,1,0.0016779,4.3493e-09,0,0.0016779,0.00015353,1.26e+08,605.39,0,3.3143e+08,1279.9,13887,11998,1,11998,1,0.00043147,-8.8854e-11,0,0.0006463,-7.8664e-05,7.197e+07,-16.725,0,1.0244e+08,-9.9856,11997,10083,1,10083,1,-0.00081497,-3.7338e-09,0,1.599e-05,-0.00031115,-3.3143e+08,-1173.3,0,2.8276e+06,-76.23,10082,11053,1,11053,1,-0.00021483,-1.135e-09,0,0.00032315,-0.0001989,-8.7291e+07,-182.7,0,7.2617e+07,-26.18,11052,12943,1,12943,1,0.0010778,5.7311e-10,0,0.0010778,4.1415e-05,1.0244e+08,91.009,0,1.2287e+08,1.3489,12942,1091.8,0,1091.8,0,0.00074591,1.4384e-09,0,0.00047643,0.00013889,1.3893e+08,223.37,0,7.5699e+07,123.39,1091.8,1
3780,4.54,11998,1,11998,1,0.00043242,-5.373e-10,0,0.00071954,-7.8885e-05,3.5903,-88.323,0,1.1674e+08,20.492,11997,13888,1,13888,1,0.0016816,4.7181e-09,0,0.0016816,0.00015387,1.2628e+08,401.11,0,3.3215e+08,1258,13887,11998,1,11998,1,0.00043242,-3.2213e-10,0,0.00064772,-7.8837e-05,7.2128e+07,-52.326,0,1.0266e+08,-5.9071,11997,10083,1,10083,1,-0.00081676,-3.4605e-09,0,1.6027e-05,-0.00031183,-3.3215e+08,-1119.8,0,2.8342e+06,-46.298,10082,11053,1,11053,1,-0.0002153,-1.2092e-09,0,0.00032386,-0.00019934,-8.7483e+07,-185.58,0,7.2777e+07,-17.956,11052,12943,1,12943,1,0.0010801,9.2012e-11,0,0.0010801,4.1506e-05,1.0266e+08,14.386,0,1.2314e+08,1.4747,12942,1091.8,0,1091.8,0,0.00074755,1.0648e-09,0,0.00047748,0.00013919,1.3924e+08,171.05,0,7.5866e+07,120.27,1091.8,1
3780,4.55,11998,1,11998,1,0.00043338,-3.2821e-10,0,0.00072113,-7.9059e-05,6.9276,-57.005,0,1.1699e+08,21.114,11997,13888,1,13888,1,0.0016853,5.1423e-09,0,0.0016853,0.00015421,1.2655e+08,415.99,0,3.3288e+08,1254.2,13887,11998,1,11998,1,0.00043337,-2.1236e-10,0,0.00064915,-7.9011e-05,7.2287e+07,-35.05,0,1.0289e+08,-5.7066,11997,10083,1,10083,1,-0.00081856,-3.1009e-09,0,1.6063e-05,-0.00031252,-3.3288e+08,-1057.3,0,2.8408e+06,-31.363,10082,11053,1,11053,1,-0.00021577,-8.1375e-10,0,0.00032457,-0.00019978,-8.7675e+07,-124.47,0,7.2937e+07,-14.299,11052,12943,1,12943,1,0.0010825,9.2931e-11,0,0.0010825,4.1597e-05,1.0289e+08,15.181,0,1.2341e+08,0.082008,12942,1091.8,0,1091.8,0,0.00074919,8.5577e-10,0,0.00047853,0.0001395,1.3954e+08,141.53,0,7.6033e+07,118.66,1091.8,1
3780,4.56,11998,1,11998,1,0.00043433,-1.1655e-10,0,0.00072271,-7.9233e-05,2.7976,-25.241,0,1.1725e+08,24.515,11997,13888,1,13888,1,0.001689,5.8707e-09,0,0.001689,0.00015454,1.2683e+08,480.27,0,3.3361e+08,1244.8,13887,11998,1,11998,1,0.00043432,-8.1071e-11,0,0.00065057,-7.9184e-05,7.2446e+07,-14.392,0,1.0312e+08,-3.275,11997,10083,1,10083,1,-0.00082035,-2.7956e-09,0,1.61e-05,-0.0003132,-3.3361e+08,-953.2,0,2.8474e+06,-21.314,10082,11053,1,11053,1,-0.00021624,-4.3442e-10,0,0.00032529,-0.00020022,-8.7867e+07,-67.063,0,7.3097e+07,-8.7998,11052,12943,1,12943,1,0.0010849,1.2956e-10,0,0.0010849,4.1688e-05,1.0312e+08,20.275,0,1.2368e+08,0.62476,12942,1091.8,0,1091.8,0,0.00075084,6.5781e-10,0,0.00047958,0.00013981,1.3985e+08,108.8,0,7.6199e+07,117.26,1091.8,1
3780,4.57,11998,1,11998,1,0.00043529,-2.2547e-10,0,0.0007243,-7.9408e-05,4.7696,-41.792,0,1.1751e+08,18.875,11997,13888,1,13888,1,0.0016927,4.8661e-09,0,0.0016927,0.00015488,1.2711e+08,494.25,0,3.3435e+08,1275.2,13887,11998,1,11998,1,0.00043528,-8.1309e-11,0,0.000652,-7.9359e-05,7.2606e+07,-15.384,0,1.0334e+08,-7.4925,11997,10083,1,10083,1,-0.00082216,-3.3665e-09,0,1.6136e-05,-0.00031389,-3.3435e+08,-1111,0,2.854e+06,-50.15,10082,11053,1,11053,1,-0.00021672,-8.8998e-10,0,0.000326,-0.00020066,-8.806e+07,-139.15,0,7.3258e+07,-19.61,11052,12943,1,12943,1,0.0010873,4.1074e-10,0,0.0010873,4.178e-05,1.0334e+08,64.787,0,1.2395e+08,1.0342,12942,1091.8,0,1091.8,0,0.00075249,1.1189e-09,0,0.00048064,0.00014011,1.4016e+08,179.78,0,7.6367e+07,121.91,1091.8,1
3780,4.58,11998,1,11998,1,0.00043624,-4.497e-11,0,0.00072588,-7.9581e-05,11.848,-13.194,0,1.1776e+08,21.863,11997,13888,1,13888,1,0.0016964,5.6754e-09,0,0.0016964,0.00015522,1.2739e+08,462.89,0,3.3508e+08,1271.5,13887,11998,1,11998,1,0.00043623,1.7451e-11,0,0.00065343,-7.9532e-05,7.2764e+07,2.6538,0,1.0357e+08,-5.908,11997,10083,1,10083,1,-0.00082395,-2.9149e-09,0,1.6173e-05,-0.00031458,-3.3508e+08,-993.91,0,2.8606e+06,-47.077,10082,11053,1,11053,1,-0.00021719,-5.3415e-10,0,0.00032671,-0.00020109,-8.8252e+07,-82.64,0,7.3418e+07,-13.252,11052,12943,1,12943,1,0.0010897,4.3044e-10,0,0.0010897,4.1871e-05,1.0357e+08,65.31,0,1.2422e+08,1.0274,12942,1091.8,0,1091.8,0,0.00075413,8.6678e-10,0,0.00048169,0.00014042,1.4046e+08,139.86,0,7.6534e+07,121.08,1091.8,1
3780,4.59,11998,1,11998,1,0.00043719,-4.6576e-10,0,0.00072747,-7.9756e-05,12.93,-78.456,0,1.1802e+08,19.675,11997,13888,1,13888,1,0.0017001,4.7962e-09,0,0.0017001,0.00015556,1.2767e+08,409.78,0,3.3581e+08,1263.4,13887,11998,1,11998,1,0.00043719,-3.1652e-10,0,0.00065485,-7.9707e-05,7.2924e+07,-51.077,0,1.0379e+08,-6.8435,11997,10083,1,10083,1,-0.00082575,-3.4317e-09,0,1.6209e-05,-0.00031527,-3.3581e+08,-1121.3,0,2.8672e+06,-36.24,10082,11053,1,11053,1,-0.00021767,-1.0405e-09,0,0.00032743,-0.00020153,-8.8445e+07,-160.29,0,7.3578e+07,-16.832,11052,12943,1,12943,1,0.001092,4.612e-11,0,0.001092,4.1962e-05,1.0379e+08,7.17,0,1.2449e+08,-0.26085,12942,1091.8,0,1091.8,0,0.00075578,9.5423e-10,0,0.00048274,0.00014073,1.4077e+08,157.43,0,7.6701e+07,119.58,1091.8,1
3780,4.6,11998,1,11998,1,0.00043814,-2.5295e-10,0,0.00072905,-7.9929e-05,8.9568,-45.099,0,1.1828e+08,20.027,11997,13888,1,13888,1,0.0017038,5.0543e-09,0,0.0017038,0.0001559,1.2794e+08,430.71,0,3.3654e+08,1271.2,13887,11998,1,11998,1,0.00043814,-1.3607e-10,0,0.00065628,-7.988e-05,7.3082e+07,-23.867,0,1.0402e+08,-6.449,11997,10083,1,10083,1,-0.00082755,-3.2469e-09,0,1.6245e-05,-0.00031595,-3.3654e+08,-1092.6,0,2.8737e+06,-34.583,10082,11053,1,11053,1,-0.00021814,-6.965e-10,0,0.00032814,-0.00020197,-8.8637e+07,-106.71,0,7.3738e+07,-14.064,11052,12943,1,12943,1,0.0010944,1.5128e-10,0,0.0010944,4.2053e-05,1.0402e+08,24.614,0,1.2476e+08,-0.53852,12942,1091.8,0,1091.8,0,0.00075743,8.7288e-10,0,0.0004838,0.00014103,1.4107e+08,146.62,0,7.6868e+07,119.39,1091.8,1
3780,4.61,11998,1,11998,1,0.0004391,-2.9906e-10,0,0.00073064,-8.0104e-05,9.5902,-52.476,0,1.1853e+08,16.99,11997,13888,1,13888,1,0.0017076,4.634e-09,0,0.0017076,0.00015624,1.2822e+08,508.64,0,3.3727e+08,1290.8,13887,11998,1,11998,1,0.0004391,-1.0655e-10,0,0.00065771,-8.0055e-05,7.3242e+07,-21.586,0,1.0425e+08,-9.545,11997,10083,1,10083,1,-0.00082935,-3.5958e-09,0,1.6282e-05,-0.00031664,-3.3727e+08,-1156.3,0,2.8803e+06,-60.219,10082,11053,1,11053,1,-0.00021861,-1.0066e-09,0,0.00032886,-0.00020241,-8.8829e+07,-158.71,0,7.3899e+07,-22.381,11052,12943,1,12943,1,0.0010968,4.0195e-10,0,0.0010968,4.2145e-05,1.0425e+08,64.748,0,1.2504e+08,0.71181,12942,1091.8,0,1091.8,0,0.00075908,1.2074e-09,0,0.00048485,0.00014134,1.4138e+08,192.33,0,7.7035e+07,123.49,1091.8,1
3780,4.62,11998,1,11998,1,0.00044005,-3.2287e-10,0,0.00073223,-8.0277e-05,0.62968,-55.618,0,1.1879e+08,21.659,11997,13888,1,13888,1,0.0017113,5.2482e-09,0,0.0017113,0.00015658,1.285e+08,424.81,0,3.38e+08,1274.1,13887,11998,1,11998,1,0.00044005,-2.0078e-10,0,0.00065913,-8.0228e-05,7.3401e+07,-33.07,0,1.0447e+08,-5.0642,11997,10083,1,10083,1,-0.00083114,-3.1369e-09,0,1.6318e-05,-0.00031733,-3.38e+08,-1069.5,0,2.8869e+06,-35.285,10082,11053,1,11053,1,-0.00021908,-8.4504e-10,0,0.00032957,-0.00020285,-8.9021e+07,-129.94,0,7.4059e+07,-13.971,11052,12943,1,12943,1,0.0010992,1.117e-10,0,0.0010992,4.2236e-05,1.0447e+08,19.774,0,1.2531e+08,0.21548,12942,1091.8,0,1091.8,0,0.00076072,9.0412e-10,0,0.0004859,0.00014165,1.4169e+08,148.06,0,7.7202e+07,120.55,1091.8,1
3780,4.63,11998,1,11998,1,0.00044101,-4.1016e-10,0,0.00073381,-8.0451e-05,0.95289,-69.455,0,1.1905e+08,21.323,11997,13888,1,13888,1,0.001715,4.8848e-09,0,0.001715,0.00015692,1.2878e+08,402.65,0,3.3874e+08,1267.6,13887,11998,1,11998,1,0.000441,-2.8273e-10,0,0.00066056,-8.0402e-05,7.356e+07,-44.449,0,1.047e+08,-5.1323,11997,10083,1,10083,1,-0.00083294,-3.4099e-09,0,1.6355e-05,-0.00031802,-3.3874e+08,-1123,0,2.8935e+06,-34.766,10082,11053,1,11053,1,-0.00021956,-8.9541e-10,0,0.00033028,-0.00020329,-8.9214e+07,-136.47,0,7.4219e+07,-12.473,11052,12943,1,12943,1,0.0011016,2.764e-11,0,0.0011016,4.2327e-05,1.047e+08,4.3744,0,1.2558e+08,0.1157,12942,1091.8,0,1091.8,0,0.00076237,8.7991e-10,0,0.00048695,0.00014195,1.4199e+08,148.64,0,7.7369e+07,118.87,1091.8,1
3780,4.64,11998,1,11998,1,0.00044196,-3.2002e-10,0,0.0007354,-8.0626e-05,14.387,-56.582,0,1.1931e+08,16.779,11997,13888,1,13888,1,0.0017187,4.5154e-09,0,0.0017187,0.00015726,1.2906e+08,523.68,0,3.3947e+08,1293.5,13887,11998,1,11998,1,0.00044196,-1.1825e-10,0,0.00066199,-8.0576e-05,7.3719e+07,-23.323,0,1.0492e+08,-9.5081,11997,10083,1,10083,1,-0.00083475,-3.7437e-09,0,1.6391e-05,-0.0003187,-3.3947e+08,-1184.4,0,2.9001e+06,-60.764,10082,11053,1,11053,1,-0.00022003,-1.0915e-09,0,0.000331,-0.00020373,-8.9406e+07,-173.34,0,7.4379e+07,-23.642,11052,12943,1,12943,1,0.001104,4.4621e-10,0,0.001104,4.2418e-05,1.0492e+08,71.944,0,1.2585e+08,0.52194,12942,1091.8,0,1091.8,0,0.00076402,1.2823e-09,0,0.00048801,0.00014226,1.423e+08,203.66,0,7.7536e+07,124.22,1091.8,1
3780,4.65,11998,1,11998,1,0.00044291,7.7365e-11,0,0.00073698,-8.0799e-05,1.9544,4.5703,0,1.1956e+08,24.666,11997,13888,1,13888,1,0.0017224,6.2781e-09,0,0.0017224,0.00015759,1.2934e+08,518.46,0,3.402e+08,1284,13887,11998,1,11998,1,0.00044291,3.8268e-11,0,0.00066341,-8.075e-05,7.3877e+07,8.142,0,1.0515e+08,-4.5416,11997,10083,1,10083,1,-0.00083653,-2.7367e-09,0,1.6428e-05,-0.00031939,-3.402e+08,-933.16,0,2.9067e+06,-29.522,10082,11053,1,11053,1,-0.0002205,-2.7228e-10,0,0.00033171,-0.00020417,-8.9598e+07,-42.249,0,7.4539e+07,-10.711,11052,12943,1,12943,1,0.0011063,3.8351e-10,0,0.0011063,4.2509e-05,1.0515e+08,57.773,0,1.2612e+08,1.2247,12942,1091.8,0,1091.8,0,0.00076566,7.092e-10,0,0.00048905,0.00014257,1.4261e+08,113.71,0,7.7702e+07,121.79,1091.8,1
3780,4.66,11998,1,11998,1,0.00044387,-1.7415e-10,0,0.00073857,-8.0973e-05,3.3623,-33.811,0,1.1982e+08,22.015,11997,13888,1,13888,1,0.0017261,5.4599e-09,0,0.0017261,0.00015793,1.2961e+08,443.11,0,3.4093e+08,1286.3,13887,11998,1,11998,1,0.00044386,-7.2919e-11,0,0.00066484,-8.0924e-05,7.4037e+07,-14.037,0,1.0537e+08,-5.9827,11997,10083,1,10083,1,-0.00083834,-3.0874e-09,0,1.6464e-05,-0.00032008,-3.4093e+08,-1052.7,0,2.9133e+06,-35.206,10082,11053,1,11053,1,-0.00022098,-6.2036e-10,0,0.00033242,-0.00020461,-8.979e+07,-95.773,0,7.4699e+07,-13.496,11052,12943,1,12943,1,0.0011087,2.401e-10,0,0.0011087,4.2601e-05,1.0537e+08,36.997,0,1.2639e+08,0.95095,12942,1091.8,0,1091.8,0,0.00076731,8.451e-10,0,0.00049011,0.00014287,1.4291e+08,140.15,0,7.787e+07,121.65,1091.8,1
3780,4.67,11998,1,11998,1,0.00044482,-2.0134e-10,0,0.00074016,-8.1148e-05,8.6354,-38.06,0,1.2008e+08,21.218,11997,13888,1,13888,1,0.0017298,5.4147e-09,0,0.0017298,0.00015827,1.2989e+08,461.24,0,3.4166e+08,1273.9,13887,11998,1,11998,1,0.00044482,-1.4018e-10,0,0.00066627,-8.1098e-05,7.4196e+07,-24.738,0,1.056e+08,-5.7124,11997,10083,1,10083,1,-0.00084014,-3.0796e-09,0,1.6501e-05,-0.00032076,-3.4166e+08,-1050,0,2.92e+06,-35.424,10082,11053,1,11053,1,-0.00022145,-7.1809e-10,0,0.00033314,-0.00020505,-8.9983e+07,-110.06,0,7.486e+07,-14.087,11052,12943,1,12943,1,0.0011111,2.0672e-10,0,0.0011111,4.2692e-05,1.056e+08,31.409,0,1.2666e+08,-0.16598,12942,1091.8,0,1091.8,0,0.00076896,8.7686e-10,0,0.00049116,0.00014318,1.4322e+08,144.09,0,7.8037e+07,120.05,1091.8,1
3780,4.68,11998,1,11998,1,0.00044577,-2.4427e-10,0,0.00074174,-8.1321e-05,-2.5804,-45.038,0,1.2033e+08,25.6,11997,13888,1,13888,1,0.0017335,5.8563e-09,0,0.0017335,0.00015861,1.3017e+08,478.01,0,3.4239e+08,1285.9,13887,11998,1,11998,1,0.00044577,-1.6524e-10,0,0.00066769,-8.1271e-05,7.4355e+07,-26.861,0,1.0583e+08,-3.808,11997,10083,1,10083,1,-0.00084193,-2.9495e-09,0,1.6537e-05,-0.00032145,-3.4239e+08,-1005.7,0,2.9265e+06,-23.93,10082,11053,1,11053,1,-0.00022192,-6.314e-10,0,0.00033385,-0.00020549,-9.0175e+07,-98.64,0,7.502e+07,-10.555,11052,12943,1,12943,1,0.0011135,8.73e-11,0,0.0011135,4.2783e-05,1.0583e+08,13.762,0,1.2694e+08,1.6239,12942,1091.8,0,1091.8,0,0.0007706,7.3244e-10,0,0.00049221,0.00014349,1.4352e+08,120.59,0,7.8204e+07,122.06,1091.8,1
3780,4.69,11998,1,11998,1,0.00044673,-4.4539e-11,0,0.00074332,-8.1495e-05,16.759,-14.161,0,1.2059e+08,23.503,11997,13888,1,13888,1,0.0017372,6.0485e-09,0,0.0017372,0.00015895,1.3045e+08,494.96,0,3.4312e+08,1286.1,13887,11998,1,11998,1,0.00044673,-2.8384e-11,0,0.00066912,-8.1445e-05,7.4514e+07,-4.886,0,1.0605e+08,-4.8977,11997,10083,1,10083,1,-0.00084373,-2.8693e-09,0,1.6574e-05,-0.00032214,-3.4312e+08,-978.34,0,2.9332e+06,-29.4,10082,11053,1,11053,1,-0.0002224,-4.6151e-10,0,0.00033456,-0.00020593,-9.0367e+07,-71.754,0,7.518e+07,-12.373,11052,12943,1,12943,1,0.0011159,2.9943e-10,0,0.0011159,4.2874e-05,1.0605e+08,45.501,0,1.2721e+08,0.19739,12942,1091.8,0,1091.8,0,0.00077225,7.7278e-10,0,0.00049327,0.00014379,1.4383e+08,125.86,0,7.8371e+07,122.05,1091.8,1
3780,4.7,11998,1,11998,1,0.00044768,-1.4088e-10,0,0.00074491,-8.1669e-05,-1.5382,-29.615,0,1.2085e+08,23.897,11997,13888,1,13888,1,0.0017409,5.4237e-09,0,0.0017409,0.00015929,1.3073e+08,439.65,0,3.4385e+08,1285,13887,11998,1,11998,1,0.00044768,-5.4072e-11,0,0.00067055,-8.1619e-05,7.4673e+07,-10.561,0,1.0628e+08,-4.1112,11997,10083,1,10083,1,-0.00084553,-3.1616e-09,0,1.661e-05,-0.00032283,-3.4385e+08,-1077.9,0,2.9398e+06,-26.833,10082,11053,1,11053,1,-0.00022287,-5.8248e-10,0,0.00033528,-0.00020637,-9.056e+07,-90.314,0,7.534e+07,-11.962,11052,12943,1,12943,1,0.0011182,2.8355e-10,0,0.0011182,4.2965e-05,1.0628e+08,43.783,0,1.2748e+08,1.5353,12942,1091.8,0,1091.8,0,0.0007739,8.3183e-10,0,0.00049432,0.0001441,1.4414e+08,140.98,0,7.8538e+07,121.14,1091.8,1
3780,4.71,11998,1,11998,1,0.00044864,-2.275e-10,0,0.0007465,-8.1843e-05,65.105,-42.138,0,1.211e+08,17.062,11997,13888,1,13888,1,0.0017446,5.0014e-09,0,0.0017446,0.00015963,1.3101e+08,455.94,0,3.4459e+08,1288.5,13887,11998,1,11998,1,0.00044863,-8.4217e-11,0,0.00067198,-8.1793e-05,7.4832e+07,-15.436,0,1.065e+08,-9.9023,11997,10083,1,10083,1,-0.00084733,-3.4888e-09,0,1.6647e-05,-0.00032351,-3.4459e+08,-1145.2,0,2.9465e+06,-47.295,10082,11053,1,11053,1,-0.00022334,-7.9747e-10,0,0.00033599,-0.00020681,-9.0751e+07,-123.94,0,7.55e+07,-19.827,11052,12943,1,12943,1,0.0011206,3.273e-10,0,0.0011206,4.3057e-05,1.065e+08,49.505,0,1.2775e+08,-1.9172,12942,1091.8,0,1091.8,0,0.00077554,1.0038e-09,0,0.00049537,0.00014441,1.4444e+08,166.93,0,7.8705e+07,122.19,1091.8,1
3780,4.72,11998,1,11998,1,0.00044959,-2.0665e-10,0,0.00074808,-8.2017e-05,9.131,-39.41,0,1.2136e+08,23.92,11997,13888,1,13888,1,0.0017483,5.645e-09,0,0.0017483,0.00015996,1.3128e+08,459.05,0,3.4531e+08,1299.1,13887,11998,1,11998,1,0.00044959,-8.3791e-11,0,0.0006734,-8.1967e-05,7.4991e+07,-15.723,0,1.0673e+08,-4.8558,11997,10083,1,10083,1,-0.00084912,-3.1097e-09,0,1.6683e-05,-0.0003242,-3.4531e+08,-1060.2,0,2.953e+06,-31.4,10082,11053,1,11053,1,-0.00022382,-6.52e-10,0,0.0003367,-0.00020725,-9.0944e+07,-101.63,0,7.566e+07,-12.946,11052,12943,1,12943,1,0.001123,2.2034e-10,0,0.001123,4.3148e-05,1.0673e+08,34.213,0,1.2802e+08,1.1304,12942,1091.8,0,1091.8,0,0.00077719,8.197e-10,0,0.00049642,0.00014471,1.4475e+08,136.29,0,7.8872e+07,123.4,1091.8,1
3780,4.73,11998,1,11998,1,0.00045054,-4.2697e-10,0,0.00074967,-8.2191e-05,24.262,-72.415,0,1.2162e+08,21.699,11997,13888,1,13888,1,0.001752,5.3659e-09,0,0.001752,0.0001603,1.3156e+08,434.34,0,3.4605e+08,1306.8,13887,11998,1,11998,1,0.00045054,-2.3979e-10,0,0.00067483,-8.2141e-05,7.515e+07,-42.362,0,1.0695e+08,-6.4426,11997,10083,1,10083,1,-0.00085092,-3.242e-09,0,1.672e-05,-0.00032489,-3.4605e+08,-1103.7,0,2.9596e+06,-46.537,10082,11053,1,11053,1,-0.00022429,-1.0504e-09,0,0.00033742,-0.00020769,-9.1136e+07,-162.91,0,7.5821e+07,-17.96,11052,12943,1,12943,1,0.0011254,1.2954e-10,0,0.0011254,4.3239e-05,1.0695e+08,22.424,0,1.2829e+08,1.27,12942,1091.8,0,1091.8,0,0.00077884,9.8396e-10,0,0.00049747,0.00014502,1.4506e+08,158.31,0,7.9039e+07,125.33,1091.8,1
3780,4.74,11998,1,11998,1,0.0004515,-6.6715e-10,0,0.00075126,-8.2366e-05,-3.2712,-108.54,0,1.2187e+08,20.259,11997,13888,1,13888,1,0.0017557,4.2476e-09,0,0.0017557,0.00016064,1.3184e+08,479.15,0,3.4678e+08,1315.6,13887,11998,1,11998,1,0.0004515,-4.3149e-10,0,0.00067626,-8.2315e-05,7.531e+07,-69.301,0,1.0718e+08,-6.0788,11997,10083,1,10083,1,-0.00085273,-4.1943e-09,0,1.6756e-05,-0.00032558,-3.4678e+08,-1278.4,0,2.9662e+06,-44.529,10082,11053,1,11053,1,-0.00022476,-1.4378e-09,0,0.00033813,-0.00020813,-9.1329e+07,-220.26,0,7.5981e+07,-19.078,11052,12943,1,12943,1,0.0011278,5.359e-11,0,0.0011278,4.333e-05,1.0718e+08,9.5919,0,1.2856e+08,1.2309,12942,1091.8,0,1091.8,0,0.00078049,1.2375e-09,0,0.00049853,0.00014533,1.4536e+08,201.52,0,7.9206e+07,125.28,1091.8,1
3780,4.75,11998,1,11998,1,0.00045245,-3.3782e-10,0,0.00075284,-8.2539e-05,20.397,-58.566,0,1.2213e+08,21.347,11997,13888,1,13888,1,0.0017594,4.9949e-09,0,0.0017594,0.00016098,1.3212e+08,401.3,0,3.4751e+08,1309,13887,11998,1,11998,1,0.00045245,-1.419e-10,0,0.00067768,-8.2489e-05,7.5468e+07,-26.012,0,1.0741e+08,-6.3669,11997,10083,1,10083,1,-0.00085452,-3.5695e-09,0,1.6793e-05,-0.00032626,-3.4751e+08,-1167.3,0,2.9729e+06,-38.375,10082,11053,1,11053,1,-0.00022524,-8.5816e-10,0,0.00033884,-0.00020856,-9.152e+07,-132.93,0,7.6141e+07,-15.548,11052,12943,1,12943,1,0.0011301,1.8792e-10,0,0.0011301,4.3421e-05,1.0741e+08,29.977,0,1.2884e+08,0.27223,12942,1091.8,0,1091.8,0,0.00078213,9.5428e-10,0,0.00049958,0.00014563,1.4567e+08,160.62,0,7.9373e+07,123.8,1091.8,1
3780,4.76,11998,1,11998,1,0.00045341,-2.0393e-10,0,0.00075442,-8.2713e-05,6.3373,-39.018,0,1.2239e+08,23.718,11997,13888,1,13888,1,0.0017631,5.3134e-09,0,0.0017631,0.00016132,1.324e+08,429.28,0,3.4824e+08,1297.3,13887,11998,1,11998,1,0.0004534,-6.2992e-11,0,0.00067911,-8.2663e-05,7.5628e+07,-11.983,0,1.0763e+08,-4.4741,11997,10083,1,10083,1,-0.00085632,-3.2979e-09,0,1.683e-05,-0.00032695,-3.4824e+08,-1118.3,0,2.9795e+06,-32.246,10082,11053,1,11053,1,-0.00022571,-5.8205e-10,0,0.00033956,-0.000209,-9.1713e+07,-90.55,0,7.6301e+07,-10.479,11052,12943,1,12943,1,0.0011325,2.0011e-10,0,0.0011325,4.3513e-05,1.0763e+08,30.199,0,1.2911e+08,0.76988,12942,1091.8,0,1091.8,0,0.00078378,7.9422e-10,0,0.00050063,0.00014594,1.4598e+08,138.62,0,7.954e+07,121.84,1091.8,1
3780,4.77,11998,1,11998,1,0.00045436,4.3074e-11,0,0.00075601,-8.2887e-05,9.8458,-0.90444,0,1.2264e+08,22.919,11997,13888,1,13888,1,0.0017668,5.8951e-09,0,0.0017668,0.00016166,1.3267e+08,480.69,0,3.4897e+08,1321.1,13887,11998,1,11998,1,0.00045436,2.8475e-11,0,0.00068054,-8.2837e-05,7.5786e+07,6.353,0,1.0786e+08,-6.0035,11997,10083,1,10083,1,-0.00085811,-3.0592e-09,0,1.6866e-05,-0.00032763,-3.4897e+08,-1043.1,0,2.9861e+06,-38.215,10082,11053,1,11053,1,-0.00022618,-4.4773e-10,0,0.00034027,-0.00020944,-9.1905e+07,-70.048,0,7.6461e+07,-14.356,11052,12943,1,12943,1,0.0011349,5.1632e-10,0,0.0011349,4.3604e-05,1.0786e+08,78.118,0,1.2938e+08,0.79175,12942,1091.8,0,1091.8,0,0.00078542,8.742e-10,0,0.00050168,0.00014625,1.4628e+08,143.18,0,7.9707e+07,125.23,1091.8,1
3780,4.78,11998,1,11998,1,0.00045531,-8.6703e-11,0,0.0007576,-8.3061e-05,-1.0947,-21.519,0,1.229e+08,22.662,11997,13888,1,13888,1,0.0017705,5.3511e-09,0,0.0017705,0.000162,1.3295e+08,442.37,0,3.497e+08,1308.1,13887,11998,1,11998,1,0.00045531,-2.6543e-11,0,0.00068197,-8.3011e-05,7.5946e+07,-2.9371,0,1.0808e+08,-5.3259,11997,10083,1,10083,1,-0.00085992,-3.2702e-09,0,1.6903e-05,-0.00032832,-3.497e+08,-1115,0,2.9928e+06,-31.426,10082,11053,1,11053,1,-0.00022665,-5.9825e-10,0,0.00034098,-0.00020988,-9.2097e+07,-93.241,0,7.6622e+07,-14.343,11052,12943,1,12943,1,0.0011373,4.1617e-10,0,0.0011373,4.3695e-05,1.0808e+08,63.004,0,1.2965e+08,1.2913,12942,1091.8,0,1091.8,0,0.00078707,9.1684e-10,0,0.00050274,0.00014655,1.4659e+08,153.72,0,7.9874e+07,123.13,1091.8,1
3780,4.79,11998,1,11998,1,0.00045627,-1.5295e-10,0,0.00075918,-8.3236e-05,4.1391,-32.079,0,1.2316e+08,21.875,11997,13888,1,13888,1,0.0017743,5.1816e-09,0,0.0017743,0.00016234,1.3323e+08,421.69,0,3.5044e+08,1307.9,13887,11998,1,11998,1,0.00045627,-5.3138e-11,0,0.00068339,-8.3185e-05,7.6105e+07,-9.351,0,1.0831e+08,-5.7628,11997,10083,1,10083,1,-0.00086171,-3.4367e-09,0,1.6939e-05,-0.00032901,-3.5044e+08,-1146.1,0,2.9994e+06,-29.742,10082,11053,1,11053,1,-0.00022713,-6.3043e-10,0,0.0003417,-0.00021032,-9.229e+07,-98.472,0,7.6782e+07,-14.391,11052,12943,1,12943,1,0.0011397,3.337e-10,0,0.0011397,4.3786e-05,1.0831e+08,51.366,0,1.2992e+08,0.49782,12942,1091.8,0,1091.8,0,0.00078872,8.9546e-10,0,0.00050379,0.00014686,1.469e+08,152.54,0,8.0041e+07,122.74,1091.8,1
3780,4.8,11998,1,11998,1,0.00045722,-1.1334e-10,0,0.00076077,-8.3409e-05,2.5879,-24.589,0,1.2341e+08,22.584,11997,13888,1,13888,1,0.001778,5.4727e-09,0,0.001778,0.00016267,1.3351e+08,449.9,0,3.5117e+08,1327.3,13887,11998,1,11998,1,0.00045722,-2.7095e-11,0,0.00068482,-8.3358e-05,7.6264e+07,-5.4106,0,1.0854e+08,-5.9441,11997,10083,1,10083,1,-0.00086351,-3.2684e-09,0,1.6976e-05,-0.0003297,-3.5117e+08,-1114.4,0,3.006e+06,-39.778,10082,11053,1,11053,1,-0.0002276,-6.6306e-10,0,0.00034241,-0.00021076,-9.2482e+07,-103.7,0,7.6942e+07,-15.07,11052,12943,1,12943,1,0.001142,4.1267e-10,0,0.001142,4.3877e-05,1.0854e+08,63.02,0,1.3019e+08,1.2995,12942,1091.8,0,1091.8,0,0.00079037,9.5485e-10,0,0.00050484,0.00014717,1.472e+08,157.77,0,8.0208e+07,125.58,1091.8,1
3780,4.81,11998,1,11998,1,0.00045818,-1.5278e-10,0,0.00076235,-8.3583e-05,1.999,-31.438,0,1.2367e+08,23.36,11997,13888,1,13888,1,0.0017817,5.6406e-09,0,0.0017817,0.00016301,1.3379e+08,457.87,0,3.519e+08,1327,13887,11998,1,11998,1,0.00045817,-8.6449e-11,0,0.00068625,-8.3532e-05,7.6423e+07,-16.847,0,1.0876e+08,-5.5433,11997,10083,1,10083,1,-0.00086531,-3.2069e-09,0,1.7012e-05,-0.00033038,-3.519e+08,-1093.4,0,3.0126e+06,-34.703,10082,11053,1,11053,1,-0.00022807,-7.1718e-10,0,0.00034312,-0.0002112,-9.2674e+07,-113.55,0,7.7102e+07,-15.235,11052,12943,1,12943,1,0.0011444,3.5274e-10,0,0.0011444,4.3969e-05,1.0876e+08,54.844,0,1.3046e+08,1.8306,12942,1091.8,0,1091.8,0,0.00079201,9.5143e-10,0,0.00050589,0.00014747,1.4751e+08,155.77,0,8.0375e+07,125.93,1091.8,1
3780,4.82,11998,1,11998,1,0.00045913,-1.818e-10,0,0.00076394,-8.3758e-05,0.2188,-34.802,0,1.2393e+08,21.829,11997,13888,1,13888,1,0.0017854,5.2067e-09,0,0.0017854,0.00016335,1.3407e+08,481.08,0,3.5263e+08,1341.6,13887,11998,1,11998,1,0.00045913,-4.3268e-11,0,0.00068767,-8.3707e-05,7.6582e+07,-8.0701,0,1.0899e+08,-6.411,11997,10083,1,10083,1,-0.00086711,-3.4941e-09,0,1.7049e-05,-0.00033107,-3.5263e+08,-1164.1,0,3.0193e+06,-49.29,10082,11053,1,11053,1,-0.00022855,-8.3696e-10,0,0.00034384,-0.00021164,-9.2866e+07,-131.93,0,7.7262e+07,-17.517,11052,12943,1,12943,1,0.0011468,4.4603e-10,0,0.0011468,4.406e-05,1.0899e+08,69.487,0,1.3074e+08,1.7749,12942,1091.8,0,1091.8,0,0.00079366,1.0952e-09,0,0.00050695,0.00014778,1.4782e+08,178.46,0,8.0542e+07,127.58,1091.8,1
3780,4.83,11998,1,11998,1,0.00046008,-9.8111e-11,0,0.00076552,-8.3931e-05,10.565,-22.472,0,1.2419e+08,22.124,11997,13888,1,13888,1,0.0017891,5.5266e-09,0,0.0017891,0.00016369,1.3434e+08,494.66,0,3.5336e+08,1337.6,13887,11998,1,11998,1,0.00046008,-2.9554e-11,0,0.0006891,-8.388e-05,7.6741e+07,-5.8899,0,1.0921e+08,-6.4439,11997,10083,1,10083,1,-0.0008689,-3.2887e-09,0,1.7086e-05,-0.00033176,-3.5336e+08,-1121.3,0,3.0259e+06,-44.5,10082,11053,1,11053,1,-0.00022902,-7.1614e-10,0,0.00034455,-0.00021208,-9.3058e+07,-112.96,0,7.7422e+07,-16.734,11052,12943,1,12943,1,0.0011492,4.7835e-10,0,0.0011492,4.4151e-05,1.0921e+08,73.492,0,1.3101e+08,1.5421,12942,1091.8,0,1091.8,0,0.00079531,1.0351e-09,0,0.000508,0.00014809,1.4812e+08,168.81,0,8.0709e+07,127.05,1091.8,1
3780,4.84,11998,1,11998,1,0.00046104,-1.9736e-10,0,0.00076711,-8.4106e-05,-0.60833,-38.294,0,1.2444e+08,23.539,11997,13888,1,13888,1,0.0017928,5.5354e-09,0,0.0017928,0.00016403,1.3462e+08,448.26,0,3.5409e+08,1326.4,13887,11998,1,11998,1,0.00046103,-1.0353e-10,0,0.00069053,-8.4054e-05,7.69e+07,-20.066,0,1.0944e+08,-5.047,11997,10083,1,10083,1,-0.0008707,-3.2715e-09,0,1.7122e-05,-0.00033245,-3.5409e+08,-1115.4,0,3.0326e+06,-32.033,10082,11053,1,11053,1,-0.00022949,-7.4959e-10,0,0.00034526,-0.00021252,-9.325e+07,-117.56,0,7.7583e+07,-14.041,11052,12943,1,12943,1,0.0011516,3.0327e-10,0,0.0011516,4.4242e-05,1.0944e+08,46.796,0,1.3128e+08,1.5188,12942,1091.8,0,1091.8,0,0.00079695,9.2832e-10,0,0.00050905,0.00014839,1.4843e+08,153.82,0,8.0876e+07,125.24,1091.8,1
3780,4.85,11998,1,11998,1,0.00046199,-2.1114e-10,0,0.00076869,-8.428e-05,2.1376,-39.881,0,1.247e+08,24.104,11997,13888,1,13888,1,0.0017965,5.7648e-09,0,0.0017965,0.00016437,1.349e+08,468.52,0,3.5482e+08,1336.3,13887,11998,1,11998,1,0.00046199,-1.3376e-10,0,0.00069195,-8.4228e-05,7.7059e+07,-24.55,0,1.0966e+08,-4.38,11997,10083,1,10083,1,-0.0008725,-3.2001e-09,0,1.7159e-05,-0.00033313,-3.5482e+08,-1091.1,0,3.0392e+06,-38.084,10082,11053,1,11053,1,-0.00022997,-8.2235e-10,0,0.00034598,-0.00021296,-9.3443e+07,-128.14,0,7.7743e+07,-15.14,11052,12943,1,12943,1,0.0011539,3.0275e-10,0,0.0011539,4.4333e-05,1.0966e+08,45.389,0,1.3155e+08,2.121,12942,1091.8,0,1091.8,0,0.0007986,9.7761e-10,0,0.0005101,0.0001487,1.4873e+08,158.08,0,8.1043e+07,127.18,1091.8,1
3780,4.86,11998,1,11998,1,0.00046295,-3.0721e-10,0,0.00077028,-8.4454e-05,5.7836,-54.327,0,1.2496e+08,22.294,11997,13888,1,13888,1,0.0018002,5.2607e-09,0,0.0018002,0.00016471,1.3518e+08,502.75,0,3.5555e+08,1347.4,13887,11998,1,11998,1,0.00046294,-1.8056e-10,0,0.00069338,-8.4402e-05,7.7218e+07,-30.845,0,1.0989e+08,-6.0467,11997,10083,1,10083,1,-0.0008743,-3.5297e-09,0,1.7196e-05,-0.00033382,-3.5555e+08,-1174.1,0,3.0458e+06,-38.735,10082,11053,1,11053,1,-0.00023044,-9.6295e-10,0,0.00034669,-0.0002134,-9.3635e+07,-149.95,0,7.7903e+07,-17.12,11052,12943,1,12943,1,0.0011563,2.7197e-10,0,0.0011563,4.4425e-05,1.0989e+08,40.815,0,1.3182e+08,1.2869,12942,1091.8,0,1091.8,0,0.00080025,1.0805e-09,0,0.00051116,0.00014901,1.4904e+08,177.12,0,8.121e+07,127.95,1091.8,1
3780,4.87,11998,1,11998,1,0.0004639,-2.9528e-10,0,0.00077187,-8.4628e-05,6.3494,-53.364,0,1.2521e+08,24.344,11997,13888,1,13888,1,0.0018039,5.294e-09,0,0.0018039,0.00016505,1.3546e+08,426.52,0,3.5628e+08,1304.7,13887,11998,1,11998,1,0.0004639,-2.4516e-10,0,0.00069481,-8.4576e-05,7.7377e+07,-38.947,0,1.1012e+08,-3.0525,11997,10083,1,10083,1,-0.0008761,-3.4581e-09,0,1.7232e-05,-0.00033451,-3.5628e+08,-1154.6,0,3.0526e+06,-32.374,10082,11053,1,11053,1,-0.00023091,-7.3065e-10,0,0.00034741,-0.00021384,-9.3827e+07,-111.54,0,7.8063e+07,-8.3101,11052,12943,1,12943,1,0.0011587,4.8235e-11,0,0.0011587,4.4516e-05,1.1012e+08,7.7089,0,1.3209e+08,1.4259,12942,1091.8,0,1091.8,0,0.00080189,7.86e-10,0,0.00051221,0.00014931,1.4935e+08,139.19,0,8.1377e+07,121.32,1091.8,1
3780,4.88,11998,1,11998,1,0.00046485,1.1632e-10,0,0.00077344,-8.4801e-05,-0.92605,8.631,0,1.2547e+08,32.313,11997,13888,1,13888,1,0.0018076,7.4881e-09,0,0.0018076,0.00016538,1.3573e+08,632.52,0,3.5701e+08,1328.2,13887,11998,1,11998,1,0.00046485,5.5393e-11,0,0.00069623,-8.4749e-05,7.7536e+07,8.5892,0,1.1034e+08,0.062798,11997,10083,1,10083,1,-0.00087788,-2.5029e-09,0,1.7269e-05,-0.00033519,-3.5701e+08,-854.74,0,3.0592e+06,-9.1053,10082,11053,1,11053,1,-0.00023138,6.2037e-13,0,0.00034812,-0.00021428,-9.4019e+07,0.082673,0,7.8223e+07,-1.2284,11052,12943,1,12943,1,0.0011611,1.4816e-10,0,0.0011611,4.4607e-05,1.1034e+08,20.062,0,1.3236e+08,1.9648,12942,1091.8,0,1091.8,0,0.00080353,5.8969e-10,0,0.00051326,0.00014962,1.4965e+08,79.665,0,8.1543e+07,125.29,1091.8,1
3780,4.89,11998,1,11998,1,0.00046581,-9.4741e-11,0,0.00077504,-8.4976e-05,0.40854,-22.727,0,1.2573e+08,21.705,11997,13888,1,13888,1,0.0018113,5.1592e-09,0,0.0018113,0.00016572,1.3602e+08,577.55,0,3.5775e+08,1338.9,13887,11998,1,11998,1,0.00046581,-6.3419e-11,0,0.00069767,-8.4924e-05,7.7696e+07,-11.87,0,1.1057e+08,-5.7253,11997,10083,1,10083,1,-0.0008797,-3.6126e-09,0,1.7306e-05,-0.00033588,-3.5775e+08,-1189.1,0,3.0659e+06,-34.808,10082,11053,1,11053,1,-0.00023186,-7.5756e-10,0,0.00034883,-0.00021472,-9.4212e+07,-116.8,0,7.8384e+07,-17.371,11052,12943,1,12943,1,0.0011635,4.8489e-10,0,0.0011635,4.4698e-05,1.1057e+08,74.309,0,1.3264e+08,1.2752,12942,1091.8,0,1091.8,0,0.00080519,1.1101e-09,0,0.00051432,0.00014993,1.4996e+08,183.81,0,8.1711e+07,126.13,1091.8,1
3780,4.9,11998,1,11998,1,0.00046676,-4.2385e-10,0,0.00077662,-8.515e-05,3.4775,-71.691,0,1.2598e+08,21.436,11997,13888,1,13888,1,0.001815,4.8643e-09,0,0.001815,0.00016606,1.3629e+08,524.51,0,3.5848e+08,1370.6,13887,11998,1,11998,1,0.00046676,-2.092e-10,0,0.00069909,-8.5098e-05,7.7855e+07,-38.994,0,1.1079e+08,-6.1013,11997,10083,1,10083,1,-0.00088149,-3.9824e-09,0,1.7342e-05,-0.00033657,-3.5848e+08,-1256.5,0,3.0724e+06,-54.933,10082,11053,1,11053,1,-0.00023233,-1.1636e-09,0,0.00034955,-0.00021516,-9.4403e+07,-180.45,0,7.8544e+07,-20.689,11052,12943,1,12943,1,0.0011659,2.8134e-10,0,0.0011659,4.4789e-05,1.1079e+08,43.019,0,1.3291e+08,3.3034,12942,1091.8,0,1091.8,0,0.00080684,1.2482e-09,0,0.00051537,0.00015023,1.5027e+08,202.74,0,8.1878e+07,131.38,1091.8,1
3780,4.91,11998,1,11998,1,0.00046772,-5.8903e-10,0,0.00077821,-8.5324e-05,5.271,-97.422,0,1.2624e+08,20.663,11997,13888,1,13888,1,0.0018187,3.7131e-09,0,0.0018187,0.0001664,1.3657e+08,481.4,0,3.5921e+08,1382.7,13887,11998,1,11998,1,0.00046771,-1.5344e-10,0,0.00070052,-8.5272e-05,7.8014e+07,-31.859,0,1.1102e+08,-7.1797,11997,10083,1,10083,1,-0.00088329,-5.0434e-09,0,1.7379e-05,-0.00033726,-3.5921e+08,-1429.5,0,3.0791e+06,-76.31,10082,11053,1,11053,1,-0.0002328,-1.4596e-09,0,0.00035026,-0.00021559,-9.4596e+07,-230.48,0,7.8704e+07,-19.07,11052,12943,1,12943,1,0.0011682,4.1497e-10,0,0.0011682,4.4881e-05,1.1102e+08,68.076,0,1.3318e+08,6.005,12942,1091.8,0,1091.8,0,0.00080848,1.5556e-09,0,0.00051642,0.00015054,1.5057e+08,251.09,0,8.2045e+07,133.68,1091.8,1
3780,4.92,11998,1,11998,1,0.00046867,-2.8031e-10,0,0.00077979,-8.5498e-05,4.4987,-50.291,0,1.265e+08,23.566,11997,13888,1,13888,1,0.0018224,5.3374e-09,0,0.0018224,0.00016674,1.3685e+08,428.07,0,3.5994e+08,1349.5,13887,11998,1,11998,1,0.00046867,-1.3646e-10,0,0.00070194,-8.5446e-05,7.8173e+07,-24.326,0,1.1124e+08,-5.5587,11997,10083,1,10083,1,-0.00088509,-3.6672e-09,0,1.7415e-05,-0.00033794,-3.5994e+08,-1192.3,0,3.0858e+06,-38.845,10082,11053,1,11053,1,-0.00023328,-8.4572e-10,0,0.00035097,-0.00021603,-9.4788e+07,-129.05,0,7.8864e+07,-15.561,11052,12943,1,12943,1,0.0011706,2.4723e-10,0,0.0011706,4.4972e-05,1.1124e+08,39.677,0,1.3345e+08,2.006,12942,1091.8,0,1091.8,0,0.00081013,9.6135e-10,0,0.00051747,0.00015085,1.5088e+08,160.89,0,8.2211e+07,128.16,1091.8,1
3780,4.93,11998,1,11998,1,0.00046962,-1.5007e-10,0,0.00078138,-8.5672e-05,-1.0958,-30.239,0,1.2675e+08,23.747,11997,13888,1,13888,1,0.0018261,5.5598e-09,0,0.0018261,0.00016708,1.3713e+08,447.71,0,3.6067e+08,1353.8,13887,11998,1,11998,1,0.00046962,-4.3458e-11,0,0.00070337,-8.5619e-05,7.8332e+07,-7.5251,0,1.1147e+08,-5.5542,11997,10083,1,10083,1,-0.00088688,-3.4882e-09,0,1.7452e-05,-0.00033863,-3.6067e+08,-1161.1,0,3.0924e+06,-46.507,10082,11053,1,11053,1,-0.00023375,-7.0941e-10,0,0.00035168,-0.00021647,-9.498e+07,-110.94,0,7.9024e+07,-15.635,11052,12943,1,12943,1,0.001173,3.8965e-10,0,0.001173,4.5063e-05,1.1147e+08,59.086,0,1.3372e+08,2.8763,12942,1091.8,0,1091.8,0,0.00081177,9.6981e-10,0,0.00051852,0.00015115,1.5118e+08,160.29,0,8.2378e+07,128.9,1091.8,1
3780,4.94,11998,1,11998,1,0.00047058,-2.7742e-10,0,0.00078297,-8.5846e-05,1.9476,-49.541,0,1.2701e+08,21.735,11997,13888,1,13888,1,0.0018298,4.7567e-09,0,0.0018298,0.00016742,1.3741e+08,486.42,0,3.614e+08,1381.6,13887,11998,1,11998,1,0.00047057,-2.9275e-11,0,0.0007048,-8.5794e-05,7.8491e+07,-2.8925,0,1.117e+08,-6.4405,11997,10083,1,10083,1,-0.00088869,-4.1043e-09,0,1.7489e-05,-0.00033932,-3.614e+08,-1283.1,0,3.0991e+06,-63.611,10082,11053,1,11053,1,-0.00023422,-9.8556e-10,0,0.0003524,-0.00021691,-9.5172e+07,-155.03,0,7.9184e+07,-18.324,11052,12943,1,12943,1,0.0011754,4.825e-10,0,0.0011754,4.5154e-05,1.117e+08,75.716,0,1.3399e+08,3.6403,12942,1091.8,0,1091.8,0,0.00081342,1.2485e-09,0,0.00051958,0.00015146,1.5149e+08,204.47,0,8.2545e+07,132.16,1091.8,1
3780,4.95,11998,1,11998,1,0.00047153,-2.1876e-10,0,0.00078455,-8.602e-05,16.586,-41.964,0,1.2727e+08,20.547,11997,13888,1,13888,1,0.0018336,4.7307e-09,0,0.0018336,0.00016776,1.3768e+08,539.54,0,3.6214e+08,1365.8,13887,11998,1,11998,1,0.00047153,-9.1461e-11,0,0.00070623,-8.5968e-05,7.865e+07,-15.862,0,1.1192e+08,-7.0175,11997,10083,1,10083,1,-0.00089048,-4.1507e-09,0,1.7526e-05,-0.00034001,-3.6214e+08,-1290.8,0,3.1058e+06,-39.938,10082,11053,1,11053,1,-0.0002347,-8.4017e-10,0,0.00035311,-0.00021735,-9.5365e+07,-129.08,0,7.9345e+07,-19.093,11052,12943,1,12943,1,0.0011778,4.071e-10,0,0.0011778,4.5245e-05,1.1192e+08,61.997,0,1.3426e+08,0.95261,12942,1091.8,0,1091.8,0,0.00081507,1.1593e-09,0,0.00052063,0.00015177,1.518e+08,194.81,0,8.2713e+07,129.24,1091.8,1
3780,4.96,11998,1,11998,1,0.00047249,-2.3226e-10,0,0.00078614,-8.6194e-05,-2.7231,-43.304,0,1.2752e+08,23.753,11997,13888,1,13888,1,0.0018373,5.0996e-09,0,0.0018373,0.00016809,1.3796e+08,521.11,0,3.6287e+08,1366.1,13887,11998,1,11998,1,0.00047248,-1.0773e-10,0,0.00070765,-8.6142e-05,7.8809e+07,-18.384,0,1.1215e+08,-4.2573,11997,10083,1,10083,1,-0.00089228,-3.7597e-09,0,1.7562e-05,-0.00034069,-3.6287e+08,-1209.5,0,3.1125e+06,-35.025,10082,11053,1,11053,1,-0.00023517,-8.736e-10,0,0.00035383,-0.00021779,-9.5557e+07,-136.11,0,7.9505e+07,-15.705,11052,12943,1,12943,1,0.0011801,3.7129e-10,0,0.0011801,4.5337e-05,1.1215e+08,56.633,0,1.3453e+08,2.4361,12942,1091.8,0,1091.8,0,0.00081672,1.1167e-09,0,0.00052168,0.00015207,1.521e+08,185.07,0,8.2879e+07,129.66,1091.8,1
3780,4.97,11998,1,11998,1,0.00047344,-5.1299e-10,0,0.00078773,-8.6369e-05,3.9586,-85.368,0,1.2778e+08,20.524,11997,13888,1,13888,1,0.001841,4.0085e-09,0,0.001841,0.00016843,1.3824e+08,685.77,0,3.636e+08,1338.4,13887,11998,1,11998,1,0.00047344,-4.7335e-10,0,0.00070908,-8.6316e-05,7.8969e+07,-74.505,0,1.1237e+08,-3.8126,11997,10083,1,10083,1,-0.00089409,-4.8232e-09,0,1.76e-05,-0.00034138,-3.636e+08,-1387.4,0,3.1193e+06,-63.917,10082,11053,1,11053,1,-0.00023564,-1.288e-09,0,0.00035454,-0.00021823,-9.5749e+07,-191.48,0,7.9665e+07,-13.348,11052,12943,1,12943,1,0.0011825,1.0692e-10,0,0.0011825,4.5428e-05,1.1237e+08,20.141,0,1.3481e+08,3.3203,12942,1091.8,0,1091.8,0,0.00081837,1.3305e-09,0,0.00052274,0.00015238,1.5241e+08,222.65,0,8.3047e+07,123.81,1091.8,1
3780,4.98,11998,1,11998,1,0.00047439,-1.6961e-10,0,0.00078931,-8.6542e-05,20.482,-32.91,0,1.2804e+08,20.699,11997,13888,1,13888,1,0.0018447,5.227e-09,0,0.0018447,0.00016877,1.3852e+08,571.64,0,3.6433e+08,1378.8,13887,11998,1,11998,1,0.00047439,-4.4565e-11,0,0.0007105,-8.649e-05,7.9127e+07,-7.6808,0,1.126e+08,-8.407,11997,10083,1,10083,1,-0.00089588,-3.8491e-09,0,1.7636e-05,-0.00034207,-3.6433e+08,-1223.3,0,3.126e+06,-70.498,10082,11053,1,11053,1,-0.00023611,-1.0382e-09,0,0.00035525,-0.00021867,-9.5941e+07,-172.82,0,7.9825e+07,-21.649,11052,12943,1,12943,1,0.0011849,6.5577e-10,0,0.0011849,4.5519e-05,1.126e+08,101.25,0,1.3508e+08,6.8762,12942,1091.8,0,1091.8,0,0.00082001,1.3507e-09,0,0.00052379,0.00015269,1.5272e+08,212.73,0,8.3213e+07,131.2,1091.8,1
3780,4.99,11998,1,11998,1,0.00047535,-1.8072e-11,0,0.0007909,-8.6716e-05,81.908,-11.326,0,1.2829e+08,19.207,11997,13888,1,13888,1,0.0018484,5.6301e-09,0,0.0018484,0.00016911,1.388e+08,529.39,0,3.6506e+08,1339,13887,11998,1,11998,1,0.00047535,-5.3783e-11,0,0.00071193,-8.6664e-05,7.9286e+07,-9.4334,0,1.1282e+08,-9.6192,11997,10083,1,10083,1,-0.00089767,-3.4947e-09,0,1.7674e-05,-0.00034275,-3.6506e+08,-1162,0,3.1329e+06,-40.717,10082,11053,1,11053,1,-0.00023659,-5.1361e-10,0,0.00035597,-0.00021911,-9.6133e+07,-78.756,0,7.9984e+07,-16.541,11052,12943,1,12943,1,0.0011873,3.9119e-10,0,0.0011873,4.561e-05,1.1282e+08,58.532,0,1.3535e+08,-3.3151,12942,1091.8,0,1091.8,0,0.00082166,9.0991e-10,0,0.00052484,0.00015299,1.5302e+08,155.46,0,8.338e+07,125.51,1091.8,1
3780,5,11998,1,11998,1,0.0004763,-1.1146e-10,0,0.00079248,-8.689e-05,17.341,-25.765,0,1.2855e+08,21.8,11997,13888,1,13888,1,0.0018521,5.4125e-09,0,0.0018521,0.00016945,1.3908e+08,466.16,0,3.6579e+08,1369.1,13887,11998,1,11998,1,0.0004763,-4.4275e-11,0,0.00071336,-8.6837e-05,7.9445e+07,-8.2139,0,1.1305e+08,-7.7884,11997,10083,1,10083,1,-0.00089947,-3.7523e-09,0,1.771e-05,-0.00034344,-3.6579e+08,-1203.5,0,3.1395e+06,-38.613,10082,11053,1,11053,1,-0.00023706,-7.1259e-10,0,0.00035668,-0.00021955,-9.6325e+07,-114.82,0,8.0144e+07,-16.357,11052,12943,1,12943,1,0.0011897,4.6616e-10,0,0.0011897,4.5701e-05,1.1305e+08,72.813,0,1.3562e+08,1.7462,12942,1091.8,0,1091.8,0,0.0008233,1.0177e-09,0,0.00052589,0.0001533,1.5333e+08,168.13,0,8.3547e+07,128.45,1091.8,1
3780,5.01,11998,1,11998,1,0.00047726,-2.11e-10,0,0.00079407,-8.7065e-05,9.798,-40.677,0,1.2881e+08,19.16,11997,13888,1,13888,1,0.0018558,4.4097e-09,0,0.0018558,0.00016979,1.3936e+08,683.11,0,3.6652e+08,1383.9,13887,11998,1,11998,1,0.00047726,-8.6364e-11,0,0.00071479,-8.7012e-05,7.9604e+07,-16.843,0,1.1328e+08,-8.347,11997,10083,1,10083,1,-0.00090128,-4.5954e-09,0,1.7747e-05,-0.00034413,-3.6652e+08,-1359.2,0,3.1463e+06,-56.072,10082,11053,1,11053,1,-0.00023753,-1.1845e-09,0,0.0003574,-0.00021999,-9.6517e+07,-190.23,0,8.0305e+07,-23.24,11052,12943,1,12943,1,0.0011921,6.8378e-10,0,0.0011921,4.5792e-05,1.1328e+08,107.07,0,1.3589e+08,3.497,12942,1091.8,0,1091.8,0,0.00082496,1.533e-09,0,0.00052695,0.00015361,1.5364e+08,244.56,0,8.3715e+07,130.81,1091.8,1
3780,5.02,11998,1,11998,1,0.00047821,-1.3994e-10,0,0.00079566,-8.7239e-05,10.931,-30.25,0,1.2906e+08,21.325,11997,13888,1,13888,1,0.0018595,4.6666e-09,0,0.0018595,0.00017013,1.3963e+08,606.76,0,3.6725e+08,1359.9,13887,11998,1,11998,1,0.00047821,-1.0522e-10,0,0.00071622,-8.7186e-05,7.9763e+07,-19.572,0,1.135e+08,-6.4001,11997,10083,1,10083,1,-0.00090307,-4.3731e-09,0,1.7785e-05,-0.00034482,-3.6725e+08,-1320.5,0,3.1531e+06,-42.949,10082,11053,1,11053,1,-0.000238,-7.6455e-10,0,0.00035811,-0.00022043,-9.6709e+07,-118.48,0,8.0464e+07,-16.252,11052,12943,1,12943,1,0.0011944,4.4992e-10,0,0.0011944,4.5883e-05,1.135e+08,67.753,0,1.3616e+08,0.79371,12942,1091.8,0,1091.8,0,0.0008266,1.1669e-09,0,0.000528,0.00015391,1.5394e+08,197.35,0,8.3881e+07,126.76,1091.8,1
3780,5.03,11998,1,11998,1,0.00047917,-1.195e-11,0,0.00079724,-8.7413e-05,4.0207,-10.07,0,1.2932e+08,25.955,11997,13888,1,13888,1,0.0018632,5.8259e-09,0,0.0018632,0.00017046,1.3991e+08,485.25,0,3.6798e+08,1371.6,13887,11998,1,11998,1,0.00047916,-1.4126e-11,0,0.00071764,-8.7359e-05,7.9921e+07,-1.9923,0,1.1373e+08,-4.1256,11997,10083,1,10083,1,-0.00090486,-3.4169e-09,0,1.7822e-05,-0.0003455,-3.6798e+08,-1155.9,0,3.1598e+06,-25.745,10082,11053,1,11053,1,-0.00023848,-4.7543e-10,0,0.00035882,-0.00022087,-9.6901e+07,-76.101,0,8.0624e+07,-11.192,11052,12943,1,12943,1,0.0011968,4.1576e-10,0,0.0011968,4.5974e-05,1.1373e+08,63.797,0,1.3643e+08,1.8867,12942,1091.8,0,1091.8,0,0.00082824,8.8577e-10,0,0.00052905,0.00015422,1.5425e+08,150.85,0,8.4048e+07,128.07,1091.8,1
3780,5.04,11998,1,11998,1,0.00048012,-2.1117e-10,0,0.00079883,-8.7587e-05,4.7379,-40.585,0,1.2958e+08,22.209,11997,13888,1,13888,1,0.0018669,5.1516e-09,0,0.0018669,0.0001708,1.4019e+08,596.88,0,3.6872e+08,1382.5,13887,11998,1,11998,1,0.00048012,-1.1594e-10,0,0.00071907,-8.7534e-05,8.008e+07,-23.881,0,1.1395e+08,-6.0509,11997,10083,1,10083,1,-0.00090666,-3.9928e-09,0,1.7859e-05,-0.00034619,-3.6872e+08,-1252.6,0,3.1666e+06,-47.837,10082,11053,1,11053,1,-0.00023895,-1.0352e-09,0,0.00035953,-0.00022131,-9.7093e+07,-168.17,0,8.0784e+07,-18.584,11052,12943,1,12943,1,0.0011992,5.3447e-10,0,0.0011992,4.6066e-05,1.1395e+08,81.848,0,1.3671e+08,4.0208,12942,1091.8,0,1091.8,0,0.00082989,1.2962e-09,0,0.0005301,0.00015453,1.5455e+08,208.15,0,8.4215e+07,130.12,1091.8,1
3780,5.05,11998,1,11998,1,0.00048107,-2.7262e-10,0,0.00080041,-8.7761e-05,5.5263,-49.247,0,1.2983e+08,26.505,11997,13888,1,13888,1,0.0018706,5.9408e-09,0,0.0018706,0.00017114,1.4047e+08,481.06,0,3.6944e+08,1379.1,13887,11998,1,11998,1,0.00048107,-2.3703e-10,0,0.00072049,-8.7707e-05,8.0239e+07,-37.18,0,1.1418e+08,-3.514,11997,10083,1,10083,1,-0.00090846,-3.3587e-09,0,1.7896e-05,-0.00034688,-3.6944e+08,-1145.1,0,3.1734e+06,-33.882,10082,11053,1,11053,1,-0.00023942,-8.1893e-10,0,0.00036025,-0.00022175,-9.7285e+07,-125.23,0,8.0943e+07,-9.7992,11052,12943,1,12943,1,0.0012016,1.2729e-10,0,0.0012016,4.6157e-05,1.1418e+08,21.202,0,1.3698e+08,2.0059,12942,1091.8,0,1091.8,0,0.00083154,8.8836e-10,0,0.00053115,0.00015483,1.5486e+08,148.11,0,8.4382e+07,129.21,1091.8,1
3780,5.06,11998,1,11998,1,0.00048203,-4.1656e-10,0,0.000802,-8.7936e-05,18.402,-71.002,0,1.3009e+08,21.607,11997,13888,1,13888,1,0.0018743,5.0459e-09,0,0.0018743,0.00017148,1.4075e+08,581.13,0,3.7018e+08,1384.9,13887,11998,1,11998,1,0.00048203,-3.0699e-10,0,0.00072192,-8.7882e-05,8.0399e+07,-49.952,0,1.1441e+08,-6.2683,11997,10083,1,10083,1,-0.00091026,-4.1232e-09,0,1.7933e-05,-0.00034757,-3.7018e+08,-1278.1,0,3.1802e+06,-46.116,10082,11053,1,11053,1,-0.00023989,-1.2321e-09,0,0.00036096,-0.00022219,-9.7477e+07,-193.59,0,8.1104e+07,-18.086,11052,12943,1,12943,1,0.001204,2.5321e-10,0,0.001204,4.6248e-05,1.1441e+08,40.433,0,1.3725e+08,2.0431,12942,1091.8,0,1091.8,0,0.00083319,1.2467e-09,0,0.00053221,0.00015514,1.5517e+08,202.16,0,8.4549e+07,130,1091.8,1
3780,5.07,11998,1,11998,1,0.00048299,-1.573e-10,0,0.00080358,-8.8109e-05,12.638,-32.696,0,1.3035e+08,22.671,11997,13888,1,13888,1,0.001878,5.577e-09,0,0.001878,0.00017182,1.4102e+08,549.61,0,3.7091e+08,1391.2,13887,11998,1,11998,1,0.00048298,-1.033e-10,0,0.00072335,-8.8056e-05,8.0557e+07,-19.755,0,1.1463e+08,-6.6322,11997,10083,1,10083,1,-0.00091206,-3.7181e-09,0,1.797e-05,-0.00034825,-3.7091e+08,-1206.7,0,3.187e+06,-37.567,10082,11053,1,11053,1,-0.00024037,-8.238e-10,0,0.00036168,-0.00022263,-9.7669e+07,-131.11,0,8.1263e+07,-16.307,11052,12943,1,12943,1,0.0012063,4.2528e-10,0,0.0012063,4.6339e-05,1.1463e+08,63.992,0,1.3752e+08,1.9973,12942,1091.8,0,1091.8,0,0.00083483,1.0969e-09,0,0.00053326,0.00015545,1.5547e+08,179.15,0,8.4716e+07,130.48,1091.8,1
3780,5.08,11998,1,11998,1,0.00048394,9.3295e-11,0,0.00080517,-8.8283e-05,3.3867,5.6056,0,1.306e+08,26.861,11997,13888,1,13888,1,0.0018817,6.4317e-09,0,0.0018817,0.00017216,1.413e+08,524.56,0,3.7164e+08,1388.1,13887,11998,1,11998,1,0.00048393,2.5103e-11,0,0.00072477,-8.8229e-05,8.0716e+07,3.9964,0,1.1486e+08,-3.8122,11997,10083,1,10083,1,-0.00091385,-3.1651e-09,0,1.8007e-05,-0.00034894,-3.7164e+08,-1079.1,0,3.1937e+06,-41.604,10082,11053,1,11053,1,-0.00024084,-5.2647e-10,0,0.00036239,-0.00022307,-9.7861e+07,-89.418,0,8.1423e+07,-12.875,11052,12943,1,12943,1,0.0012087,6.5349e-10,0,0.0012087,4.643e-05,1.1486e+08,99.65,0,1.3779e+08,6.1722,12942,1091.8,0,1091.8,0,0.00083648,1.0045e-09,0,0.00053431,0.00015575,1.5578e+08,160.76,0,8.4882e+07,131.32,1091.8,1
3780,5.09,11998,1,11998,1,0.0004849,-1.2713e-10,0,0.00080676,-8.8458e-05,38.883,-27.169,0,1.3086e+08,14.475,11997,13888,1,13888,1,0.0018855,4.4206e-09,0,0.0018855,0.0001725,1.4158e+08,848.38,0,3.7237e+08,1401.6,13887,11998,1,11998,1,0.00048489,-3.1747e-11,0,0.00072621,-8.8404e-05,8.0876e+07,-4.0584,0,1.1508e+08,-11.54,11997,10083,1,10083,1,-0.00091566,-4.9517e-09,0,1.8044e-05,-0.00034963,-3.7237e+08,-1420.7,0,3.2006e+06,-80.528,10082,11053,1,11053,1,-0.00024131,-1.36e-09,0,0.00036311,-0.00022351,-9.8054e+07,-221.07,0,8.1584e+07,-30.987,11052,12943,1,12943,1,0.0012111,9.8941e-10,0,0.0012111,4.6521e-05,1.1508e+08,153.03,0,1.3806e+08,3.2987,12942,1091.8,0,1091.8,0,0.00083814,1.9026e-09,0,0.00053537,0.00015606,1.5609e+08,297.14,0,8.505e+07,133.07,1091.8,1
3780,5.1,11998,1,11998,1,0.00048585,-8.7637e-11,0,0.00080835,-8.8632e-05,16.122,-21.143,0,1.3112e+08,19.506,11997,13888,1,13888,1,0.0018892,4.4131e-09,0,0.0018892,0.00017284,1.4186e+08,727.61,0,3.731e+08,1394.6,13887,11998,1,11998,1,0.00048585,-2.0116e-11,0,0.00072763,-8.8578e-05,8.1034e+07,-2.5751,0,1.1531e+08,-7.4652,11997,10083,1,10083,1,-0.00091746,-4.718e-09,0,1.8081e-05,-0.00035032,-3.731e+08,-1386.2,0,3.2074e+06,-60.194,10082,11053,1,11053,1,-0.00024179,-1.1038e-09,0,0.00036382,-0.00022395,-9.8245e+07,-177.84,0,8.1743e+07,-22.273,11052,12943,1,12943,1,0.0012135,8.6616e-10,0,0.0012135,4.6612e-05,1.1531e+08,134.15,0,1.3834e+08,2.9167,12942,1091.8,0,1091.8,0,0.00083978,1.6164e-09,0,0.00053642,0.00015637,1.5639e+08,259.51,0,8.5217e+07,131.01,1091.8,1
3780,5.11,11998,1,11998,1,0.0004868,6.7505e-11,0,0.00080993,-8.8806e-05,24.053,2.0612,0,1.3138e+08,20.963,11997,13888,1,13888,1,0.0018929,5.117e-09,0,0.0018929,0.00017318,1.4214e+08,695.15,0,3.7383e+08,1398.8,13887,11998,1,11998,1,0.0004868,3.1234e-11,0,0.00072906,-8.8752e-05,8.1193e+07,3.7563,0,1.1553e+08,-6.9993,11997,10083,1,10083,1,-0.00091925,-4.1428e-09,0,1.8118e-05,-0.00035101,-3.7383e+08,-1287,0,3.2142e+06,-58.599,10082,11053,1,11053,1,-0.00024226,-8.6182e-10,0,0.00036453,-0.00022439,-9.8437e+07,-139.94,0,8.1903e+07,-20.457,11052,12943,1,12943,1,0.0012159,9.2677e-10,0,0.0012159,4.6703e-05,1.1553e+08,143.18,0,1.3861e+08,3.5187,12942,1091.8,0,1091.8,0,0.00084142,1.454e-09,0,0.00053747,0.00015667,1.567e+08,233.38,0,8.5384e+07,131.81,1091.8,1
3780,5.12,11998,1,11998,1,0.00048776,-8.8998e-11,0,0.00081151,-8.898e-05,18.799,-22.442,0,1.3163e+08,25.108,11997,13888,1,13888,1,0.0018966,5.7902e-09,0,0.0018966,0.00017351,1.4242e+08,484.18,0,3.7456e+08,1397,13887,11998,1,11998,1,0.00048775,-3.0502e-11,0,0.00073048,-8.8926e-05,8.1351e+07,-4.5808,0,1.1576e+08,-5.2026,11997,10083,1,10083,1,-0.00092104,-3.5887e-09,0,1.8155e-05,-0.00035169,-3.7456e+08,-1193.4,0,3.2209e+06,-34.325,10082,11053,1,11053,1,-0.00024273,-6.7701e-10,0,0.00036524,-0.00022482,-9.8629e+07,-108.08,0,8.2062e+07,-13.938,11052,12943,1,12943,1,0.0012182,4.8209e-10,0,0.0012182,4.6794e-05,1.1576e+08,73.965,0,1.3888e+08,2.0485,12942,1091.8,0,1091.8,0,0.00084307,1.0156e-09,0,0.00053852,0.00015698,1.57e+08,168.94,0,8.555e+07,131.36,1091.8,1
3780,5.13,11998,1,11998,1,0.00048871,-1.7442e-10,0,0.0008131,-8.9154e-05,25.592,-34.498,0,1.3189e+08,21.6,11997,13888,1,13888,1,0.0019003,5.0323e-09,0,0.0019003,0.00017385,1.427e+08,617.57,0,3.753e+08,1396.4,13887,11998,1,11998,1,0.00048871,-8.5996e-11,0,0.00073191,-8.91e-05,8.1511e+07,-16.36,0,1.1599e+08,-6.5178,11997,10083,1,10083,1,-0.00092285,-4.233e-09,0,1.8193e-05,-0.00035238,-3.753e+08,-1304.9,0,3.2278e+06,-40.939,10082,11053,1,11053,1,-0.0002432,-9.6461e-10,0,0.00036596,-0.00022526,-9.8821e+07,-152.06,0,8.2223e+07,-18.468,11052,12943,1,12943,1,0.0012206,5.4685e-10,0,0.0012206,4.6886e-05,1.1599e+08,83.745,0,1.3915e+08,1.3286,12942,1091.8,0,1091.8,0,0.00084472,1.2918e-09,0,0.00053958,0.00015729,1.5731e+08,212.11,0,8.5718e+07,130.79,1091.8,1
3780,5.14,11998,1,11998,1,0.00048967,1.8184e-10,0,0.00081468,-8.9328e-05,10.941,19.289,0,1.3214e+08,24.788,11997,13888,1,13888,1,0.001904,5.9475e-09,0,0.001904,0.00017419,1.4297e+08,608.73,0,3.7602e+08,1398,13887,11998,1,11998,1,0.00048966,5.9192e-11,0,0.00073334,-8.9274e-05,8.1669e+07,8.0401,0,1.1621e+08,-4.864,11997,10083,1,10083,1,-0.00092464,-3.4771e-09,0,1.823e-05,-0.00035306,-3.7602e+08,-1174.8,0,3.2346e+06,-31.186,10082,11053,1,11053,1,-0.00024367,-4.7371e-10,0,0.00036667,-0.0002257,-9.9013e+07,-75.713,0,8.2382e+07,-14.065,11052,12943,1,12943,1,0.001223,7.7612e-10,0,0.001223,4.6977e-05,1.1621e+08,118.24,0,1.3942e+08,1.9789,12942,1091.8,0,1091.8,0,0.00084636,1.0997e-09,0,0.00054063,0.00015759,1.5762e+08,181.6,0,8.5884e+07,130.8,1091.8,1
3780,5.15,11998,1,11998,1,0.00049062,-1.4375e-10,0,0.00081628,-8.9503e-05,14.418,-29.256,0,1.324e+08,21.528,11997,13888,1,13888,1,0.0019077,4.8457e-09,0,0.0019077,0.00017453,1.4325e+08,697.85,0,3.7676e+08,1412.1,13887,11998,1,11998,1,0.00049062,-4.8638e-11,0,0.00073477,-8.9448e-05,8.1829e+07,-8.7036,0,1.1644e+08,-6.1507,11997,10083,1,10083,1,-0.00092644,-4.4382e-09,0,1.8267e-05,-0.00035376,-3.7676e+08,-1343.9,0,3.2414e+06,-62,10082,11053,1,11053,1,-0.00024415,-1.1679e-09,0,0.00036739,-0.00022614,-9.9205e+07,-188.81,0,8.2543e+07,-20.928,11052,12943,1,12943,1,0.0012254,8.0633e-10,0,0.0012254,4.7068e-05,1.1644e+08,124.61,0,1.3969e+08,4.4345,12942,1091.8,0,1091.8,0,0.00084801,1.5676e-09,0,0.00054168,0.0001579,1.5792e+08,250.71,0,8.6052e+07,133.25,1091.8,1
3780,5.16,11998,1,11998,1,0.00049158,-2.9387e-10,0,0.00081786,-8.9677e-05,0.96739,-52.245,0,1.3266e+08,23.207,11997,13888,1,13888,1,0.0019114,4.9782e-09,0,0.0019114,0.00017487,1.4353e+08,649.62,0,3.7749e+08,1417.7,13887,11998,1,11998,1,0.00049157,-1.344e-10,0,0.0007362,-8.9622e-05,8.1988e+07,-28.006,0,1.1666e+08,-5.0357,11997,10083,1,10083,1,-0.00092824,-4.341e-09,0,1.8304e-05,-0.00035444,-3.7749e+08,-1330.9,0,3.2482e+06,-55.6,10082,11053,1,11053,1,-0.00024462,-1.2763e-09,0,0.0003681,-0.00022658,-9.9397e+07,-205.87,0,8.2702e+07,-19.66,11052,12943,1,12943,1,0.0012278,5.9308e-10,0,0.0012278,4.7159e-05,1.1666e+08,92.411,0,1.3996e+08,5.508,12942,1091.8,0,1091.8,0,0.00084966,1.4789e-09,0,0.00054274,0.00015821,1.5823e+08,236.95,0,8.6219e+07,133.95,1091.8,1
3780,5.17,11998,1,11998,1,0.00049253,-8.9446e-11,0,0.00081944,-8.9851e-05,1.5304,-21.475,0,1.3292e+08,24.723,11997,13888,1,13888,1,0.0019151,5.9614e-09,0,0.0019151,0.00017521,1.4381e+08,481.6,0,3.7822e+08,1422.7,13887,11998,1,11998,1,0.00049253,-2.5344e-12,0,0.00073762,-8.9796e-05,8.2146e+07,-0.47458,0,1.1689e+08,-5.9984,11997,10083,1,10083,1,-0.00093003,-3.5303e-09,0,1.8341e-05,-0.00035513,-3.7822e+08,-1185.3,0,3.255e+06,-41.642,10082,11053,1,11053,1,-0.00024509,-6.8744e-10,0,0.00036881,-0.00022702,-9.9589e+07,-113.22,0,8.2862e+07,-14.624,11052,12943,1,12943,1,0.0012302,4.932e-10,0,0.0012302,4.725e-05,1.1689e+08,76.313,0,1.4023e+08,2.5728,12942,1091.8,0,1091.8,0,0.0008513,1.0245e-09,0,0.00054379,0.00015851,1.5854e+08,167.26,0,8.6385e+07,133.42,1091.8,1
3780,5.18,11998,1,11998,1,0.00049348,-8.2483e-11,0,0.00082103,-9.0024e-05,0.79317,-21.395,0,1.3317e+08,26.875,11997,13888,1,13888,1,0.0019188,6.1348e-09,0,0.0019188,0.00017554,1.4409e+08,496.84,0,3.7895e+08,1404.9,13887,11998,1,11998,1,0.00049348,-3.7358e-11,0,0.00073904,-8.997e-05,8.2305e+07,-5.7821,0,1.1711e+08,-3.8423,11997,10083,1,10083,1,-0.00093183,-3.4012e-09,0,1.8379e-05,-0.00035581,-3.7895e+08,-1159.6,0,3.2618e+06,-27.065,10082,11053,1,11053,1,-0.00024556,-4.1805e-10,0,0.00036952,-0.00022746,-9.9781e+07,-65.054,0,8.3021e+07,-8.7184,11052,12943,1,12943,1,0.0012325,2.4841e-10,0,0.0012325,4.7341e-05,1.1711e+08,38.633,0,1.4051e+08,1.1283,12942,1091.8,0,1091.8,0,0.00085295,7.8234e-10,0,0.00054484,0.00015882,1.5884e+08,135.3,0,8.6552e+07,130.91,1091.8,1
3780,5.19,11998,1,11998,1,0.00049444,-1.1173e-10,0,0.00082261,-9.0199e-05,3.1328,-24.463,0,1.3343e+08,27.419,11997,13888,1,13888,1,0.0019225,6.6281e-09,0,0.0019225,0.00017588,1.4436e+08,540.81,0,3.7968e+08,1418.5,13887,11998,1,11998,1,0.00049443,-4.4333e-11,0,0.00074047,-9.0144e-05,8.2464e+07,-7.3754,0,1.1734e+08,-3.8132,11997,10083,1,10083,1,-0.00093362,-3.21e-09,0,1.8416e-05,-0.0003565,-3.7968e+08,-1094.5,0,3.2686e+06,-28.715,10082,11053,1,11053,1,-0.00024604,-5.5142e-10,0,0.00037024,-0.0002279,-9.9973e+07,-88.448,0,8.3181e+07,-10.368,11052,12943,1,12943,1,0.0012349,2.416e-10,0,0.0012349,4.7432e-05,1.1734e+08,37.215,0,1.4078e+08,2.3823,12942,1091.8,0,1091.8,0,0.00085459,8.1835e-10,0,0.00054589,0.00015912,1.5915e+08,133.16,0,8.6719e+07,132.98,1091.8,1
3780,5.2,11998,1,11998,1,0.00049539,-1.7352e-10,0,0.0008242,-9.0373e-05,3.4764,-34.622,0,1.3368e+08,27.947,11997,13888,1,13888,1,0.0019262,6.4542e-09,0,0.0019262,0.00017622,1.4464e+08,525.43,0,3.8041e+08,1422.5,13887,11998,1,11998,1,0.00049539,-6.9648e-11,0,0.0007419,-9.0318e-05,8.2622e+07,-12.587,0,1.1756e+08,-3.9008,11997,10083,1,10083,1,-0.00093542,-3.3048e-09,0,1.8453e-05,-0.00035719,-3.8041e+08,-1126.7,0,3.2754e+06,-30.729,10082,11053,1,11053,1,-0.00024651,-6.5857e-10,0,0.00037095,-0.00022834,-1.0016e+08,-106.1,0,8.3341e+07,-11.141,11052,12943,1,12943,1,0.0012373,2.6437e-10,0,0.0012373,4.7523e-05,1.1756e+08,41.427,0,1.4105e+08,2.6908,12942,1091.8,0,1091.8,0,0.00085624,8.5691e-10,0,0.00054694,0.00015943,1.5945e+08,140.15,0,8.6885e+07,133.8,1091.8,1
3780,5.21,11998,1,11998,1,0.00049635,-4.7304e-11,0,0.00082578,-9.0547e-05,2.9542,-15.455,0,1.3394e+08,29.245,11997,13888,1,13888,1,0.0019299,6.883e-09,0,0.0019299,0.00017656,1.4492e+08,563.4,0,3.8114e+08,1423.2,13887,11998,1,11998,1,0.00049634,-6.6917e-12,0,0.00074332,-9.0492e-05,8.2781e+07,-0.56957,0,1.1779e+08,-3.2971,11997,10083,1,10083,1,-0.00093721,-3.1291e-09,0,1.849e-05,-0.00035787,-3.8114e+08,-1066.9,0,3.2823e+06,-30.143,10082,11053,1,11053,1,-0.00024698,-4.6122e-10,0,0.00037166,-0.00022878,-1.0036e+08,-77.878,0,8.3501e+07,-9.3068,11052,12943,1,12943,1,0.0012397,3.247e-10,0,0.0012397,4.7614e-05,1.1779e+08,50.198,0,1.4132e+08,3.4882,12942,1091.8,0,1091.8,0,0.00085789,7.848e-10,0,0.00054799,0.00015974,1.5976e+08,125.85,0,8.7052e+07,133.91,1091.8,1
3780,5.22,11998,1,11998,1,0.00049731,-1.0782e-10,0,0.00082737,-9.0722e-05,4.327,-24.629,0,1.342e+08,23.411,11997,13888,1,13888,1,0.0019336,5.6376e-09,0,0.0019336,0.0001769,1.452e+08,583.43,0,3.8187e+08,1414.9,13887,11998,1,11998,1,0.0004973,-5.5095e-11,0,0.00074476,-9.0666e-05,8.2941e+07,-9.9421,0,1.1802e+08,-5.7108,11997,10083,1,10083,1,-0.00093902,-3.8458e-09,0,1.8528e-05,-0.00035857,-3.8187e+08,-1244,0,3.2891e+06,-37.502,10082,11053,1,11053,1,-0.00024745,-8.1239e-10,0,0.00037238,-0.00022922,-1.0055e+08,-129.66,0,8.3661e+07,-16.058,11052,12943,1,12943,1,0.0012421,5.0945e-10,0,0.0012421,4.7706e-05,1.1802e+08,79.087,0,1.4159e+08,1.4855,12942,1091.8,0,1091.8,0,0.00085954,1.1506e-09,0,0.00054905,0.00016005,1.6007e+08,189.05,0,8.722e+07,132.23,1091.8,1
3780,5.23,11998,1,11998,1,0.00049826,-2.7193e-10,0,0.00082896,-9.0895e-05,4.4339,-49.219,0,1.3446e+08,25.731,11997,13888,1,13888,1,0.0019373,5.8592e-09,0,0.0019373,0.00017724,1.4548e+08,479.1,0,3.826e+08,1439.3,13887,11998,1,11998,1,0.00049825,-9.0601e-11,0,0.00074618,-9.084e-05,8.3099e+07,-17.323,0,1.1824e+08,-5.0685,11997,10083,1,10083,1,-0.00094082,-3.715e-09,0,1.8565e-05,-0.00035925,-3.826e+08,-1227.9,0,3.2959e+06,-50.439,10082,11053,1,11053,1,-0.00024793,-9.8415e-10,0,0.00037309,-0.00022966,-1.0074e+08,-160.24,0,8.3821e+07,-15.741,11052,12943,1,12943,1,0.0012444,4.0687e-10,0,0.0012444,4.7796e-05,1.1824e+08,63.794,0,1.4186e+08,4.855,12942,1091.8,0,1091.8,0,0.00086118,1.1425e-09,0,0.0005501,0.00016035,1.6037e+08,184.52,0,8.7387e+07,135.92,1091.8,1
3780,5.24,11998,1,11998,1,0.00049921,-2.3987e-10,0,0.00083054,-9.107e-05,-2.9421,-44.627,0,1.3471e+08,25.435,11997,13888,1,13888,1,0.001941,5.4915e-09,0,0.001941,0.00017758,1.4576e+08,482.8,0,3.8334e+08,1422.7,13887,11998,1,11998,1,0.00049921,-1.0051e-10,0,0.00074761,-9.1014e-05,8.3258e+07,-19.374,0,1.1847e+08,-4.9069,11997,10083,1,10083,1,-0.00094261,-4.0151e-09,0,1.8602e-05,-0.00035994,-3.8334e+08,-1278.5,0,3.3028e+06,-30.534,10082,11053,1,11053,1,-0.0002484,-8.3076e-10,0,0.0003738,-0.0002301,-1.0093e+08,-131.05,0,8.398e+07,-13.078,11052,12943,1,12943,1,0.0012468,3.3381e-10,0,0.0012468,4.7888e-05,1.1847e+08,50.116,0,1.4213e+08,1.9998,12942,1091.8,0,1091.8,0,0.00086283,1.0382e-09,0,0.00055116,0.00016066,1.6068e+08,175.65,0,8.7554e+07,132.41,1091.8,1
3780,5.25,11998,1,11998,1,0.00050017,-5.5069e-11,0,0.00083214,-9.1244e-05,9.2672,-16.689,0,1.3497e+08,20.325,11997,13888,1,13888,1,0.0019448,5.0936e-09,0,0.0019448,0.00017792,1.4604e+08,670.34,0,3.8407e+08,1442.9,13887,11998,1,11998,1,0.00050017,-5.4166e-12,0,0.00074904,-9.1189e-05,8.3418e+07,-0.46504,0,1.1869e+08,-8.4932,11997,10083,1,10083,1,-0.00094442,-4.3996e-09,0,1.8639e-05,-0.00036063,-3.8407e+08,-1342.7,0,3.3096e+06,-67.898,10082,11053,1,11053,1,-0.00024887,-1.078e-09,0,0.00037452,-0.00023054,-1.0113e+08,-177.13,0,8.4141e+07,-22.927,11052,12943,1,12943,1,0.0012492,9.114e-10,0,0.0012492,4.7979e-05,1.1869e+08,143.88,0,1.4241e+08,3.8838,12942,1091.8,0,1091.8,0,0.00086448,1.574e-09,0,0.00055221,0.00016097,1.6099e+08,249.29,0,8.7721e+07,136.62,1091.8,1
3780,5.26,11998,1,11998,1,0.00050112,7.5742e-11,0,0.00083372,-9.1418e-05,8.965,2.5356,0,1.3523e+08,25.338,11997,13888,1,13888,1,0.0019485,5.9369e-09,0,0.0019485,0.00017825,1.4631e+08,558.8,0,3.848e+08,1422,13887,11998,1,11998,1,0.00050112,1.4617e-11,0,0.00075046,-9.1362e-05,8.3576e+07,1.8594,0,1.1892e+08,-4.9375,11997,10083,1,10083,1,-0.00094621,-3.664e-09,0,1.8677e-05,-0.00036131,-3.848e+08,-1218.9,0,3.3165e+06,-28.937,10082,11053,1,11053,1,-0.00024934,-5.4727e-10,0,0.00037523,-0.00023098,-1.0132e+08,-87.402,0,8.43e+07,-13.78,11052,12943,1,12943,1,0.0012516,6.6498e-10,0,0.0012516,4.807e-05,1.1892e+08,102.31,0,1.4268e+08,1.656,12942,1091.8,0,1091.8,0,0.00086613,1.0693e-09,0,0.00055326,0.00016127,1.6129e+08,178.39,0,8.7887e+07,132.89,1091.8,1
3780,5.27,11998,1,11998,1,0.00050208,1.4951e-10,0,0.0008353,-9.1592e-05,4.5105,13.685,0,1.3548e+08,24.908,11997,13888,1,13888,1,0.0019522,5.8591e-09,0,0.0019522,0.00017859,1.4659e+08,600.99,0,3.8553e+08,1438.5,13887,11998,1,11998,1,0.00050207,4.4916e-11,0,0.00075189,-9.1537e-05,8.3735e+07,9.2255,0,1.1915e+08,-5.3236,11997,10083,1,10083,1,-0.00094801,-3.7659e-09,0,1.8714e-05,-0.000362,-3.8553e+08,-1240,0,3.3233e+06,-45.493,10082,11053,1,11053,1,-0.00024982,-6.3102e-10,0,0.00037595,-0.00023142,-1.0151e+08,-102.25,0,8.446e+07,-15.879,11052,12943,1,12943,1,0.001254,8.9838e-10,0,0.001254,4.8161e-05,1.1915e+08,139.19,0,1.4295e+08,3.5858,12942,1091.8,0,1091.8,0,0.00086777,1.2461e-09,0,0.00055431,0.00016158,1.616e+08,202.48,0,8.8055e+07,135.27,1091.8,1
3780,5.28,11998,1,11998,1,0.00050303,-1.3303e-10,0,0.00083689,-9.1766e-05,0.73822,-28.233,0,1.3574e+08,26.422,11997,13888,1,13888,1,0.0019559,5.9054e-09,0,0.0019559,0.00017893,1.4687e+08,491.26,0,3.8626e+08,1436.3,13887,11998,1,11998,1,0.00050303,-4.2055e-11,0,0.00075332,-9.1711e-05,8.3894e+07,-6.7434,0,1.1937e+08,-4.4966,11997,10083,1,10083,1,-0.00094981,-3.7218e-09,0,1.8751e-05,-0.00036269,-3.8626e+08,-1233,0,3.3302e+06,-29.601,10082,11053,1,11053,1,-0.00025029,-6.946e-10,0,0.00037666,-0.00023186,-1.017e+08,-109.55,0,8.462e+07,-12.51,11052,12943,1,12943,1,0.0012564,3.8294e-10,0,0.0012564,4.8252e-05,1.1937e+08,59.733,0,1.4322e+08,1.9103,12942,1091.8,0,1091.8,0,0.00086942,9.8952e-10,0,0.00055537,0.00016189,1.619e+08,166.49,0,8.8222e+07,134.19,1091.8,1
3780,5.29,11998,1,11998,1,0.00050399,-1.7323e-11,0,0.00083848,-9.1941e-05,4.3334,-12.391,0,1.36e+08,24.509,11997,13888,1,13888,1,0.0019596,5.5272e-09,0,0.0019596,0.00017927,1.4715e+08,528.3,0,3.8699e+08,1441.1,13887,11998,1,11998,1,0.00050398,-8.782e-12,0,0.00075475,-9.1885e-05,8.4053e+07,-0.87928,0,1.196e+08,-6.3485,11997,10083,1,10083,1,-0.0009516,-4.0888e-09,0,1.8788e-05,-0.00036338,-3.8699e+08,-1298.5,0,3.337e+06,-40.32,10082,11053,1,11053,1,-0.00025076,-6.993e-10,0,0.00037737,-0.0002323,-1.0189e+08,-110.88,0,8.478e+07,-15.243,11052,12943,1,12943,1,0.0012587,6.8489e-10,0,0.0012587,4.8343e-05,1.196e+08,104.96,0,1.4349e+08,2.5618,12942,1091.8,0,1091.8,0,0.00087107,1.1755e-09,0,0.00055642,0.00016219,1.6221e+08,194.91,0,8.8388e+07,134.95,1091.8,1
3780,5.3,11998,1,11998,1,0.00050494,-6.9368e-11,0,0.00084006,-9.2115e-05,11.254,-17.69,0,1.3625e+08,25.614,11997,13888,1,13888,1,0.0019633,6.0716e-09,0,0.0019633,0.00017961,1.4743e+08,497.48,0,3.8772e+08,1437,13887,11998,1,11998,1,0.00050494,-8.9137e-12,0,0.00075617,-9.2059e-05,8.4212e+07,-1.4778,0,1.1982e+08,-4.9166,11997,10083,1,10083,1,-0.0009534,-3.611e-09,0,1.8826e-05,-0.00036406,-3.8772e+08,-1209.8,0,3.3439e+06,-32.094,10082,11053,1,11053,1,-0.00025123,-5.3957e-10,0,0.00037809,-0.00023274,-1.0208e+08,-86.585,0,8.4939e+07,-11.046,11052,12943,1,12943,1,0.0012611,3.4046e-10,0,0.0012611,4.8434e-05,1.1982e+08,50.755,0,1.4376e+08,0.6777,12942,1091.8,0,1091.8,0,0.00087271,8.957e-10,0,0.00055747,0.0001625,1.6252e+08,152.66,0,8.8555e+07,133.22,1091.8,1
3780,5.31,11998,1,11998,1,0.00050589,1.9502e-10,0,0.00084164,-9.2288e-05,10.555,20.013,0,1.3651e+08,27.683,11997,13888,1,13888,1,0.001967,6.9472e-09,0,0.001967,0.00017995,1.477e+08,567.69,0,3.8845e+08,1442.5,13887,11998,1,11998,1,0.00050589,8.4904e-11,0,0.0007576,-9.2232e-05,8.437e+07,14.156,0,1.2005e+08,-5.2262,11997,10083,1,10083,1,-0.00095519,-3.1853e-09,0,1.8863e-05,-0.00036475,-3.8845e+08,-1086,0,3.3508e+06,-24.091,10082,11053,1,11053,1,-0.0002517,-2.0764e-10,0,0.0003788,-0.00023317,-1.0228e+08,-33.616,0,8.5099e+07,-9.8953,11052,12943,1,12943,1,0.0012635,6.0677e-10,0,0.0012635,4.8525e-05,1.2005e+08,91.848,0,1.4403e+08,1.5079,12942,1091.8,0,1091.8,0,0.00087436,7.8557e-10,0,0.00055852,0.0001628,1.6282e+08,127.91,0,8.8722e+07,134.78,1091.8,1
3780,5.32,11998,1,11998,1,0.00050685,-3.1566e-11,0,0.00084323,-9.2463e-05,4.2304,-13.833,0,1.3677e+08,24.737,11997,13888,1,13888,1,0.0019707,5.9353e-09,0,0.0019707,0.00018029,1.4798e+08,495.2,0,3.8918e+08,1441.4,13887,11998,1,11998,1,0.00050685,-2.4924e-11,0,0.00075903,-9.2407e-05,8.453e+07,-3.5019,0,1.2027e+08,-5.8119,11997,10083,1,10083,1,-0.00095699,-3.769e-09,0,1.8901e-05,-0.00036544,-3.8918e+08,-1236.9,0,3.3577e+06,-30.388,10082,11053,1,11053,1,-0.00025218,-5.203e-10,0,0.00037951,-0.00023362,-1.0247e+08,-82.109,0,8.5259e+07,-13.656,11052,12943,1,12943,1,0.0012659,4.3502e-10,0,0.0012659,4.8616e-05,1.2027e+08,66.838,0,1.4431e+08,0.95751,12942,1091.8,0,1091.8,0,0.00087601,9.4088e-10,0,0.00055958,0.00016311,1.6313e+08,159.61,0,8.8889e+07,133.39,1091.8,1
3780,5.33,11998,1,11998,1,0.0005078,1.3938e-10,0,0.00084482,-9.2637e-05,1.6319,12.16,0,1.3702e+08,27.433,11997,13888,1,13888,1,0.0019744,6.7211e-09,0,0.0019744,0.00018062,1.4826e+08,547.34,0,3.8991e+08,1450.4,13887,11998,1,11998,1,0.0005078,5.3302e-11,0,0.00076045,-9.2581e-05,8.4688e+07,9.9215,0,1.205e+08,-4.8083,11997,10083,1,10083,1,-0.00095879,-3.3168e-09,0,1.8938e-05,-0.00036612,-3.8991e+08,-1130.9,0,3.3645e+06,-22.24,10082,11053,1,11053,1,-0.00025265,-2.6788e-10,0,0.00038023,-0.00023405,-1.0266e+08,-42.151,0,8.5418e+07,-10.641,11052,12943,1,12943,1,0.0012683,5.2703e-10,0,0.0012683,4.8707e-05,1.205e+08,79.316,0,1.4458e+08,1.4962,12942,1091.8,0,1091.8,0,0.00087765,8.1263e-10,0,0.00056063,0.00016342,1.6343e+08,135.51,0,8.9056e+07,134.99,1091.8,1
3780,5.34,11998,1,11998,1,0.00050876,-1.385e-10,0,0.0008464,-9.2811e-05,15.426,-29.37,0,1.3728e+08,26.316,11997,13888,1,13888,1,0.0019781,6.5076e-09,0,0.0019781,0.00018096,1.4854e+08,528.48,0,3.9064e+08,1447.9,13887,11998,1,11998,1,0.00050876,-6.6033e-11,0,0.00076188,-9.2755e-05,8.4847e+07,-11.052,0,1.2072e+08,-5.6175,11997,10083,1,10083,1,-0.00096059,-3.4096e-09,0,1.8975e-05,-0.00036681,-3.9064e+08,-1162.5,0,3.3714e+06,-26.359,10082,11053,1,11053,1,-0.00025312,-5.6869e-10,0,0.00038094,-0.00023449,-1.0285e+08,-90.519,0,8.5578e+07,-11.67,11052,12943,1,12943,1,0.0012706,2.3059e-10,0,0.0012706,4.8798e-05,1.2072e+08,36.592,0,1.4485e+08,0.23714,12942,1091.8,0,1091.8,0,0.0008793,8.1184e-10,0,0.00056168,0.00016373,1.6374e+08,135.36,0,8.9223e+07,135.04,1091.8,1
3780,5.35,11998,1,11998,1,0.00050972,-9.0434e-11,0,0.00084799,-9.2986e-05,18.51,-21.766,0,1.3754e+08,23.093,11997,13888,1,13888,1,0.0019818,5.9748e-09,0,0.0019818,0.0001813,1.4882e+08,498.68,0,3.9138e+08,1454.5,13887,11998,1,11998,1,0.00050971,-1.8623e-11,0,0.00076331,-9.2929e-05,8.5006e+07,-2.5053,0,1.2095e+08,-7.6709,11997,10083,1,10083,1,-0.00096239,-3.775e-09,0,1.9013e-05,-0.0003675,-3.9138e+08,-1239.8,0,3.3783e+06,-37.417,10082,11053,1,11053,1,-0.0002536,-6.7571e-10,0,0.00038166,-0.00023493,-1.0304e+08,-110.12,0,8.5738e+07,-16.089,11052,12943,1,12943,1,0.001273,4.4748e-10,0,0.001273,4.889e-05,1.2095e+08,69.513,0,1.4512e+08,0.012724,12942,1091.8,0,1091.8,0,0.00088095,1.0159e-09,0,0.00056274,0.00016403,1.6405e+08,167.86,0,8.939e+07,135.3,1091.8,1
3780,5.36,11998,1,11998,1,0.00051067,3.0132e-11,0,0.00084958,-9.316e-05,46.205,-3.6581,0,1.3779e+08,23.225,11997,13888,1,13888,1,0.0019855,6.1907e-09,0,0.0019855,0.00018164,1.491e+08,536.69,0,3.9211e+08,1454.8,13887,11998,1,11998,1,0.00051067,-1.4505e-12,0,0.00076474,-9.3103e-05,8.5165e+07,-0.19498,0,1.2118e+08,-7.7855,11997,10083,1,10083,1,-0.00096418,-3.5976e-09,0,1.905e-05,-0.00036819,-3.9211e+08,-1206.9,0,3.3852e+06,-34.95,10082,11053,1,11053,1,-0.00025407,-5.0236e-10,0,0.00038237,-0.00023537,-1.0324e+08,-81.21,0,8.5898e+07,-15.907,11052,12943,1,12943,1,0.0012754,4.9843e-10,0,0.0012754,4.8981e-05,1.2118e+08,75.806,0,1.4539e+08,-0.83941,12942,1091.8,0,1091.8,0,0.0008826,9.5994e-10,0,0.00056379,0.00016434,1.6435e+08,160.67,0,8.9557e+07,135.77,1091.8,1
3780,5.37,11998,1,11998,1,0.00051162,1.3772e-10,0,0.00085116,-9.3334e-05,8.9506,11.37,0,1.3805e+08,26.764,11997,13888,1,13888,1,0.0019892,6.573e-09,0,0.0019892,0.00018198,1.4937e+08,533.78,0,3.9284e+08,1457,13887,11998,1,11998,1,0.00051162,1.9935e-11,0,0.00076616,-9.3277e-05,8.5324e+07,4.2226,0,1.214e+08,-5.554,11997,10083,1,10083,1,-0.00096598,-3.3947e-09,0,1.9087e-05,-0.00036888,-3.9284e+08,-1157.4,0,3.392e+06,-24.998,10082,11053,1,11053,1,-0.00025454,-3.1388e-10,0,0.00038308,-0.00023581,-1.0343e+08,-50.229,0,8.6058e+07,-12.289,11052,12943,1,12943,1,0.0012778,5.5275e-10,0,0.0012778,4.9072e-05,1.214e+08,84.243,0,1.4566e+08,1.09,12942,1091.8,0,1091.8,0,0.00088424,8.6367e-10,0,0.00056484,0.00016465,1.6466e+08,144.26,0,8.9724e+07,136.1,1091.8,1
3780,5.38,11998,1,11998,1,0.00051258,-2.5342e-10,0,0.00085275,-9.3508e-05,4.8509,-47.013,0,1.3831e+08,26.621,11997,13888,1,13888,1,0.0019929,6.5293e-09,0,0.0019929,0.00018232,1.4965e+08,529.89,0,3.9357e+08,1469,13887,11998,1,11998,1,0.00051258,-1.8143e-10,0,0.00076759,-9.3451e-05,8.5483e+07,-30.642,0,1.2163e+08,-5.6408,11997,10083,1,10083,1,-0.00096778,-3.4254e-09,0,1.9125e-05,-0.00036956,-3.9357e+08,-1167.9,0,3.3989e+06,-35.295,10082,11053,1,11053,1,-0.00025501,-7.8104e-10,0,0.00038379,-0.00023625,-1.0362e+08,-119.8,0,8.6217e+07,-11.406,11052,12943,1,12943,1,0.0012802,1.3434e-10,0,0.0012802,4.9163e-05,1.2163e+08,22.812,0,1.4593e+08,0.37907,12942,1091.8,0,1091.8,0,0.00088589,8.7775e-10,0,0.00056589,0.00016495,1.6497e+08,143.56,0,8.9891e+07,137.66,1091.8,1
3780,5.39,11998,1,11998,1,0.00051353,-1.0441e-10,0,0.00085433,-9.3682e-05,-9.3611,-24.728,0,1.3856e+08,29.783,11997,13888,1,13888,1,0.0019966,7.0169e-09,0,0.0019966,0.00018266,1.4993e+08,573.15,0,3.943e+08,1467.3,13887,11998,1,11998,1,0.00051353,-9.4063e-11,0,0.00076901,-9.3625e-05,8.5642e+07,-14.633,0,1.2185e+08,-3.5289,11997,10083,1,10083,1,-0.00096957,-3.22e-09,0,1.9162e-05,-0.00037025,-3.943e+08,-1097.9,0,3.4057e+06,-25.705,10082,11053,1,11053,1,-0.00025548,-4.6353e-10,0,0.00038451,-0.00023669,-1.0381e+08,-71.303,0,8.6377e+07,-7.7216,11052,12943,1,12943,1,0.0012825,1.4071e-10,0,0.0012825,4.9254e-05,1.2185e+08,23.365,0,1.4621e+08,1.7068,12942,1091.8,0,1091.8,0,0.00088754,7.3207e-10,0,0.00056695,0.00016526,1.6527e+08,118.92,0,9.0057e+07,137.25,1091.8,1
3780,5.4,11998,1,11998,1,0.00051449,-5.6133e-11,0,0.00085592,-9.3856e-05,1.541,-17.008,0,1.3882e+08,25.748,11997,13888,1,13888,1,0.0020004,6.4324e-09,0,0.0020004,0.00018299,1.5021e+08,520.56,0,3.9503e+08,1467.9,13887,11998,1,11998,1,0.00051448,-5.5547e-11,0,0.00077044,-9.3799e-05,8.58e+07,-9.2921,0,1.2208e+08,-5.7761,11997,10083,1,10083,1,-0.00097137,-3.4513e-09,0,1.92e-05,-0.00037094,-3.9503e+08,-1176.8,0,3.4126e+06,-35.323,10082,11053,1,11053,1,-0.00025596,-4.9305e-10,0,0.00038522,-0.00023713,-1.04e+08,-76.9,0,8.6537e+07,-11.59,11052,12943,1,12943,1,0.0012849,2.8983e-10,0,0.0012849,4.9345e-05,1.2208e+08,45.376,0,1.4648e+08,0.27445,12942,1091.8,0,1091.8,0,0.00088918,8.4672e-10,0,0.000568,0.00016557,1.6558e+08,142.08,0,9.0224e+07,136.24,1091.8,1
3780,5.41,11998,1,11998,1,0.00051544,-1.1633e-10,0,0.0008575,-9.403e-05,1.4447,-26.35,0,1.3907e+08,29.401,11997,13888,1,13888,1,0.0020041,7.0455e-09,0,0.0020041,0.00018333,1.5049e+08,575.59,0,3.9576e+08,1471.8,13887,11998,1,11998,1,0.00051544,-9.9769e-11,0,0.00077187,-9.3973e-05,8.5959e+07,-15.52,0,1.223e+08,-3.7636,11997,10083,1,10083,1,-0.00097317,-3.2349e-09,0,1.9237e-05,-0.00037162,-3.9576e+08,-1103,0,3.4195e+06,-25.724,10082,11053,1,11053,1,-0.00025643,-5.4932e-10,0,0.00038593,-0.00023757,-1.042e+08,-83.854,0,8.6697e+07,-9.0344,11052,12943,1,12943,1,0.0012873,1.8194e-10,0,0.0012873,4.9436e-05,1.223e+08,29.183,0,1.4675e+08,1.9448,12942,1091.8,0,1091.8,0,0.00089083,7.7611e-10,0,0.00056905,0.00016587,1.6588e+08,124.91,0,9.0391e+07,137.84,1091.8,1
3780,5.42,11998,1,11998,1,0.0005164,3.1517e-11,0,0.00085909,-9.4205e-05,-1.141,-4.7388,0,1.3933e+08,25.493,11997,13888,1,13888,1,0.0020078,6.6552e-09,0,0.0020078,0.00018367,1.5077e+08,540.71,0,3.9649e+08,1503.2,13887,11998,1,11998,1,0.0005164,2.6974e-12,0,0.0007733,-9.4148e-05,8.6118e+07,0.47013,0,1.2253e+08,-7.342,11997,10083,1,10083,1,-0.00097497,-3.4144e-09,0,1.9274e-05,-0.00037231,-3.9649e+08,-1164.2,0,3.4264e+06,-50.347,10082,11053,1,11053,1,-0.0002569,-6.3114e-10,0,0.00038665,-0.00023801,-1.0439e+08,-106.12,0,8.6857e+07,-16.334,11052,12943,1,12943,1,0.0012897,6.7655e-10,0,0.0012897,4.9527e-05,1.2253e+08,106.12,0,1.4702e+08,4.1944,12942,1091.8,0,1091.8,0,0.00089248,1.0985e-09,0,0.00057011,0.00016618,1.6619e+08,172.63,0,9.0558e+07,142.11,1091.8,1
3780,5.43,11998,1,11998,1,0.00051735,4.6588e-11,0,0.00086068,-9.4379e-05,-5.7188,-1.7417,0,1.3959e+08,26.698,11997,13888,1,13888,1,0.0020115,6.731e-09,0,0.0020115,0.00018401,1.5105e+08,547.31,0,3.9722e+08,1491.1,13887,11998,1,11998,1,0.00051735,8.1793e-12,0,0.00077472,-9.4321e-05,8.6277e+07,1.3187,0,1.2276e+08,-6.1169,11997,10083,1,10083,1,-0.00097677,-3.3772e-09,0,1.9312e-05,-0.000373,-3.9722e+08,-1151.5,0,3.4333e+06,-46.264,10082,11053,1,11053,1,-0.00025737,-5.8531e-10,0,0.00038736,-0.00023845,-1.0458e+08,-100.87,0,8.7016e+07,-14.79,11052,12943,1,12943,1,0.0012921,6.3391e-10,0,0.0012921,4.9618e-05,1.2276e+08,98.905,0,1.4729e+08,4.5383,12942,1091.8,0,1091.8,0,0.00089412,1.0407e-09,0,0.00057116,0.00016649,1.665e+08,164.55,0,9.0725e+07,140.57,1091.8,1
3780,5.44,11998,1,11998,1,0.00051831,3.3435e-11,0,0.00086226,-9.4553e-05,0.85561,-3.3928,0,1.3984e+08,28.634,11997,13888,1,13888,1,0.0020152,7.1044e-09,0,0.0020152,0.00018435,1.5132e+08,580.28,0,3.9795e+08,1475.1,13887,11998,1,11998,1,0.0005183,-2.1376e-11,0,0.00077615,-9.4495e-05,8.6436e+07,-3.1141,0,1.2298e+08,-4.0714,11997,10083,1,10083,1,-0.00097856,-3.2277e-09,0,1.9349e-05,-0.00037369,-3.9795e+08,-1100.5,0,3.4402e+06,-30.218,10082,11053,1,11053,1,-0.00025784,-3.8457e-10,0,0.00038808,-0.00023889,-1.0477e+08,-59.67,0,8.7176e+07,-8.6386,11052,12943,1,12943,1,0.0012945,3.1449e-10,0,0.0012945,4.9709e-05,1.2298e+08,48.222,0,1.4756e+08,1.0109,12942,1091.8,0,1091.8,0,0.00089577,7.9201e-10,0,0.00057221,0.00016679,1.668e+08,128.41,0,9.0892e+07,137.71,1091.8,1
3780,5.45,11998,1,11998,1,0.00051926,-2.417e-11,0,0.00086385,-9.4727e-05,1.3494,-12.451,0,1.401e+08,29.71,11997,13888,1,13888,1,0.0020189,7.1897e-09,0,0.0020189,0.00018469,1.516e+08,587.87,0,3.9868e+08,1481.8,13887,11998,1,11998,1,0.00051926,-4.4477e-11,0,0.00077758,-9.467e-05,8.6595e+07,-7.4541,0,1.2321e+08,-3.8642,11997,10083,1,10083,1,-0.00098036,-3.2131e-09,0,1.9387e-05,-0.00037437,-3.9868e+08,-1095.5,0,3.4471e+06,-25.299,10082,11053,1,11053,1,-0.00025832,-3.8061e-10,0,0.00038879,-0.00023933,-1.0496e+08,-58.572,0,8.7336e+07,-8.0809,11052,12943,1,12943,1,0.0012968,2.1597e-10,0,0.0012968,4.98e-05,1.2321e+08,33.758,0,1.4783e+08,1.2307,12942,1091.8,0,1091.8,0,0.00089742,7.3543e-10,0,0.00057326,0.0001671,1.6711e+08,118.83,0,9.1059e+07,138.38,1091.8,1
3780,5.46,11998,1,11998,1,0.00052022,1.4918e-11,0,0.00086544,-9.4901e-05,3.3348,-6.0251,0,1.4036e+08,27.365,11997,13888,1,13888,1,0.0020226,6.8818e-09,0,0.0020226,0.00018503,1.5188e+08,560.59,0,3.9942e+08,1494,13887,11998,1,11998,1,0.00052021,4.2552e-12,0,0.000779,-9.4844e-05,8.6754e+07,0.40084,0,1.2343e+08,-5.3636,11997,10083,1,10083,1,-0.00098216,-3.3653e-09,0,1.9424e-05,-0.00037506,-3.9942e+08,-1147.4,0,3.454e+06,-35.904,10082,11053,1,11053,1,-0.00025879,-5.2484e-10,0,0.0003895,-0.00023977,-1.0515e+08,-88.176,0,8.7495e+07,-13.589,11052,12943,1,12943,1,0.0012992,4.9089e-10,0,0.0012992,4.9891e-05,1.2343e+08,75.464,0,1.4811e+08,2.326,12942,1091.8,0,1091.8,0,0.00089907,9.4243e-10,0,0.00057432,0.00016741,1.6742e+08,151.86,0,9.1226e+07,140.32,1091.8,1
3780,5.47,11998,1,11998,1,0.00052117,5.7675e-11,0,0.00086702,-9.5076e-05,-2.3935,-0.26966,0,1.4061e+08,26.895,11997,13888,1,13888,1,0.0020263,6.868e-09,0,0.0020263,0.00018537,1.5216e+08,559.03,0,4.0015e+08,1503.5,13887,11998,1,11998,1,0.00052117,3.039e-12,0,0.00078043,-9.5018e-05,8.6913e+07,0.45667,0,1.2366e+08,-6.3068,11997,10083,1,10083,1,-0.00098395,-3.3686e-09,0,1.9462e-05,-0.00037575,-4.0015e+08,-1148.6,0,3.4609e+06,-43.48,10082,11053,1,11053,1,-0.00025926,-5.6247e-10,0,0.00039022,-0.00024021,-1.0535e+08,-96.288,0,8.7655e+07,-15.235,11052,12943,1,12943,1,0.0013016,6.2583e-10,0,0.0013016,4.9982e-05,1.2366e+08,97.714,0,1.4838e+08,4.3906,12942,1091.8,0,1091.8,0,0.00090071,1.0326e-09,0,0.00057537,0.00016771,1.6772e+08,162.92,0,9.1393e+07,141.58,1091.8,1
3780,5.48,11998,1,11998,1,0.00052213,-4.148e-10,0,0.00086861,-9.5251e-05,3.5101,-71.29,0,1.4087e+08,23.28,11997,13888,1,13888,1,0.00203,5.6162e-09,0,0.00203,0.00018571,1.5244e+08,563.13,0,4.0088e+08,1494.5,13887,11998,1,11998,1,0.00052213,-2.8429e-10,0,0.00078186,-9.5192e-05,8.7072e+07,-48.436,0,1.2388e+08,-7.3663,11997,10083,1,10083,1,-0.00098576,-4.2429e-09,0,1.9499e-05,-0.00037644,-4.0088e+08,-1328.4,0,3.4679e+06,-46.315,10082,11053,1,11053,1,-0.00025973,-1.2428e-09,0,0.00039093,-0.00024065,-1.0554e+08,-189.45,0,8.7815e+07,-17.958,11052,12943,1,12943,1,0.001304,2.3503e-10,0,0.001304,5.0073e-05,1.2388e+08,39.415,0,1.4865e+08,1.7267,12942,1091.8,0,1091.8,0,0.00090237,1.2165e-09,0,0.00057643,0.00016802,1.6803e+08,196.77,0,9.156e+07,139.7,1091.8,1
3780,5.49,11998,1,11998,1,0.00052308,-3.2326e-10,0,0.0008702,-9.5424e-05,10.881,-57.173,0,1.4113e+08,27.611,11997,13888,1,13888,1,0.0020337,6.5815e-09,0,0.0020337,0.00018604,1.5272e+08,533.61,0,4.0161e+08,1496.2,13887,11998,1,11998,1,0.00052308,-2.1221e-10,0,0.00078329,-9.5366e-05,8.723e+07,-35.054,0,1.2411e+08,-5.3151,11997,10083,1,10083,1,-0.00098755,-3.529e-09,0,1.9537e-05,-0.00037712,-4.0161e+08,-1203.2,0,3.4748e+06,-30.794,10082,11053,1,11053,1,-0.00026021,-8.8445e-10,0,0.00039164,-0.00024109,-1.0573e+08,-135.2,0,8.7975e+07,-12.388,11052,12943,1,12943,1,0.0013064,1.123e-10,0,0.0013064,5.0164e-05,1.2411e+08,17.544,0,1.4892e+08,1.6019,12942,1091.8,0,1091.8,0,0.00090401,9.032e-10,0,0.00057747,0.00016833,1.6833e+08,147.64,0,9.1727e+07,140.06,1091.8,1
3780,5.5,11998,1,11998,1,0.00052404,-1.7567e-10,0,0.00087178,-9.5598e-05,2.8201,-35.606,0,1.4138e+08,28.863,11997,13888,1,13888,1,0.0020374,6.6728e-09,0,0.0020374,0.00018638,1.5299e+08,541.57,0,4.0234e+08,1503.6,13887,11998,1,11998,1,0.00052403,-1.039e-10,0,0.00078471,-9.554e-05,8.7389e+07,-17.57,0,1.2434e+08,-4.5558,11997,10083,1,10083,1,-0.00098934,-3.5186e-09,0,1.9574e-05,-0.00037781,-4.0234e+08,-1199.7,0,3.4817e+06,-26.676,10082,11053,1,11053,1,-0.00026068,-6.1127e-10,0,0.00039236,-0.00024153,-1.0592e+08,-96.76,0,8.8134e+07,-10.705,11052,12943,1,12943,1,0.0013088,2.0043e-10,0,0.0013088,5.0255e-05,1.2434e+08,31.577,0,1.4919e+08,1.4146,12942,1091.8,0,1091.8,0,0.00090565,8.4029e-10,0,0.00057853,0.00016863,1.6864e+08,140.74,0,9.1893e+07,140.65,1091.8,1
3780,5.51,11998,1,11998,1,0.00052499,-2.6007e-10,0,0.00087337,-9.5772e-05,10.312,-47.687,0,1.4164e+08,28.021,11997,13888,1,13888,1,0.0020411,6.9088e-09,0,0.0020411,0.00018672,1.5327e+08,562.64,0,4.0307e+08,1516,13887,11998,1,11998,1,0.00052499,-1.4434e-10,0,0.00078614,-9.5714e-05,8.7548e+07,-24.202,0,1.2456e+08,-5.5349,11997,10083,1,10083,1,-0.00099114,-3.4212e-09,0,1.9612e-05,-0.0003785,-4.0307e+08,-1166.5,0,3.4886e+06,-40.888,10082,11053,1,11053,1,-0.00026115,-8.7756e-10,0,0.00039307,-0.00024197,-1.0611e+08,-141.73,0,8.8294e+07,-14.668,11052,12943,1,12943,1,0.0013111,2.5235e-10,0,0.0013111,5.0346e-05,1.2456e+08,41.301,0,1.4946e+08,4.2302,12942,1091.8,0,1091.8,0,0.0009073,1.0053e-09,0,0.00057958,0.00016894,1.6895e+08,158.51,0,9.206e+07,143.42,1091.8,1
3780,5.52,11998,1,11998,1,0.00052595,-1.4675e-10,0,0.00087495,-9.5947e-05,6.9988,-30.925,0,1.419e+08,29.116,11997,13888,1,13888,1,0.0020448,7.0847e-09,0,0.0020448,0.00018706,1.5355e+08,578.1,0,4.038e+08,1512.4,13887,11998,1,11998,1,0.00052594,-1.1932e-10,0,0.00078757,-9.5888e-05,8.7707e+07,-18.815,0,1.2479e+08,-4.408,11997,10083,1,10083,1,-0.00099294,-3.3601e-09,0,1.9649e-05,-0.00037919,-4.038e+08,-1145.7,0,3.4955e+06,-32.49,10082,11053,1,11053,1,-0.00026162,-6.3836e-10,0,0.00039378,-0.00024241,-1.0631e+08,-99.665,0,8.8454e+07,-10.534,11052,12943,1,12943,1,0.0013135,2.0916e-10,0,0.0013135,5.0437e-05,1.2479e+08,33.362,0,1.4974e+08,1.3563,12942,1091.8,0,1091.8,0,0.00090895,8.6653e-10,0,0.00058063,0.00016925,1.6925e+08,139.87,0,9.2227e+07,142.14,1091.8,1
3780,5.53,11998,1,11998,1,0.0005269,-2.4958e-11,0,0.00087654,-9.6121e-05,-0.28366,-12.883,0,1.4215e+08,27.323,11997,13888,1,13888,1,0.0020485,6.7319e-09,0,0.0020485,0.0001874,1.5383e+08,546.5,0,4.0453e+08,1523.5,13887,11998,1,11998,1,0.0005269,-1.5617e-11,0,0.00078899,-9.6062e-05,8.7866e+07,-1.3507,0,1.2501e+08,-5.8283,11997,10083,1,10083,1,-0.00099474,-3.5158e-09,0,1.9687e-05,-0.00037987,-4.0453e+08,-1198.7,0,3.5024e+06,-40.979,10082,11053,1,11053,1,-0.00026209,-6.4043e-10,0,0.0003945,-0.00024285,-1.065e+08,-106.88,0,8.8614e+07,-14.791,11052,12943,1,12943,1,0.0013159,5.551e-10,0,0.0013159,5.0528e-05,1.2501e+08,84.972,0,1.5001e+08,2.9264,12942,1091.8,0,1091.8,0,0.0009106,1.0452e-09,0,0.00058169,0.00016955,1.6956e+08,168.22,0,9.2394e+07,143.57,1091.8,1
3780,5.54,11998,1,11998,1,0.00052786,1.4787e-10,0,0.00087812,-9.6295e-05,10.65,12.999,0,1.4241e+08,30.168,11997,13888,1,13888,1,0.0020522,7.5157e-09,0,0.0020522,0.00018773,1.5411e+08,618,0,4.0526e+08,1508.7,13887,11998,1,11998,1,0.00052785,3.0783e-11,0,0.00079042,-9.6236e-05,8.8025e+07,6.4912,0,1.2524e+08,-4.3074,11997,10083,1,10083,1,-0.00099653,-3.1959e-09,0,1.9725e-05,-0.00038056,-4.0526e+08,-1089.7,0,3.5094e+06,-21.591,10082,11053,1,11053,1,-0.00026257,-2.1778e-10,0,0.00039521,-0.00024329,-1.0669e+08,-34.411,0,8.8773e+07,-9.3284,11052,12943,1,12943,1,0.0013183,4.4051e-10,0,0.0013183,5.0619e-05,1.2524e+08,66.145,0,1.5028e+08,1.0498,12942,1091.8,0,1091.8,0,0.00091224,7.6736e-10,0,0.00058274,0.00016986,1.6986e+08,123.2,0,9.2561e+07,141.51,1091.8,1
3780,5.55,11998,1,11998,1,0.00052881,-1.3005e-10,0,0.00087971,-9.6469e-05,16.079,-28.699,0,1.4267e+08,28.007,11997,13888,1,13888,1,0.002056,6.9972e-09,0,0.002056,0.00018807,1.5439e+08,570.08,0,4.0599e+08,1517.2,13887,11998,1,11998,1,0.00052881,-9.1743e-11,0,0.00079185,-9.641e-05,8.8184e+07,-15.796,0,1.2546e+08,-5.7191,11997,10083,1,10083,1,-0.00099833,-3.4267e-09,0,1.9762e-05,-0.00038125,-4.0599e+08,-1168.3,0,3.5163e+06,-30.429,10082,11053,1,11053,1,-0.00026304,-6.3962e-10,0,0.00039592,-0.00024373,-1.0688e+08,-100.63,0,8.8933e+07,-12.976,11052,12943,1,12943,1,0.0013207,2.7382e-10,0,0.0013207,5.071e-05,1.2546e+08,41.865,0,1.5055e+08,0.87045,12942,1091.8,0,1091.8,0,0.00091389,8.9144e-10,0,0.00058379,0.00017017,1.7017e+08,144.6,0,9.2728e+07,142.8,1091.8,1
3780,5.56,11998,1,11998,1,0.00052977,-2.4675e-10,0,0.0008813,-9.6644e-05,26.789,-46.642,0,1.4292e+08,25.899,11997,13888,1,13888,1,0.0020597,6.3906e-09,0,0.0020597,0.00018841,1.5466e+08,531.54,0,4.0673e+08,1512.3,13887,11998,1,11998,1,0.00052976,-1.8662e-10,0,0.00079328,-9.6585e-05,8.8343e+07,-30.101,0,1.2569e+08,-6.8321,11997,10083,1,10083,1,-0.0010001,-3.7554e-09,0,1.98e-05,-0.00038194,-4.0673e+08,-1260.1,0,3.5233e+06,-36.585,10082,11053,1,11053,1,-0.00026351,-8.9663e-10,0,0.00039664,-0.00024417,-1.0707e+08,-141.25,0,8.9093e+07,-15.325,11052,12943,1,12943,1,0.001323,2.809e-10,0,0.001323,5.0801e-05,1.2569e+08,41.617,0,1.5082e+08,0.55465,12942,1091.8,0,1091.8,0,0.00091554,1.0452e-09,0,0.00058485,0.00017047,1.7048e+08,172.36,0,9.2895e+07,142,1091.8,1
3780,5.57,11998,1,11998,1,0.00053072,-2.4115e-10,0,0.00088288,-9.6818e-05,8.0948,-45.533,0,1.4318e+08,27.423,11997,13888,1,13888,1,0.0020634,6.6177e-09,0,0.0020634,0.00018875,1.5494e+08,535.98,0,4.0746e+08,1528.1,13887,11998,1,11998,1,0.00053072,-1.4171e-10,0,0.0007947,-9.6759e-05,8.8502e+07,-24.106,0,1.2591e+08,-6.0496,11997,10083,1,10083,1,-0.0010019,-3.6044e-09,0,1.9837e-05,-0.00038262,-4.0746e+08,-1228.9,0,3.5302e+06,-32.65,10082,11053,1,11053,1,-0.00026398,-8.5706e-10,0,0.00039735,-0.0002446,-1.0726e+08,-136.74,0,8.9252e+07,-14.748,11052,12943,1,12943,1,0.0013254,2.8756e-10,0,0.0013254,5.0892e-05,1.2591e+08,46.008,0,1.5109e+08,1.9625,12942,1091.8,0,1091.8,0,0.00091718,1.0108e-09,0,0.0005859,0.00017078,1.7078e+08,164.17,0,9.3062e+07,143.75,1091.8,1
3780,5.58,11998,1,11998,1,0.00053168,-8.5224e-11,0,0.00088447,-9.6992e-05,20.144,-21.993,0,1.4344e+08,27.076,11997,13888,1,13888,1,0.0020671,7.0391e-09,0,0.0020671,0.00018909,1.5522e+08,573.3,0,4.0819e+08,1529.7,13887,11998,1,11998,1,0.00053167,-8.3403e-11,0,0.00079613,-9.6933e-05,8.866e+07,-14.563,0,1.2614e+08,-6.5032,11997,10083,1,10083,1,-0.0010037,-3.4468e-09,0,1.9875e-05,-0.00038331,-4.0819e+08,-1175.2,0,3.5372e+06,-37.544,10082,11053,1,11053,1,-0.00026445,-6.1857e-10,0,0.00039807,-0.00024504,-1.0746e+08,-97.382,0,8.9412e+07,-13.348,11052,12943,1,12943,1,0.0013278,3.2031e-10,0,0.0013278,5.0983e-05,1.2614e+08,49.097,0,1.5136e+08,0.23041,12942,1091.8,0,1091.8,0,0.00091883,9.3263e-10,0,0.00058695,0.00017109,1.7109e+08,151.03,0,9.3229e+07,143.84,1091.8,1
3780,5.59,11998,1,11998,1,0.00053263,-1.567e-10,0,0.00088606,-9.7166e-05,32.848,-33.011,0,1.4369e+08,27.711,11997,13888,1,13888,1,0.0020708,7.0709e-09,0,0.0020708,0.00018943,1.555e+08,576.45,0,4.0892e+08,1523.4,13887,11998,1,11998,1,0.00053263,-1.2806e-10,0,0.00079756,-9.7107e-05,8.8819e+07,-20.953,0,1.2637e+08,-6.2961,11997,10083,1,10083,1,-0.0010055,-3.438e-09,0,1.9913e-05,-0.000384,-4.0892e+08,-1172.2,0,3.5441e+06,-31.167,10082,11053,1,11053,1,-0.00026493,-7.205e-10,0,0.00039878,-0.00024548,-1.0765e+08,-112.63,0,8.9572e+07,-14.261,11052,12943,1,12943,1,0.0013302,2.8363e-10,0,0.0013302,5.1074e-05,1.2637e+08,42.176,0,1.5164e+08,0.43918,12942,1091.8,0,1091.8,0,0.00092048,9.329e-10,0,0.000588,0.00017139,1.7139e+08,150.77,0,9.3395e+07,143.73,1091.8,1
3780,5.6,11998,1,11998,1,0.00053359,-1.3086e-10,0,0.00088764,-9.734e-05,14.449,-28.797,0,1.4395e+08,27.726,11997,13888,1,13888,1,0.0020745,6.9677e-09,0,0.0020745,0.00018977,1.5578e+08,566.97,0,4.0965e+08,1534.9,13887,11998,1,11998,1,0.00053358,-6.9704e-11,0,0.00079898,-9.7281e-05,8.8978e+07,-12.61,0,1.2659e+08,-5.903,11997,10083,1,10083,1,-0.0010073,-3.4898e-09,0,1.995e-05,-0.00038469,-4.0965e+08,-1189.9,0,3.551e+06,-37.803,10082,11053,1,11053,1,-0.0002654,-7.3264e-10,0,0.00039949,-0.00024592,-1.0784e+08,-119,0,8.9731e+07,-15.22,11052,12943,1,12943,1,0.0013326,3.9264e-10,0,0.0013326,5.1165e-05,1.2659e+08,60.983,0,1.5191e+08,2.5822,12942,1091.8,0,1091.8,0,0.00092212,1.0101e-09,0,0.00058905,0.0001717,1.717e+08,161.55,0,9.3562e+07,144.62,1091.8,1
3780,5.61,11998,1,11998,1,0.00053454,-2.4434e-10,0,0.00088923,-9.7515e-05,19.744,-46.438,0,1.4421e+08,26.718,11997,13888,1,13888,1,0.0020782,6.5629e-09,0,0.0020782,0.00019011,1.5606e+08,530.9,0,4.1038e+08,1531.5,13887,11998,1,11998,1,0.00053454,-1.5063e-10,0,0.00080041,-9.7455e-05,8.9137e+07,-25.617,0,1.2682e+08,-6.4827,11997,10083,1,10083,1,-0.0010091,-3.6822e-09,0,1.9988e-05,-0.00038537,-4.1038e+08,-1251.7,0,3.558e+06,-34.115,10082,11053,1,11053,1,-0.00026587,-9.0288e-10,0,0.00040021,-0.00024636,-1.0803e+08,-143.28,0,8.9891e+07,-15.936,11052,12943,1,12943,1,0.001335,3.1937e-10,0,0.001335,5.1256e-05,1.2682e+08,48.519,0,1.5218e+08,1.7192,12942,1091.8,0,1091.8,0,0.00092377,1.0538e-09,0,0.00059011,0.00017201,1.7201e+08,171.59,0,9.3729e+07,144.03,1091.8,1
3780,5.62,11998,1,11998,1,0.0005355,-3.2339e-10,0,0.00089081,-9.7689e-05,1.0434,-57.85,0,1.4446e+08,31.909,11997,13888,1,13888,1,0.0020819,7.2618e-09,0,0.0020819,0.00019044,1.5633e+08,593.23,0,4.1111e+08,1538.3,13887,11998,1,11998,1,0.00053549,-2.5826e-10,0,0.00080184,-9.7629e-05,8.9296e+07,-40.023,0,1.2704e+08,-2.8332,11997,10083,1,10083,1,-0.0010109,-3.418e-09,0,2.0025e-05,-0.00038606,-4.1111e+08,-1165.3,0,3.565e+06,-26.312,10082,11053,1,11053,1,-0.00026634,-8.7887e-10,0,0.00040092,-0.0002468,-1.0822e+08,-134.31,0,9.0051e+07,-9.592,11052,12943,1,12943,1,0.0013373,6.9054e-11,0,0.0013373,5.1347e-05,1.2704e+08,11.321,0,1.5245e+08,3.376,12942,1091.8,0,1091.8,0,0.00092542,8.7639e-10,0,0.00059116,0.00017231,1.7231e+08,138.9,0,9.3896e+07,145.04,1091.8,1
3780,5.63,11998,1,11998,1,0.00053645,-2.3296e-10,0,0.0008924,-9.7863e-05,1.275,-43.977,0,1.4472e+08,28.404,11997,13888,1,13888,1,0.0020856,6.7068e-09,0,0.0020856,0.00019078,1.5661e+08,543.39,0,4.1184e+08,1537.1,13887,11998,1,11998,1,0.00053645,-2.0852e-10,0,0.00080327,-9.7804e-05,8.9455e+07,-34.018,0,1.2727e+08,-4.6491,11997,10083,1,10083,1,-0.0010127,-3.6453e-09,0,2.0063e-05,-0.00038675,-4.1184e+08,-1242.8,0,3.5719e+06,-39.458,10082,11053,1,11053,1,-0.00026682,-8.9319e-10,0,0.00040163,-0.00024724,-1.0842e+08,-134.09,0,9.0211e+07,-11.686,11052,12943,1,12943,1,0.0013397,2.2753e-10,0,0.0013397,5.1439e-05,1.2727e+08,35.453,0,1.5272e+08,2.0223,12942,1091.8,0,1091.8,0,0.00092707,1.0117e-09,0,0.00059222,0.00017262,1.7262e+08,165.45,0,9.4063e+07,143.93,1091.8,1
3780,5.64,11998,1,11998,1,0.00053741,-2.2879e-10,0,0.00089399,-9.8038e-05,-2.1123,-43.575,0,1.4498e+08,25.953,11997,13888,1,13888,1,0.0020893,6.3265e-09,0,0.0020893,0.00019112,1.5689e+08,597.24,0,4.1257e+08,1564.6,13887,11998,1,11998,1,0.00053741,-1.0641e-10,0,0.00080469,-9.7978e-05,8.9614e+07,-19.543,0,1.2749e+08,-6.971,11997,10083,1,10083,1,-0.0010145,-3.9667e-09,0,2.0101e-05,-0.00038744,-4.1257e+08,-1309.3,0,3.5788e+06,-56.4,10082,11053,1,11053,1,-0.00026729,-1.0961e-09,0,0.00040235,-0.00024768,-1.0861e+08,-180.79,0,9.0371e+07,-20.115,11052,12943,1,12943,1,0.0013421,5.7986e-10,0,0.0013421,5.153e-05,1.2749e+08,89.379,0,1.5299e+08,4.8308,12942,1091.8,0,1091.8,0,0.00092872,1.3687e-09,0,0.00059327,0.00017293,1.7293e+08,216.35,0,9.423e+07,148.34,1091.8,1
3780,5.65,11998,1,11998,1,0.00053836,-1.008e-10,0,0.00089557,-9.8212e-05,0.78782,-24.775,0,1.4523e+08,29.386,11997,13888,1,13888,1,0.002093,6.9739e-09,0,0.002093,0.00019146,1.5717e+08,566.9,0,4.133e+08,1545.6,13887,11998,1,11998,1,0.00053836,-1.0059e-10,0,0.00080612,-9.8152e-05,8.9773e+07,-16.962,0,1.2772e+08,-4.5726,11997,10083,1,10083,1,-0.0010163,-3.5703e-09,0,2.0138e-05,-0.00038812,-4.133e+08,-1217.3,0,3.5859e+06,-33.982,10082,11053,1,11053,1,-0.00026776,-5.9721e-10,0,0.00040306,-0.00024812,-1.088e+08,-93.995,0,9.053e+07,-10.924,11052,12943,1,12943,1,0.0013445,2.9469e-10,0,0.0013445,5.1621e-05,1.2772e+08,43.601,0,1.5326e+08,1.5018,12942,1091.8,0,1091.8,0,0.00093036,9.1846e-10,0,0.00059432,0.00017323,1.7323e+08,152.2,0,9.4397e+07,144.79,1091.8,1
3780,5.66,11998,1,11998,1,0.00053932,9.0821e-12,0,0.00089716,-9.8386e-05,0.16988,-7.1305,0,1.4549e+08,31.067,11997,13888,1,13888,1,0.0020967,7.6916e-09,0,0.0020967,0.0001918,1.5745e+08,633.04,0,4.1403e+08,1552,13887,11998,1,11998,1,0.00053931,-1.0686e-11,0,0.00080755,-9.8326e-05,8.9931e+07,-1.4324,0,1.2795e+08,-3.8612,11997,10083,1,10083,1,-0.0010181,-3.2582e-09,0,2.0176e-05,-0.00038881,-4.1403e+08,-1110.9,0,3.5928e+06,-37.488,10082,11053,1,11053,1,-0.00026823,-5.4606e-10,0,0.00040377,-0.00024856,-1.0899e+08,-90.721,0,9.069e+07,-12.404,11052,12943,1,12943,1,0.0013469,4.3604e-10,0,0.0013469,5.1712e-05,1.2795e+08,66.476,0,1.5354e+08,6.0098,12942,1091.8,0,1091.8,0,0.00093201,9.5605e-10,0,0.00059537,0.00017354,1.7354e+08,148.06,0,9.4564e+07,146.77,1091.8,1
3780,5.67,11998,1,11998,1,0.00054027,-2.6634e-10,0,0.00089875,-9.856e-05,4.2777,-50.573,0,1.4575e+08,26.614,11997,13888,1,13888,1,0.0021005,6.4556e-09,0,0.0021005,0.00019214,1.5773e+08,553.61,0,4.1477e+08,1564.2,13887,11998,1,11998,1,0.00054027,-1.61e-10,0,0.00080897,-9.85e-05,9.0091e+07,-29.842,0,1.2817e+08,-6.8836,11997,10083,1,10083,1,-0.0010199,-3.9084e-09,0,2.0214e-05,-0.0003895,-4.1477e+08,-1300.3,0,3.5998e+06,-44.841,10082,11053,1,11053,1,-0.0002687,-1.074e-09,0,0.00040449,-0.000249,-1.0918e+08,-176.7,0,9.085e+07,-18.553,11052,12943,1,12943,1,0.0013493,4.6497e-10,0,0.0013493,5.1803e-05,1.2817e+08,73.541,0,1.5381e+08,3.6437,12942,1091.8,0,1091.8,0,0.00093366,1.2675e-09,0,0.00059643,0.00017385,1.7384e+08,201.81,0,9.4731e+07,148.22,1091.8,1
3780,5.68,11998,1,11998,1,0.00054123,-3.1522e-10,0,0.00090033,-9.8735e-05,7.6802,-56.135,0,1.46e+08,27.38,11997,13888,1,13888,1,0.0021042,6.6457e-09,0,0.0021042,0.00019248,1.5801e+08,537.42,0,4.155e+08,1548.6,13887,11998,1,11998,1,0.00054123,-2.6236e-10,0,0.0008104,-9.8674e-05,9.0249e+07,-43.193,0,1.284e+08,-5.4738,11997,10083,1,10083,1,-0.0010217,-3.7465e-09,0,2.0252e-05,-0.00039019,-4.155e+08,-1272.5,0,3.6068e+06,-44.404,10082,11053,1,11053,1,-0.00026917,-1.0013e-09,0,0.0004052,-0.00024944,-1.0937e+08,-149.88,0,9.1009e+07,-12.879,11052,12943,1,12943,1,0.0013516,1.5886e-10,0,0.0013516,5.1894e-05,1.284e+08,26.654,0,1.5408e+08,1.0936,12942,1091.8,0,1091.8,0,0.0009353,1.0487e-09,0,0.00059748,0.00017415,1.7415e+08,171.34,0,9.4898e+07,145.11,1091.8,1
3780,5.69,11998,1,11998,1,0.00054218,-2.0669e-10,0,0.00090192,-9.8909e-05,2.8586,-40.645,0,1.4626e+08,29.203,11997,13888,1,13888,1,0.0021079,6.8969e-09,0,0.0021079,0.00019281,1.5828e+08,559.75,0,4.1623e+08,1551,13887,11998,1,11998,1,0.00054218,-1.5443e-10,0,0.00081183,-9.8848e-05,9.0408e+07,-25.001,0,1.2862e+08,-4.7212,11997,10083,1,10083,1,-0.0010235,-3.6486e-09,0,2.0289e-05,-0.00039087,-4.1623e+08,-1244,0,3.6138e+06,-32.644,10082,11053,1,11053,1,-0.00026965,-7.9194e-10,0,0.00040591,-0.00024988,-1.0957e+08,-124.17,0,9.1169e+07,-12.293,11052,12943,1,12943,1,0.001354,2.5694e-10,0,0.001354,5.1985e-05,1.2862e+08,38.967,0,1.5435e+08,1.9059,12942,1091.8,0,1091.8,0,0.00093695,9.7149e-10,0,0.00059853,0.00017446,1.7446e+08,159.61,0,9.5064e+07,145.27,1091.8,1
3780,5.7,11998,1,11998,1,0.00054314,-1.7676e-10,0,0.0009035,-9.9083e-05,16.461,-35.682,0,1.4652e+08,27.432,11997,13888,1,13888,1,0.0021116,6.8413e-09,0,0.0021116,0.00019315,1.5856e+08,554.58,0,4.1696e+08,1552.4,13887,11998,1,11998,1,0.00054314,-1.5635e-10,0,0.00081325,-9.9023e-05,9.0567e+07,-24.921,0,1.2885e+08,-6.1109,11997,10083,1,10083,1,-0.0010253,-3.6747e-09,0,2.0327e-05,-0.00039156,-4.1696e+08,-1252.9,0,3.6208e+06,-38.71,10082,11053,1,11053,1,-0.00027012,-7.4795e-10,0,0.00040663,-0.00025032,-1.0976e+08,-115.94,0,9.1328e+07,-12.809,11052,12943,1,12943,1,0.0013564,2.5451e-10,0,0.0013564,5.2076e-05,1.2885e+08,39.512,0,1.5462e+08,0.29452,12942,1091.8,0,1091.8,0,0.0009386,9.6181e-10,0,0.00059958,0.00017477,1.7476e+08,159.53,0,9.5231e+07,145.07,1091.8,1
3780,5.71,11998,1,11998,1,0.0005441,-1.4956e-10,0,0.0009051,-9.9258e-05,-2.0682,-32.745,0,1.4677e+08,19.667,11997,13888,1,13888,1,0.0021153,4.5318e-09,0,0.0021153,0.00019349,1.5884e+08,644.1,0,4.1769e+08,1580.5,13887,11998,1,11998,1,0.00054409,2.4839e-11,0,0.00081469,-9.9197e-05,9.0727e+07,5.5119,0,1.2907e+08,-10.036,11997,10083,1,10083,1,-0.0010271,-5.3965e-09,0,2.0365e-05,-0.00039225,-4.1769e+08,-1580.6,0,3.6278e+06,-76.27,10082,11053,1,11053,1,-0.00027059,-1.2812e-09,0,0.00040734,-0.00025076,-1.0995e+08,-198.58,0,9.1489e+07,-26.215,11052,12943,1,12943,1,0.0013588,1.0135e-09,0,0.0013588,5.2167e-05,1.2907e+08,161.3,0,1.5489e+08,0.79711,12942,1091.8,0,1091.8,0,0.00094025,1.8108e-09,0,0.00060064,0.00017507,1.7507e+08,287.65,0,9.5399e+07,148.47,1091.8,1
3780,5.72,11998,1,11998,1,0.00054505,-1.5804e-10,0,0.00090668,-9.9432e-05,2.0871,-33.833,0,1.4703e+08,24.831,11997,13888,1,13888,1,0.002119,6.0575e-09,0,0.002119,0.00019383,1.5912e+08,551.67,0,4.1842e+08,1583.7,13887,11998,1,11998,1,0.00054505,-5.7944e-11,0,0.00081611,-9.9371e-05,9.0885e+07,-9.5157,0,1.293e+08,-8.4957,11997,10083,1,10083,1,-0.0010289,-4.1076e-09,0,2.0404e-05,-0.00039294,-4.1842e+08,-1348.5,0,3.6351e+06,-48.765,10082,11053,1,11053,1,-0.00027106,-9.763e-10,0,0.00040806,-0.0002512,-1.1014e+08,-157.59,0,9.1648e+07,-20.708,11052,12943,1,12943,1,0.0013612,5.7685e-10,0,0.0013612,5.2257e-05,1.293e+08,91.48,0,1.5517e+08,2.1206,12942,1091.8,0,1091.8,0,0.00094189,1.2844e-09,0,0.00060169,0.00017538,1.7537e+08,203.41,0,9.5565e+07,149.48,1091.8,1
3780,5.73,11998,1,11998,1,0.00054601,-1.6536e-10,0,0.00090827,-9.9607e-05,4.2411,-34.626,0,1.4729e+08,24.584,11997,13888,1,13888,1,0.0021227,5.9747e-09,0,0.0021227,0.00019417,1.594e+08,558.94,0,4.1915e+08,1569.9,13887,11998,1,11998,1,0.00054601,-4.9222e-11,0,0.00081754,-9.9546e-05,9.1045e+07,-5.0975,0,1.2953e+08,-7.1582,11997,10083,1,10083,1,-0.0010307,-4.2926e-09,0,2.0443e-05,-0.00039363,-4.1915e+08,-1391.3,0,3.6425e+06,-39.78,10082,11053,1,11053,1,-0.00027153,-8.0546e-10,0,0.00040877,-0.00025164,-1.1033e+08,-125.05,0,9.1808e+07,-17.322,11052,12943,1,12943,1,0.0013636,4.2042e-10,0,0.0013636,5.2348e-05,1.2953e+08,66.389,0,1.5544e+08,0.16773,12942,1091.8,0,1091.8,0,0.00094354,1.1675e-09,0,0.00060275,0.00017569,1.7568e+08,195.5,0,9.5732e+07,146.42,1091.8,1
3780,5.74,11998,1,11998,1,0.00054697,-8.7831e-11,0,0.00090986,-9.9781e-05,15.305,-22.61,0,1.4754e+08,25.346,11997,13888,1,13888,1,0.0021264,6.5662e-09,0,0.0021264,0.00019451,1.5968e+08,531.66,0,4.1988e+08,1565.2,13887,11998,1,11998,1,0.00054696,-3.3684e-11,0,0.00081897,-9.972e-05,9.1204e+07,-4.9391,0,1.2975e+08,-7.4225,11997,10083,1,10083,1,-0.0010325,-3.7735e-09,0,2.0482e-05,-0.00039431,-4.1988e+08,-1286.5,0,3.6499e+06,-32.052,10082,11053,1,11053,1,-0.000272,-5.8692e-10,0,0.00040948,-0.00025208,-1.1052e+08,-91.81,0,9.1967e+07,-16.586,11052,12943,1,12943,1,0.0013659,3.41e-10,0,0.0013659,5.2439e-05,1.2975e+08,53.544,0,1.5571e+08,-1.4069,12942,1091.8,0,1091.8,0,0.00094519,9.4532e-10,0,0.0006038,0.00017599,1.7599e+08,158.51,0,9.5899e+07,145.8,1091.8,1
3780,5.75,11998,1,11998,1,0.00054792,-1.5479e-11,0,0.00091145,-9.9956e-05,-2.6545,-12.688,0,1.478e+08,23.829,11997,13888,1,13888,1,0.0021301,5.8167e-09,0,0.0021301,0.00019485,1.5996e+08,608.27,0,4.2061e+08,1584.5,13887,11998,1,11998,1,0.00054792,4.0748e-11,0,0.0008204,-9.9895e-05,9.1363e+07,8.7626,0,1.2998e+08,-8.2804,11997,10083,1,10083,1,-0.0010343,-4.4599e-09,0,2.0521e-05,-0.000395,-4.2061e+08,-1422.2,0,3.6571e+06,-54.613,10082,11053,1,11053,1,-0.00027248,-9.877e-10,0,0.0004102,-0.00025252,-1.1072e+08,-153.57,0,9.2127e+07,-20.737,11052,12943,1,12943,1,0.0013683,9.1877e-10,0,0.0013683,5.253e-05,1.2998e+08,146.3,0,1.5598e+08,1.3209,12942,1091.8,0,1091.8,0,0.00094684,1.5085e-09,0,0.00060486,0.0001763,1.7629e+08,241.1,0,9.6066e+07,149.5,1091.8,1
3780,5.76,11998,1,11998,1,0.00054888,-1.173e-10,0,0.00091303,-0.00010013,2.3991,-26.804,0,1.4806e+08,30.549,11997,13888,1,13888,1,0.0021338,7.6243e-09,0,0.0021338,0.00019518,1.6023e+08,625.42,0,4.2134e+08,1577,13887,11998,1,11998,1,0.00054887,-1.2903e-10,0,0.00082182,-0.00010007,9.1522e+07,-20.906,0,1.302e+08,-4.4092,11997,10083,1,10083,1,-0.0010361,-3.3981e-09,0,2.056e-05,-0.00039569,-4.2134e+08,-1158.6,0,3.6645e+06,-32.506,10082,11053,1,11053,1,-0.00027295,-6.1601e-10,0,0.00041091,-0.00025296,-1.1091e+08,-88.624,0,9.2286e+07,-9.5281,11052,12943,1,12943,1,0.0013707,1.3917e-10,0,0.0013707,5.2621e-05,1.302e+08,23.628,0,1.5625e+08,0.98502,12942,1091.8,0,1091.8,0,0.00094848,8.2451e-10,0,0.00060591,0.00017661,1.766e+08,129.75,0,9.6232e+07,148.4,1091.8,1
3780,5.77,11998,1,11998,1,0.00054984,-1.8238e-10,0,0.00091462,-0.0001003,-2.5222,-36.942,0,1.4831e+08,29.051,11997,13888,1,13888,1,0.0021375,7.1408e-09,0,0.0021375,0.00019552,1.6051e+08,581.31,0,4.2207e+08,1578.1,13887,11998,1,11998,1,0.00054983,-1.5795e-10,0,0.00082325,-0.00010024,9.1681e+07,-26.593,0,1.3043e+08,-5.5377,11997,10083,1,10083,1,-0.0010379,-3.6097e-09,0,2.0599e-05,-0.00039638,-4.2207e+08,-1230.7,0,3.6719e+06,-35.387,10082,11053,1,11053,1,-0.00027342,-7.1555e-10,0,0.00041163,-0.0002534,-1.111e+08,-105.26,0,9.2446e+07,-11.17,11052,12943,1,12943,1,0.0013731,1.4427e-10,0,0.0013731,5.2711e-05,1.3043e+08,23.763,0,1.5652e+08,0.12575,12942,1091.8,0,1091.8,0,0.00095013,8.705e-10,0,0.00060696,0.00017691,1.769e+08,142.27,0,9.6399e+07,148.02,1091.8,1
3780,5.78,11998,1,11998,1,0.00055079,7.1542e-12,0,0.0009162,-0.00010048,-5.2846,-8.6895,0,1.4857e+08,28.781,11997,13888,1,13888,1,0.0021413,7.3008e-09,0,0.0021413,0.00019586,1.6079e+08,594.9,0,4.228e+08,1592.8,13887,11998,1,11998,1,0.00055079,2.1828e-11,0,0.00082468,-0.00010042,9.184e+07,4.1822,0,1.3065e+08,-7.4534,11997,10083,1,10083,1,-0.0010397,-3.5534e-09,0,2.0638e-05,-0.00039707,-4.228e+08,-1211.5,0,3.6792e+06,-33.531,10082,11053,1,11053,1,-0.00027389,-4.2869e-10,0,0.00041234,-0.00025384,-1.1129e+08,-69.383,0,9.2605e+07,-14.228,11052,12943,1,12943,1,0.0013755,4.2184e-10,0,0.0013755,5.2802e-05,1.3065e+08,61.251,0,1.568e+08,0.84028,12942,1091.8,0,1091.8,0,0.00095178,8.6073e-10,0,0.00060801,0.00017722,1.7721e+08,139.26,0,9.6565e+07,150.01,1091.8,1
3780,5.79,11998,1,11998,1,0.00055175,7.4376e-11,0,0.00091779,-0.00010065,1.2266,1.3574,0,1.4882e+08,31.922,11997,13888,1,13888,1,0.002145,7.9911e-09,0,0.002145,0.0001962,1.6107e+08,661.56,0,4.2353e+08,1580.8,13887,11998,1,11998,1,0.00055174,2.2101e-11,0,0.0008261,-0.00010059,9.1999e+07,4.0228,0,1.3088e+08,-4.7412,11997,10083,1,10083,1,-0.0010415,-3.2736e-09,0,2.0677e-05,-0.00039775,-4.2353e+08,-1116.2,0,3.6866e+06,-20.813,10082,11053,1,11053,1,-0.00027436,-1.9937e-10,0,0.00041305,-0.00025428,-1.1148e+08,-31.929,0,9.2765e+07,-8.7781,11052,12943,1,12943,1,0.0013779,2.401e-10,0,0.0013779,5.2893e-05,1.3088e+08,35.552,0,1.5707e+08,0.23939,12942,1091.8,0,1091.8,0,0.00095342,7.1273e-10,0,0.00060907,0.00017753,1.7751e+08,111.19,0,9.6732e+07,148.53,1091.8,1
3780,5.8,11998,1,11998,1,0.00055271,-1.0275e-10,0,0.00091938,-0.00010083,4.6825,-25.546,0,1.4908e+08,26.89,11997,13888,1,13888,1,0.0021487,6.8963e-09,0,0.0021487,0.00019654,1.6135e+08,558.09,0,4.2427e+08,1616.9,13887,11998,1,11998,1,0.0005527,-1.9892e-11,0,0.00082753,-0.00010077,9.2159e+07,-3.2271,0,1.3111e+08,-9.5225,11997,10083,1,10083,1,-0.0010433,-3.7116e-09,0,2.0716e-05,-0.00039844,-4.2427e+08,-1265.5,0,3.694e+06,-40.069,10082,11053,1,11053,1,-0.00027483,-6.3334e-10,0,0.00041377,-0.00025472,-1.1167e+08,-100.11,0,9.2925e+07,-18.003,11052,12943,1,12943,1,0.0013802,4.026e-10,0,0.0013802,5.2984e-05,1.3111e+08,59.873,0,1.5734e+08,-0.0029167,12942,1091.8,0,1091.8,0,0.00095507,9.7486e-10,0,0.00061012,0.00017783,1.7782e+08,158.12,0,9.6899e+07,152.85,1091.8,1
3780,5.81,11998,1,11998,1,0.00055366,-2.9876e-10,0,0.00092096,-0.000101,-5.3943,-54.109,0,1.4934e+08,30.117,11997,13888,1,13888,1,0.0021524,7.353e-09,0,0.0021524,0.00019688,1.6163e+08,599.5,0,4.25e+08,1596.4,13887,11998,1,11998,1,0.00055366,-2.3542e-10,0,0.00082896,-0.00010094,9.2317e+07,-37.833,0,1.3133e+08,-5.7386,11997,10083,1,10083,1,-0.0010451,-3.5299e-09,0,2.0755e-05,-0.00039913,-4.25e+08,-1203.5,0,3.7014e+06,-35.06,10082,11053,1,11053,1,-0.0002753,-7.6225e-10,0,0.00041448,-0.00025516,-1.1186e+08,-109.76,0,9.3084e+07,-10.749,11052,12943,1,12943,1,0.0013826,1.5948e-12,0,0.0013826,5.3075e-05,1.3133e+08,0.094766,0,1.5761e+08,0.002871,12942,1091.8,0,1091.8,0,0.00095672,8.2081e-10,0,0.00061118,0.00017814,1.7813e+08,131.59,0,9.7066e+07,150.44,1091.8,1
3780,5.82,11998,1,11998,1,0.00055462,-1.7258e-10,0,0.00092255,-0.00010118,9.3448,-36.145,0,1.4959e+08,31.722,11997,13888,1,13888,1,0.0021561,7.7317e-09,0,0.0021561,0.00019721,1.619e+08,635.06,0,4.2572e+08,1595.7,13887,11998,1,11998,1,0.00055462,-8.2442e-11,0,0.00083039,-0.00010112,9.2477e+07,-16.205,0,1.3156e+08,-5.6023,11997,10083,1,10083,1,-0.0010468,-3.4029e-09,0,2.0794e-05,-0.00039982,-4.2572e+08,-1160.3,0,3.7088e+06,-25.503,10082,11053,1,11053,1,-0.00027577,-4.9984e-10,0,0.00041519,-0.0002556,-1.1205e+08,-79.246,0,9.3243e+07,-10.72,11052,12943,1,12943,1,0.001385,8.5021e-11,0,0.001385,5.3165e-05,1.3156e+08,11.305,0,1.5788e+08,0.872,12942,1091.8,0,1091.8,0,0.00095837,7.5488e-10,0,0.00061223,0.00017845,1.7843e+08,118.97,0,9.7232e+07,150.65,1091.8,1
3780,5.83,11998,1,11998,1,0.00055558,-3.6598e-10,0,0.00092414,-0.00010135,-7.6634,-65.481,0,1.4985e+08,28.791,11997,13888,1,13888,1,0.0021598,6.8336e-09,0,0.0021598,0.00019755,1.6218e+08,551.9,0,4.2646e+08,1630.2,13887,11998,1,11998,1,0.00055557,-1.2059e-10,0,0.00083182,-0.00010129,9.2636e+07,-24.157,0,1.3178e+08,-7.6516,11997,10083,1,10083,1,-0.0010487,-3.781e-09,0,2.0833e-05,-0.00040051,-4.2646e+08,-1289.2,0,3.7161e+06,-49.628,10082,11053,1,11053,1,-0.00027624,-9.7306e-10,0,0.00041591,-0.00025604,-1.1225e+08,-155.72,0,9.3403e+07,-16.428,11052,12943,1,12943,1,0.0013874,2.2716e-10,0,0.0013874,5.3256e-05,1.3178e+08,37.589,0,1.5815e+08,3.3587,12942,1091.8,0,1091.8,0,0.00096002,1.0668e-09,0,0.00061329,0.00017875,1.7874e+08,169.49,0,9.7399e+07,154.81,1091.8,1
3780,5.84,11998,1,11998,1,0.00055653,1.0108e-10,0,0.00092572,-0.00010153,2.5394,5.0384,0,1.5011e+08,34.575,11997,13888,1,13888,1,0.0021635,8.6237e-09,0,0.0021635,0.00019789,1.6246e+08,723.34,0,4.2718e+08,1593.1,13887,11998,1,11998,1,0.00055653,2.0558e-11,0,0.00083324,-0.00010146,9.2795e+07,4.1384,0,1.3201e+08,-3.4035,11997,10083,1,10083,1,-0.0010504,-3.0636e-09,0,2.0872e-05,-0.00040119,-4.2718e+08,-1046.2,0,3.7236e+06,-15.364,10082,11053,1,11053,1,-0.00027671,-1.1031e-10,0,0.00041662,-0.00025648,-1.1244e+08,-17.47,0,9.3562e+07,-6.1525,11052,12943,1,12943,1,0.0013898,1.9196e-10,0,0.0013898,5.3347e-05,1.3201e+08,27.661,0,1.5842e+08,0.67584,12942,1091.8,0,1091.8,0,0.00096166,7.0294e-10,0,0.00061433,0.00017906,1.7904e+08,100.05,0,9.7565e+07,150.18,1091.8,1
3780,5.85,11998,1,11998,1,0.00055749,-2.0584e-10,0,0.00092731,-0.0001017,-1.7837,-41.573,0,1.5036e+08,32.775,11997,13888,1,13888,1,0.0021672,7.8003e-09,0,0.0021672,0.00019823,1.6274e+08,640.42,0,4.2792e+08,1607.6,13887,11998,1,11998,1,0.00055748,-9.9344e-11,0,0.00083467,-0.00010164,9.2954e+07,-19.206,0,1.3223e+08,-5.0909,11997,10083,1,10083,1,-0.0010522,-3.4161e-09,0,2.0911e-05,-0.00040188,-4.2792e+08,-1164.7,0,3.7309e+06,-24.411,10082,11053,1,11053,1,-0.00027718,-5.6914e-10,0,0.00041733,-0.00025692,-1.1263e+08,-89.951,0,9.3722e+07,-10.881,11052,12943,1,12943,1,0.0013922,9.2316e-11,0,0.0013922,5.3438e-05,1.3223e+08,12.875,0,1.587e+08,1.8913,12942,1091.8,0,1091.8,0,0.00096331,7.8543e-10,0,0.00061539,0.00017937,1.7935e+08,122.74,0,9.7732e+07,152.2,1091.8,1
3780,5.86,11998,1,11998,1,0.00055845,-2.1078e-10,0,0.0009289,-0.00010188,-6.5346,-42.552,0,1.5062e+08,29.704,11997,13888,1,13888,1,0.0021709,7.209e-09,0,0.0021709,0.00019857,1.6302e+08,585.43,0,4.2865e+08,1620.7,13887,11998,1,11998,1,0.00055844,-9.2074e-11,0,0.0008361,-0.00010181,9.3113e+07,-17.29,0,1.3246e+08,-7.3177,11997,10083,1,10083,1,-0.001054,-3.6477e-09,0,2.095e-05,-0.00040257,-4.2865e+08,-1243.7,0,3.7384e+06,-33.104,10082,11053,1,11053,1,-0.00027765,-7.2228e-10,0,0.00041805,-0.00025736,-1.1282e+08,-115.2,0,9.3882e+07,-15.48,11052,12943,1,12943,1,0.0013946,2.2764e-10,0,0.0013946,5.3529e-05,1.3246e+08,35.3,0,1.5897e+08,1.8055,12942,1091.8,0,1091.8,0,0.00096496,9.4097e-10,0,0.00061645,0.00017968,1.7966e+08,151.08,0,9.79e+07,153.4,1091.8,1
3780,5.87,11998,1,11998,1,0.0005594,-4.5292e-11,0,0.00093049,-0.00010205,-6.8826,-20.029,0,1.5087e+08,27.232,11997,13888,1,13888,1,0.0021746,6.4791e-09,0,0.0021746,0.00019891,1.633e+08,519.57,0,4.2938e+08,1617.1,13887,11998,1,11998,1,0.0005594,-3.222e-11,0,0.00083753,-0.00010199,9.3272e+07,-4.2504,0,1.3269e+08,-8.5499,11997,10083,1,10083,1,-0.0010558,-3.9878e-09,0,2.0989e-05,-0.00040326,-4.2938e+08,-1332.3,0,3.7458e+06,-43.388,10082,11053,1,11053,1,-0.00027812,-6.0555e-10,0,0.00041876,-0.0002578,-1.1301e+08,-95.709,0,9.4041e+07,-17.756,11052,12943,1,12943,1,0.0013969,5.8395e-10,0,0.0013969,5.362e-05,1.3269e+08,79.559,0,1.5924e+08,2.8004,12942,1091.8,0,1091.8,0,0.00096661,1.0371e-09,0,0.0006175,0.00017998,1.7996e+08,170.79,0,9.8066e+07,151.79,1091.8,1
3780,5.88,11998,1,11998,1,0.00056036,8.7081e-11,0,0.00093208,-0.00010222,-0.40867,2.1243,0,1.5113e+08,28.159,11997,13888,1,13888,1,0.0021784,7.2119e-09,0,0.0021784,0.00019925,1.6358e+08,586.16,0,4.3011e+08,1616.9,13887,11998,1,11998,1,0.00056036,4.993e-11,0,0.00083896,-0.00010216,9.3432e+07,8.8982,0,1.3291e+08,-8.2187,11997,10083,1,10083,1,-0.0010576,-3.6957e-09,0,2.1029e-05,-0.00040395,-4.3011e+08,-1260.1,0,3.7532e+06,-36.432,10082,11053,1,11053,1,-0.0002786,-4.4257e-10,0,0.00041948,-0.00025824,-1.132e+08,-71.725,0,9.4201e+07,-16.06,11052,12943,1,12943,1,0.0013993,6.0715e-10,0,0.0013993,5.371e-05,1.3291e+08,85.771,0,1.5951e+08,0.80766,12942,1091.8,0,1091.8,0,0.00096826,9.5831e-10,0,0.00061856,0.00018029,1.8027e+08,155.44,0,9.8233e+07,152.32,1091.8,1
3780,5.89,11998,1,11998,1,0.00056132,3.8648e-11,0,0.00093366,-0.0001024,0.43775,-3.961,0,1.5139e+08,30.981,11997,13888,1,13888,1,0.0021821,7.5019e-09,0,0.0021821,0.00019958,1.6386e+08,612.05,0,4.3084e+08,1618.7,13887,11998,1,11998,1,0.00056132,3.3913e-11,0,0.00084038,-0.00010234,9.3591e+07,6.7234,0,1.3314e+08,-6.0269,11997,10083,1,10083,1,-0.0010594,-3.5949e-09,0,2.1068e-05,-0.00040463,-4.3084e+08,-1225.7,0,3.7607e+06,-26.967,10082,11053,1,11053,1,-0.00027907,-3.6528e-10,0,0.00042019,-0.00025868,-1.1339e+08,-57.107,0,9.436e+07,-12.333,11052,12943,1,12943,1,0.0014017,4.0813e-10,0,0.0014017,5.3801e-05,1.3314e+08,59.314,0,1.5978e+08,0.861,12942,1091.8,0,1091.8,0,0.0009699,8.2044e-10,0,0.00061961,0.0001806,1.8057e+08,134.83,0,9.84e+07,152,1091.8,1
3780,5.9,11998,1,11998,1,0.00056228,-2.8273e-11,0,0.00093525,-0.00010257,-1.3661,-14.719,0,1.5164e+08,29.743,11997,13888,1,13888,1,0.0021858,7.2542e-09,0,0.0021858,0.00019992,1.6413e+08,589.83,0,4.3157e+08,1625.5,13887,11998,1,11998,1,0.00056227,1.1585e-11,0,0.00084181,-0.00010251,9.375e+07,2.2618,0,1.3336e+08,-7.2145,11997,10083,1,10083,1,-0.0010612,-3.7093e-09,0,2.1107e-05,-0.00040532,-4.3157e+08,-1264.7,0,3.7681e+06,-33.529,10082,11053,1,11053,1,-0.00027954,-4.7495e-10,0,0.00042091,-0.00025912,-1.1359e+08,-75.693,0,9.452e+07,-13.961,11052,12943,1,12943,1,0.0014041,4.2802e-10,0,0.0014041,5.3892e-05,1.3336e+08,60.558,0,1.6006e+08,0.92902,12942,1091.8,0,1091.8,0,0.00097155,8.7812e-10,0,0.00062066,0.0001809,1.8088e+08,144.18,0,9.8567e+07,153.01,1091.8,1
3780,5.91,11998,1,11998,1,0.00056323,2.1024e-11,0,0.00093684,-0.00010275,15.856,-6.805,0,1.519e+08,30.044,11997,13888,1,13888,1,0.0021895,7.7119e-09,0,0.0021895,0.00020026,1.6441e+08,630.93,0,4.323e+08,1617,13887,11998,1,11998,1,0.00056323,7.306e-12,0,0.00084324,-0.00010269,9.3909e+07,1.3783,0,1.3359e+08,-6.8055,11997,10083,1,10083,1,-0.001063,-3.5214e-09,0,2.1146e-05,-0.00040601,-4.323e+08,-1200.6,0,3.7756e+06,-25.278,10082,11053,1,11053,1,-0.00028001,-3.4831e-10,0,0.00042162,-0.00025956,-1.1378e+08,-54.762,0,9.4679e+07,-12.797,11052,12943,1,12943,1,0.0014065,3.2456e-10,0,0.0014065,5.3983e-05,1.3359e+08,47.97,0,1.6033e+08,-0.31319,12942,1091.8,0,1091.8,0,0.0009732,7.9319e-10,0,0.00062172,0.00018121,1.8118e+08,128.44,0,9.8733e+07,151.85,1091.8,1
3780,5.92,11998,1,11998,1,0.00056419,-8.6445e-11,0,0.00093843,-0.00010292,2.7571,-23.406,0,1.5216e+08,31.438,11997,13888,1,13888,1,0.0021932,7.4151e-09,0,0.0021932,0.0002006,1.6469e+08,607.86,0,4.3303e+08,1612.2,13887,11998,1,11998,1,0.00056419,-1.218e-11,0,0.00084466,-0.00010286,9.4068e+07,-1.6373,0,1.3381e+08,-4.9544,11997,10083,1,10083,1,-0.0010648,-3.5922e-09,0,2.1185e-05,-0.0004067,-4.3303e+08,-1224.8,0,3.783e+06,-26.318,10082,11053,1,11053,1,-0.00028048,-4.3244e-10,0,0.00042233,-0.00026,-1.1397e+08,-64.529,0,9.4839e+07,-10.633,11052,12943,1,12943,1,0.0014089,2.325e-10,0,0.0014089,5.4073e-05,1.3381e+08,36.844,0,1.606e+08,1.0373,12942,1091.8,0,1091.8,0,0.00097484,7.9954e-10,0,0.00062277,0.00018152,1.8149e+08,133.1,0,9.89e+07,150.74,1091.8,1
3780,5.93,11998,1,11998,1,0.00056515,1.2008e-12,0,0.00094002,-0.0001031,17.734,-8.9182,0,1.5241e+08,27.472,11997,13888,1,13888,1,0.0021969,5.8368e-09,0,0.0021969,0.00020094,1.6496e+08,557.88,0,4.3377e+08,1618.7,13887,11998,1,11998,1,0.00056515,1.3486e-10,0,0.0008461,-0.00010304,9.4228e+07,24.733,0,1.3404e+08,-6.8617,11997,10083,1,10083,1,-0.0010666,-4.7236e-09,0,2.1226e-05,-0.00040739,-4.3377e+08,-1474.4,0,3.7908e+06,-49.546,10082,11053,1,11053,1,-0.00028095,-7.2312e-10,0,0.00042305,-0.00026044,-1.1416e+08,-104.87,0,9.4999e+07,-17.992,11052,12943,1,12943,1,0.0014113,8.179e-10,0,0.0014113,5.4164e-05,1.3404e+08,127.67,0,1.6087e+08,2.3872,12942,1091.8,0,1091.8,0,0.0009765,1.3152e-09,0,0.00062383,0.00018182,1.818e+08,223.14,0,9.9067e+07,151.85,1091.8,1
3780,5.94,11998,1,11998,1,0.00056611,-1.0638e-10,0,0.00094161,-0.00010327,6.2412,-27.279,0,1.5267e+08,30.475,11997,13888,1,13888,1,0.0022006,6.9809e-09,0,0.0022006,0.00020128,1.6524e+08,568.11,0,4.3449e+08,1634.9,13887,11998,1,11998,1,0.0005661,-1.8818e-11,0,0.00084752,-0.00010321,9.4387e+07,-2.7435,0,1.3427e+08,-6.9716,11997,10083,1,10083,1,-0.0010684,-3.8129e-09,0,2.1266e-05,-0.00040808,-4.3449e+08,-1300.1,0,3.7985e+06,-36.385,10082,11053,1,11053,1,-0.00028142,-5.0606e-10,0,0.00042376,-0.00026088,-1.1435e+08,-75.838,0,9.5158e+07,-13.849,11052,12943,1,12943,1,0.0014136,3.5104e-10,0,0.0014136,5.4255e-05,1.3427e+08,54.21,0,1.6114e+08,1.6425,12942,1091.8,0,1091.8,0,0.00097815,9.0213e-10,0,0.00062488,0.00018213,1.821e+08,153.16,0,9.9233e+07,153.54,1091.8,1
3780,5.95,11998,1,11998,1,0.00056706,-1.5832e-10,0,0.00094319,-0.00010345,2.747,-34.165,0,1.5292e+08,33.656,11997,13888,1,13888,1,0.0022043,7.5903e-09,0,0.0022043,0.00020161,1.6551e+08,623.36,0,4.3522e+08,1624.7,13887,11998,1,11998,1,0.00056706,-5.9422e-11,0,0.00084895,-0.00010338,9.4546e+07,-10.74,0,1.3449e+08,-3.8307,11997,10083,1,10083,1,-0.0010702,-3.554e-09,0,2.1306e-05,-0.00040876,-4.3522e+08,-1211.8,0,3.8062e+06,-20.385,10082,11053,1,11053,1,-0.00028189,-4.5132e-10,0,0.00042448,-0.00026132,-1.1454e+08,-68.656,0,9.5317e+07,-8.5381,11052,12943,1,12943,1,0.001416,9.9716e-11,0,0.001416,5.4345e-05,1.3449e+08,17.561,0,1.6141e+08,1.0874,12942,1091.8,0,1091.8,0,0.00097979,7.5152e-10,0,0.00062593,0.00018244,1.8241e+08,124.26,0,9.94e+07,152.62,1091.8,1
3780,5.96,11998,1,11998,1,0.00056802,-5.7106e-11,0,0.00094478,-0.00010362,1.7246,-18.598,0,1.5318e+08,32.461,11997,13888,1,13888,1,0.002208,7.4397e-09,0,0.002208,0.00020195,1.6578e+08,609.11,0,4.3595e+08,1619.6,13887,11998,1,11998,1,0.00056802,-1.3163e-11,0,0.00085038,-0.00010356,9.4706e+07,-1.3689,0,1.3472e+08,-3.4798,11997,10083,1,10083,1,-0.001072,-3.5934e-09,0,2.1346e-05,-0.00040945,-4.3595e+08,-1225.2,0,3.814e+06,-28.203,10082,11053,1,11053,1,-0.00028236,-3.3829e-10,0,0.00042519,-0.00026176,-1.1473e+08,-50.492,0,9.5477e+07,-7.4072,11052,12943,1,12943,1,0.0014184,1.7932e-10,0,0.0014184,5.4436e-05,1.3472e+08,28.328,0,1.6167e+08,0.90719,12942,1091.8,0,1091.8,0,0.00098144,7.5359e-10,0,0.00062699,0.00018274,1.8271e+08,128.33,0,9.9566e+07,151.06,1091.8,1
3780,5.97,11998,1,11998,1,0.00056898,9.776e-13,0,0.00094637,-0.0001038,-2.5254,-10.852,0,1.5344e+08,31.589,11997,13888,1,13888,1,0.0022118,7.1919e-09,0,0.0022118,0.00020229,1.6606e+08,586.7,0,4.3668e+08,1624,13887,11998,1,11998,1,0.00056898,4.1487e-11,0,0.00085181,-0.00010373,9.4865e+07,6.879,0,1.3494e+08,-4.9529,11997,10083,1,10083,1,-0.0010738,-3.7628e-09,0,2.1387e-05,-0.00041014,-4.3668e+08,-1283,0,3.8217e+06,-32.349,10082,11053,1,11053,1,-0.00028283,-3.7374e-10,0,0.0004259,-0.0002622,-1.1492e+08,-54.718,0,9.5636e+07,-11.347,11052,12943,1,12943,1,0.0014208,4.5683e-10,0,0.0014208,5.4527e-05,1.3494e+08,67.595,0,1.6194e+08,1.5345,12942,1091.8,0,1091.8,0,0.00098309,8.7437e-10,0,0.00062804,0.00018305,1.8302e+08,148.91,0,9.9733e+07,151.84,1091.8,1
3780,5.98,11998,1,11998,1,0.00056994,5.789e-11,0,0.00094796,-0.00010397,-8.2699,-1.8693,0,1.5369e+08,28.811,11997,13888,1,13888,1,0.0022155,6.5992e-09,0,0.0022155,0.00020263,1.6633e+08,534.9,0,4.3742e+08,1647.6,13887,11998,1,11998,1,0.00056994,1.2638e-10,0,0.00085324,-0.00010391,9.5025e+07,19.537,0,1.3517e+08,-6.941,11997,10083,1,10083,1,-0.0010756,-4.0728e-09,0,2.1427e-05,-0.00041083,-4.3742e+08,-1358.4,0,3.8295e+06,-65.025,10082,11053,1,11053,1,-0.0002833,-6.0085e-10,0,0.00042662,-0.00026265,-1.1511e+08,-86.525,0,9.5796e+07,-15.161,11052,12943,1,12943,1,0.0014232,8.7962e-10,0,0.0014232,5.4617e-05,1.3517e+08,128.52,0,1.6221e+08,3.699,12942,1091.8,0,1091.8,0,0.00098474,1.2001e-09,0,0.0006291,0.00018336,1.8333e+08,196.13,0,9.99e+07,154.95,1091.8,1
3780,5.99,11998,1,11998,1,0.0005709,3.7516e-11,0,0.00094955,-0.00010415,-8.6626,-4.4416,0,1.5395e+08,30.574,11997,13888,1,13888,1,0.0022192,7.0223e-09,0,0.0022192,0.00020297,1.666e+08,572.02,0,4.3815e+08,1637.7,13887,11998,1,11998,1,0.0005709,8.9323e-11,0,0.00085467,-0.00010408,9.5184e+07,15.233,0,1.354e+08,-5.9297,11997,10083,1,10083,1,-0.0010774,-3.8298e-09,0,2.1467e-05,-0.00041152,-4.3815e+08,-1305.8,0,3.8372e+06,-43.22,10082,11053,1,11053,1,-0.00028377,-4.5476e-10,0,0.00042733,-0.00026309,-1.153e+08,-66.316,0,9.5956e+07,-13.499,11052,12943,1,12943,1,0.0014256,5.9598e-10,0,0.0014256,5.4708e-05,1.354e+08,90.364,0,1.6248e+08,2.3518,12942,1091.8,0,1091.8,0,0.00098639,9.8679e-10,0,0.00063016,0.00018367,1.8363e+08,165.32,0,1.0007e+08,153.33,1091.8,1
3780,6,11998,1,11998,1,0.00057186,8.8906e-11,0,0.00095114,-0.00010432,-0.14429,3.7164,0,1.5421e+08,31.771,11997,13888,1,13888,1,0.0022229,7.7702e-09,0,0.0022229,0.00020331,1.6687e+08,639.56,0,4.3888e+08,1626.7,13887,11998,1,11998,1,0.00057186,6.4732e-11,0,0.00085609,-0.00010426,9.5344e+07,11.581,0,1.3562e+08,-4.4136,11997,10083,1,10083,1,-0.0010792,-3.5284e-09,0,2.1508e-05,-0.00041221,-4.3888e+08,-1203.1,0,3.845e+06,-28.667,10082,11053,1,11053,1,-0.00028424,-3.1634e-10,0,0.00042805,-0.00026353,-1.155e+08,-45.643,0,9.6115e+07,-10.652,11052,12943,1,12943,1,0.001428,4.309e-10,0,0.001428,5.4798e-05,1.3562e+08,66.098,0,1.6275e+08,1.9434,12942,1091.8,0,1091.8,0,0.00098804,8.4221e-10,0,0.00063121,0.00018397,1.8394e+08,138.12,0,1.0023e+08,152.03,1091.8,1
3780,6.01,11998,1,11998,1,0.00057282,-6.147e-11,0,0.00095272,-0.0001045,10.977,-19.288,0,1.5446e+08,33.477,11997,13888,1,13888,1,0.0022266,8.1246e-09,0,0.0022266,0.00020364,1.6715e+08,674.36,0,4.396e+08,1630.2,13887,11998,1,11998,1,0.00057281,-1.6002e-11,0,0.00085752,-0.00010443,9.5503e+07,-2.4065,0,1.3585e+08,-4.0856,11997,10083,1,10083,1,-0.001081,-3.4229e-09,0,2.1548e-05,-0.00041289,-4.396e+08,-1167.1,0,3.8528e+06,-22.593,10082,11053,1,11053,1,-0.00028471,-3.3411e-10,0,0.00042876,-0.00026397,-1.1569e+08,-49.61,0,9.6274e+07,-8.3322,11052,12943,1,12943,1,0.0014303,1.3536e-10,0,0.0014303,5.4889e-05,1.3585e+08,22.649,0,1.6302e+08,0.76271,12942,1091.8,0,1091.8,0,0.00098968,7.3917e-10,0,0.00063226,0.00018428,1.8424e+08,116.88,0,1.004e+08,152.93,1091.8,1
3780,6.02,11998,1,11998,1,0.00057378,-1.3463e-10,0,0.00095432,-0.00010467,-0.76169,-30.046,0,1.5472e+08,31.195,11997,13888,1,13888,1,0.0022303,7.2831e-09,0,0.0022303,0.00020398,1.6742e+08,594.59,0,4.4034e+08,1648.5,13887,11998,1,11998,1,0.00057377,-2.3388e-12,0,0.00085895,-0.00010461,9.5662e+07,-0.21685,0,1.3607e+08,-5.6203,11997,10083,1,10083,1,-0.0010828,-3.7724e-09,0,2.1588e-05,-0.00041358,-4.4034e+08,-1286.2,0,3.8606e+06,-41.652,10082,11053,1,11053,1,-0.00028518,-6.2897e-10,0,0.00042948,-0.00026441,-1.1588e+08,-94.948,0,9.6434e+07,-13.322,11052,12943,1,12943,1,0.0014327,3.3661e-10,0,0.0014327,5.498e-05,1.3607e+08,54.139,0,1.6329e+08,2.5338,12942,1091.8,0,1091.8,0,0.00099133,9.5353e-10,0,0.00063332,0.00018459,1.8455e+08,157.5,0,1.0057e+08,154.53,1091.8,1
3780,6.03,11998,1,11998,1,0.00057473,-1.2129e-10,0,0.0009559,-0.00010485,-2.1477,-28.903,0,1.5497e+08,33.731,11997,13888,1,13888,1,0.002234,7.7085e-09,0,0.002234,0.00020432,1.6769e+08,632.65,0,4.4107e+08,1636.4,13887,11998,1,11998,1,0.00057473,-3.6719e-11,0,0.00086038,-0.00010478,9.5821e+07,-6.495,0,1.363e+08,-3.2904,11997,10083,1,10083,1,-0.0010846,-3.6162e-09,0,2.1629e-05,-0.00041427,-4.4107e+08,-1233,0,3.8684e+06,-22.19,10082,11053,1,11053,1,-0.00028565,-3.7986e-10,0,0.00043019,-0.00026485,-1.1607e+08,-55.816,0,9.6593e+07,-6.7881,11052,12943,1,12943,1,0.0014351,1.1144e-10,0,0.0014351,5.507e-05,1.363e+08,18.558,0,1.6356e+08,1.0642,12942,1091.8,0,1091.8,0,0.00099298,7.4976e-10,0,0.00063437,0.00018489,1.8485e+08,125.39,0,1.0073e+08,152.61,1091.8,1
3780,6.04,11998,1,11998,1,0.00057569,-1.1254e-10,0,0.00095749,-0.00010502,-1.6727,-26.931,0,1.5523e+08,32.831,11997,13888,1,13888,1,0.0022378,7.1872e-09,0,0.0022378,0.00020466,1.6797e+08,586.17,0,4.418e+08,1637.5,13887,11998,1,11998,1,0.00057569,-1.8459e-11,0,0.00086181,-0.00010496,9.5981e+07,-2.1873,0,1.3653e+08,-3.4735,11997,10083,1,10083,1,-0.0010864,-3.7845e-09,0,2.1669e-05,-0.00041496,-4.418e+08,-1290.3,0,3.8762e+06,-27.301,10082,11053,1,11053,1,-0.00028612,-4.077e-10,0,0.0004309,-0.00026529,-1.1626e+08,-60.968,0,9.6753e+07,-7.7474,11052,12943,1,12943,1,0.0014375,1.6777e-10,0,0.0014375,5.5161e-05,1.3653e+08,26.551,0,1.6383e+08,1.2008,12942,1091.8,0,1091.8,0,0.00099463,7.846e-10,0,0.00063543,0.0001852,1.8516e+08,137.17,0,1.009e+08,152.9,1091.8,1
3780,6.05,11998,1,11998,1,0.00057665,-4.4735e-11,0,0.00095908,-0.0001052,12.49,-17.455,0,1.5549e+08,29.586,11997,13888,1,13888,1,0.0022415,7.028e-09,0,0.0022415,0.000205,1.6824e+08,572.63,0,4.4253e+08,1680.2,13887,11998,1,11998,1,0.00057665,2.2642e-11,0,0.00086324,-0.00010513,9.6141e+07,3.5094,0,1.3675e+08,-8.3367,11997,10083,1,10083,1,-0.0010882,-3.84e-09,0,2.1709e-05,-0.00041565,-4.4253e+08,-1309.3,0,3.884e+06,-46.523,10082,11053,1,11053,1,-0.00028659,-5.7308e-10,0,0.00043162,-0.00026573,-1.1645e+08,-86.025,0,9.6912e+07,-16.574,11052,12943,1,12943,1,0.0014399,5.2476e-10,0,0.0014399,5.5252e-05,1.3675e+08,81.86,0,1.641e+08,1.0827,12942,1091.8,0,1091.8,0,0.00099628,1.0134e-09,0,0.00063648,0.00018551,1.8546e+08,166.69,0,1.0107e+08,158.64,1091.8,1
3780,6.06,11998,1,11998,1,0.00057761,-1.3257e-10,0,0.00096067,-0.00010537,13.365,-30.847,0,1.5574e+08,27.49,11997,13888,1,13888,1,0.0022452,6.2931e-09,0,0.0022452,0.00020534,1.6851e+08,507.24,0,4.4326e+08,1669.9,13887,11998,1,11998,1,0.00057761,8.6395e-12,0,0.00086467,-0.00010531,9.63e+07,0.7892,0,1.3698e+08,-8.8097,11997,10083,1,10083,1,-0.00109,-4.4132e-09,0,2.175e-05,-0.00041634,-4.4326e+08,-1419.8,0,3.8918e+06,-51.375,10082,11053,1,11053,1,-0.00028706,-8.0069e-10,0,0.00043234,-0.00026617,-1.1664e+08,-122.29,0,9.7072e+07,-19.141,11052,12943,1,12943,1,0.0014423,5.6998e-10,0,0.0014423,5.5342e-05,1.3698e+08,89.6,0,1.6437e+08,0.46108,12942,1091.8,0,1091.8,0,0.00099793,1.2029e-09,0,0.00063754,0.00018581,1.8577e+08,199.65,0,1.0123e+08,157.63,1091.8,1
3780,6.07,11998,1,11998,1,0.00057857,-1.3192e-11,0,0.00096226,-0.00010555,26.043,-11.089,0,1.56e+08,23.391,11997,13888,1,13888,1,0.0022489,6.2536e-09,0,0.0022489,0.00020568,1.6879e+08,553.46,0,4.4399e+08,1653.3,13887,11998,1,11998,1,0.00057857,7.037e-11,0,0.0008661,-0.00010548,9.646e+07,11.709,0,1.372e+08,-11.391,11997,10083,1,10083,1,-0.0010918,-4.4147e-09,0,2.1791e-05,-0.00041703,-4.4399e+08,-1413.9,0,3.8997e+06,-50.609,10082,11053,1,11053,1,-0.00028753,-5.86e-10,0,0.00043305,-0.00026661,-1.1683e+08,-86.548,0,9.7232e+07,-21.414,11052,12943,1,12943,1,0.0014447,5.8583e-10,0,0.0014447,5.5433e-05,1.372e+08,90.629,0,1.6464e+08,-3.1883,12942,1091.8,0,1091.8,0,0.00099958,1.1255e-09,0,0.0006386,0.00018612,1.8608e+08,192.2,0,1.014e+08,155.49,1091.8,1
3780,6.08,11998,1,11998,1,0.00057953,-1.3836e-10,0,0.00096385,-0.00010572,42.29,-31.772,0,1.5626e+08,28.26,11997,13888,1,13888,1,0.0022526,7.3339e-09,0,0.0022526,0.00020601,1.6906e+08,598.79,0,4.4472e+08,1674.7,13887,11998,1,11998,1,0.00057953,-1.5792e-11,0,0.00086752,-0.00010566,9.6619e+07,-2.5079,0,1.3743e+08,-9.2648,11997,10083,1,10083,1,-0.0010936,-3.7712e-09,0,2.1831e-05,-0.00041772,-4.4472e+08,-1285.9,0,3.9075e+06,-45.3,10082,11053,1,11053,1,-0.000288,-6.0565e-10,0,0.00043376,-0.00026705,-1.1702e+08,-92.575,0,9.739e+07,-17.47,11052,12943,1,12943,1,0.0014471,3.3318e-10,0,0.0014471,5.5523e-05,1.3743e+08,52.514,0,1.649e+08,-1.5831,12942,1091.8,0,1091.8,0,0.0010012,9.4171e-10,0,0.00063965,0.00018643,1.8638e+08,155.38,0,1.0157e+08,158.09,1091.8,1
3780,6.09,11998,1,11998,1,0.00058049,-1.8948e-10,0,0.00096543,-0.0001059,11.524,-38.365,0,1.5651e+08,31.889,11997,13888,1,13888,1,0.0022563,7.707e-09,0,0.0022563,0.00020635,1.6933e+08,632.79,0,4.4545e+08,1673.2,13887,11998,1,11998,1,0.00058048,-7.3171e-11,0,0.00086895,-0.00010583,9.6778e+07,-12.354,0,1.3766e+08,-5.1708,11997,10083,1,10083,1,-0.0010954,-3.6297e-09,0,2.1871e-05,-0.0004184,-4.4545e+08,-1237.6,0,3.9153e+06,-34.626,10082,11053,1,11053,1,-0.00028846,-6.9252e-10,0,0.00043448,-0.00026749,-1.1721e+08,-110.06,0,9.755e+07,-14.693,11052,12943,1,12943,1,0.0014494,2.2466e-10,0,0.0014494,5.5614e-05,1.3766e+08,39.281,0,1.6517e+08,2.8784,12942,1091.8,0,1091.8,0,0.0010029,9.4572e-10,0,0.0006407,0.00018673,1.8669e+08,150.81,0,1.0173e+08,158.24,1091.8,1
3780,6.1,11998,1,11998,1,0.00058144,-1.445e-10,0,0.00096702,-0.00010607,3.7198,-32.577,0,1.5677e+08,34.31,11997,13888,1,13888,1,0.00226,7.9189e-09,0,0.00226,0.00020669,1.696e+08,653.12,0,4.4618e+08,1663,13887,11998,1,11998,1,0.00058144,-6.7402e-11,0,0.00087038,-0.00010601,9.6937e+07,-12.541,0,1.3788e+08,-3.9717,11997,10083,1,10083,1,-0.0010971,-3.5666e-09,0,2.1912e-05,-0.00041909,-4.4618e+08,-1216.1,0,3.9231e+06,-23.364,10082,11053,1,11053,1,-0.00028893,-4.2944e-10,0,0.00043519,-0.00026793,-1.174e+08,-66.097,0,9.7709e+07,-7.8693,11052,12943,1,12943,1,0.0014518,8.5567e-11,0,0.0014518,5.5704e-05,1.3788e+08,14.277,0,1.6544e+08,0.51463,12942,1091.8,0,1091.8,0,0.0010045,7.6109e-10,0,0.00064176,0.00018704,1.8699e+08,124.31,0,1.019e+08,156.17,1091.8,1
3780,6.11,11998,1,11998,1,0.00058241,-1.5523e-10,0,0.00096861,-0.00010625,9.5407,-33.506,0,1.5702e+08,31.865,11997,13888,1,13888,1,0.0022638,7.3334e-09,0,0.0022638,0.00020703,1.6988e+08,598.72,0,4.4691e+08,1668.9,13887,11998,1,11998,1,0.0005824,-3.3651e-11,0,0.00087181,-0.00010618,9.7097e+07,-5.4325,0,1.3811e+08,-5.6229,11997,10083,1,10083,1,-0.0010989,-3.7935e-09,0,2.1953e-05,-0.00041978,-4.4691e+08,-1293.4,0,3.931e+06,-30.35,10082,11053,1,11053,1,-0.0002894,-5.825e-10,0,0.0004359,-0.00026837,-1.1759e+08,-90.353,0,9.7869e+07,-12.28,11052,12943,1,12943,1,0.0014542,2.3141e-10,0,0.0014542,5.5795e-05,1.3811e+08,37.129,0,1.6571e+08,1.0536,12942,1091.8,0,1091.8,0,0.0010062,8.9266e-10,0,0.00064281,0.00018735,1.873e+08,150.21,0,1.0207e+08,156.74,1091.8,1
3780,6.12,11998,1,11998,1,0.00058337,6.9611e-11,0,0.0009702,-0.00010642,-4.311,-0.14757,0,1.5728e+08,30.596,11997,13888,1,13888,1,0.0022675,6.5362e-09,0,0.0022675,0.00020737,1.7015e+08,527.94,0,4.4764e+08,1663,13887,11998,1,11998,1,0.00058336,8.5111e-11,0,0.00087324,-0.00010636,9.7257e+07,15.606,0,1.3833e+08,-5.6979,11997,10083,1,10083,1,-0.0011007,-4.2727e-09,0,2.1993e-05,-0.00042047,-4.4764e+08,-1398.8,0,3.9389e+06,-32.366,10082,11053,1,11053,1,-0.00028988,-4.3626e-10,0,0.00043662,-0.00026881,-1.1779e+08,-63.88,0,9.8028e+07,-13.948,11052,12943,1,12943,1,0.0014566,6.6283e-10,0,0.0014566,5.5886e-05,1.3833e+08,100.25,0,1.6598e+08,1.481,12942,1091.8,0,1091.8,0,0.0010078,1.052e-09,0,0.00064387,0.00018766,1.876e+08,181.65,0,1.0223e+08,155.56,1091.8,1
3780,6.13,11998,1,11998,1,0.00058432,-5.6497e-11,0,0.00097179,-0.0001066,7.3534,-18.43,0,1.5753e+08,34.216,11997,13888,1,13888,1,0.0022712,7.9487e-09,0,0.0022712,0.0002077,1.7042e+08,655.37,0,4.4837e+08,1667.1,13887,11998,1,11998,1,0.00058432,-8.1727e-12,0,0.00087466,-0.00010653,9.7416e+07,-0.8473,0,1.3856e+08,-3.587,11997,10083,1,10083,1,-0.0011025,-3.5905e-09,0,2.2034e-05,-0.00042116,-4.4837e+08,-1224.2,0,3.9467e+06,-26.088,10082,11053,1,11053,1,-0.00029034,-3.5833e-10,0,0.00043733,-0.00026925,-1.1798e+08,-54.23,0,9.8187e+07,-7.8199,11052,12943,1,12943,1,0.001459,1.7542e-10,0,0.001459,5.5976e-05,1.3856e+08,28.219,0,1.6625e+08,1.0141,12942,1091.8,0,1091.8,0,0.0010095,7.6764e-10,0,0.00064492,0.00018796,1.8791e+08,126.81,0,1.024e+08,156.24,1091.8,1
3780,6.14,11998,1,11998,1,0.00058528,-2.9802e-11,0,0.00097338,-0.00010677,4.9421,-15.008,0,1.5779e+08,31.575,11997,13888,1,13888,1,0.0022749,7.4979e-09,0,0.0022749,0.00020804,1.7069e+08,613.33,0,4.491e+08,1703.4,13887,11998,1,11998,1,0.00058528,3.5986e-11,0,0.00087609,-0.00010671,9.7575e+07,6.3643,0,1.3879e+08,-6.8102,11997,10083,1,10083,1,-0.0011043,-3.7673e-09,0,2.2074e-05,-0.00042185,-4.491e+08,-1284.5,0,3.9545e+06,-47.956,10082,11053,1,11053,1,-0.00029081,-5.8885e-10,0,0.00043805,-0.0002697,-1.1817e+08,-88.621,0,9.8347e+07,-15.453,11052,12943,1,12943,1,0.0014614,5.3898e-10,0,0.0014614,5.6067e-05,1.3879e+08,81.196,0,1.6652e+08,2.1203,12942,1091.8,0,1091.8,0,0.0010111,1.0242e-09,0,0.00064598,0.00018827,1.8821e+08,166.16,0,1.0257e+08,161.12,1091.8,1
3780,6.15,11998,1,11998,1,0.00058624,-2.361e-10,0,0.00097497,-0.00010695,6.9866,-45.977,0,1.5805e+08,31.859,11997,13888,1,13888,1,0.0022786,7.1421e-09,0,0.0022786,0.00020838,1.7097e+08,581.78,0,4.4983e+08,1701.9,13887,11998,1,11998,1,0.00058624,-4.2454e-11,0,0.00087752,-0.00010688,9.7735e+07,-5.9006,0,1.3901e+08,-6.5986,11997,10083,1,10083,1,-0.0011061,-3.9372e-09,0,2.2115e-05,-0.00042254,-4.4983e+08,-1342.4,0,3.9624e+06,-43.913,10082,11053,1,11053,1,-0.00029128,-7.7189e-10,0,0.00043876,-0.00027013,-1.1836e+08,-120.39,0,9.8506e+07,-14.626,11052,12943,1,12943,1,0.0014638,3.1107e-10,0,0.0014638,5.6157e-05,1.3901e+08,50.861,0,1.6679e+08,1.7224,12942,1091.8,0,1091.8,0,0.0010128,1.0221e-09,0,0.00064703,0.00018858,1.8852e+08,169.15,0,1.0273e+08,160.56,1091.8,1
3780,6.16,11998,1,11998,1,0.0005872,-9.7741e-11,0,0.00097656,-0.00010712,10.412,-25.664,0,1.583e+08,30.354,11997,13888,1,13888,1,0.0022823,7.0701e-09,0,0.0022823,0.00020872,1.7124e+08,575.45,0,4.5056e+08,1717,13887,11998,1,11998,1,0.0005872,2.3249e-11,0,0.00087895,-0.00010706,9.7894e+07,2.7206,0,1.3924e+08,-8.1239,11997,10083,1,10083,1,-0.0011079,-3.9555e-09,0,2.2156e-05,-0.00042323,-4.5056e+08,-1348.7,0,3.9703e+06,-58.457,10082,11053,1,11053,1,-0.00029175,-7.0163e-10,0,0.00043948,-0.00027058,-1.1855e+08,-104.75,0,9.8666e+07,-15.983,11052,12943,1,12943,1,0.0014662,5.7089e-10,0,0.0014662,5.6248e-05,1.3924e+08,86.065,0,1.6705e+08,1.6522,12942,1091.8,0,1091.8,0,0.0010144,1.1116e-09,0,0.00064809,0.00018888,1.8883e+08,181.79,0,1.029e+08,162.35,1091.8,1
3780,6.17,11998,1,11998,1,0.00058816,-2.3928e-10,0,0.00097814,-0.0001073,17.074,-45.978,0,1.5856e+08,30.894,11997,13888,1,13888,1,0.002286,7.2564e-09,0,0.002286,0.00020906,1.7151e+08,591.4,0,4.5129e+08,1687.4,13887,11998,1,11998,1,0.00058815,-8.6426e-11,0,0.00088037,-0.00010723,9.8053e+07,-14.876,0,1.3946e+08,-6.383,11997,10083,1,10083,1,-0.0011097,-3.8839e-09,0,2.2196e-05,-0.00042391,-4.5129e+08,-1324.3,0,3.9782e+06,-34.173,10082,11053,1,11053,1,-0.00029222,-5.7677e-10,0,0.00044019,-0.00027102,-1.1874e+08,-87.373,0,9.8825e+07,-11.396,11052,12943,1,12943,1,0.0014685,7.8639e-11,0,0.0014685,5.6338e-05,1.3946e+08,13.496,0,1.6732e+08,-0.40465,12942,1091.8,0,1091.8,0,0.0010161,8.3389e-10,0,0.00064914,0.00018919,1.8913e+08,143.45,0,1.0306e+08,157.62,1091.8,1
3780,6.18,11998,1,11998,1,0.00058912,-4.3346e-12,0,0.00097974,-0.00010747,-7.8137,-10.949,0,1.5882e+08,29.367,11997,13888,1,13888,1,0.0022898,6.2294e-09,0,0.0022898,0.0002094,1.7179e+08,562.22,0,4.5203e+08,1695.6,13887,11998,1,11998,1,0.00058912,6.4903e-11,0,0.00088181,-0.00010741,9.8213e+07,12.349,0,1.3969e+08,-7.1961,11997,10083,1,10083,1,-0.0011115,-4.6218e-09,0,2.2237e-05,-0.0004246,-4.5203e+08,-1465.6,0,3.9861e+06,-45.118,10082,11053,1,11053,1,-0.00029269,-6.8815e-10,0,0.00044091,-0.00027146,-1.1893e+08,-101.09,0,9.8985e+07,-17.507,11052,12943,1,12943,1,0.0014709,7.3246e-10,0,0.0014709,5.6429e-05,1.3969e+08,112,0,1.6759e+08,1.783,12942,1091.8,0,1091.8,0,0.0010177,1.2516e-09,0,0.0006502,0.0001895,1.8944e+08,210.42,0,1.0323e+08,159.18,1091.8,1
3780,6.19,11998,1,11998,1,0.00059008,1.1797e-10,0,0.00098132,-0.00010765,-1.8886,7.4864,0,1.5907e+08,32.764,11997,13888,1,13888,1,0.0022935,7.573e-09,0,0.0022935,0.00020974,1.7206e+08,618.82,0,4.5275e+08,1678.5,13887,11998,1,11998,1,0.00059007,8.5257e-11,0,0.00088324,-0.00010758,9.8373e+07,14.358,0,1.3991e+08,-4.5538,11997,10083,1,10083,1,-0.0011133,-3.7741e-09,0,2.2278e-05,-0.00042529,-4.5275e+08,-1286.8,0,3.9941e+06,-28.797,10082,11053,1,11053,1,-0.00029316,-2.476e-10,0,0.00044162,-0.0002719,-1.1912e+08,-36.207,0,9.9144e+07,-9.807,11052,12943,1,12943,1,0.0014733,4.9219e-10,0,0.0014733,5.6519e-05,1.3991e+08,74.401,0,1.6786e+08,0.81237,12942,1091.8,0,1091.8,0,0.0010194,8.5661e-10,0,0.00065125,0.0001898,1.8974e+08,146.85,0,1.034e+08,156.91,1091.8,1
3780,6.2,11998,1,11998,1,0.00059104,2.2503e-11,0,0.00098291,-0.00010782,4.1079,-7.0185,0,1.5933e+08,31.68,11997,13888,1,13888,1,0.0022972,7.2894e-09,0,0.0022972,0.00021007,1.7233e+08,594.3,0,4.5349e+08,1708.5,13887,11998,1,11998,1,0.00059103,6.133e-11,0,0.00088466,-0.00010776,9.8532e+07,12.16,0,1.4014e+08,-6.6568,11997,10083,1,10083,1,-0.0011151,-3.9104e-09,0,2.2319e-05,-0.00042598,-4.5349e+08,-1333.3,0,4.002e+06,-43.996,10082,11053,1,11053,1,-0.00029363,-5.5071e-10,0,0.00044233,-0.00027234,-1.1931e+08,-82.019,0,9.9303e+07,-15.685,11052,12943,1,12943,1,0.0014757,6.1864e-10,0,0.0014757,5.661e-05,1.4014e+08,93.887,0,1.6813e+08,1.9867,12942,1091.8,0,1091.8,0,0.001021,1.0517e-09,0,0.00065231,0.00019011,1.9005e+08,173.65,0,1.0356e+08,161.43,1091.8,1
3780,6.21,11998,1,11998,1,0.000592,8.5878e-13,0,0.0009845,-0.000108,18.623,-9.8559,0,1.5958e+08,30.335,11997,13888,1,13888,1,0.0023009,7.1459e-09,0,0.0023009,0.00021041,1.726e+08,581.28,0,4.5422e+08,1691.4,13887,11998,1,11998,1,0.00059199,5.0792e-11,0,0.0008861,-0.00010793,9.8692e+07,8.3755,0,1.4037e+08,-6.8144,11997,10083,1,10083,1,-0.0011169,-3.955e-09,0,2.236e-05,-0.00042667,-4.5422e+08,-1348.5,0,4.0099e+06,-34.769,10082,11053,1,11053,1,-0.0002941,-4.8653e-10,0,0.00044305,-0.00027278,-1.195e+08,-72.789,0,9.9463e+07,-14.912,11052,12943,1,12943,1,0.0014781,4.8293e-10,0,0.0014781,5.6701e-05,1.4037e+08,74.823,0,1.684e+08,0.65244,12942,1091.8,0,1091.8,0,0.0010227,9.7425e-10,0,0.00065337,0.00019042,1.9035e+08,165.54,0,1.0373e+08,158.8,1091.8,1
3780,6.22,11998,1,11998,1,0.00059296,-9.9032e-11,0,0.00098609,-0.00010817,18.131,-25.401,0,1.5984e+08,31.807,11997,13888,1,13888,1,0.0023046,7.31e-09,0,0.0023046,0.00021075,1.7287e+08,595.82,0,4.5495e+08,1706.8,13887,11998,1,11998,1,0.00059295,1.158e-11,0,0.00088752,-0.00010811,9.8851e+07,1.1564,0,1.4059e+08,-6.8153,11997,10083,1,10083,1,-0.0011187,-3.9321e-09,0,2.24e-05,-0.00042736,-4.5495e+08,-1340.7,0,4.0178e+06,-40.075,10082,11053,1,11053,1,-0.00029457,-5.9116e-10,0,0.00044376,-0.00027322,-1.1969e+08,-88.805,0,9.9622e+07,-14.541,11052,12943,1,12943,1,0.0014805,4.0561e-10,0,0.0014805,5.6791e-05,1.4059e+08,61.986,0,1.6867e+08,1.0764,12942,1091.8,0,1091.8,0,0.0010243,9.6788e-10,0,0.00065442,0.00019073,1.9066e+08,162.21,0,1.039e+08,161.05,1091.8,1
3780,6.23,11998,1,11998,1,0.00059391,-2.3041e-11,0,0.00098768,-0.00010835,33.226,-13.711,0,1.601e+08,32.024,11997,13888,1,13888,1,0.0023083,7.4769e-09,0,0.0023083,0.00021109,1.7315e+08,610.44,0,4.5568e+08,1699.8,13887,11998,1,11998,1,0.00059391,3.565e-11,0,0.00088895,-0.00010828,9.901e+07,6.2746,0,1.4082e+08,-6.1449,11997,10083,1,10083,1,-0.0011205,-3.8672e-09,0,2.2441e-05,-0.00042804,-4.5568e+08,-1318.5,0,4.0258e+06,-33.199,10082,11053,1,11053,1,-0.00029504,-4.6202e-10,0,0.00044448,-0.00027366,-1.1988e+08,-69.206,0,9.9781e+07,-13.178,11052,12943,1,12943,1,0.0014829,4.24e-10,0,0.0014829,5.6881e-05,1.4082e+08,65.309,0,1.6894e+08,0.75258,12942,1091.8,0,1091.8,0,0.001026,9.109e-10,0,0.00065547,0.00019103,1.9096e+08,153.96,0,1.0406e+08,159.76,1091.8,1
3780,6.24,11998,1,11998,1,0.00059488,9.6362e-11,0,0.00098927,-0.00010852,4.163,3.6119,0,1.6035e+08,30.488,11997,13888,1,13888,1,0.0023121,7.0727e-09,0,0.0023121,0.00021143,1.7342e+08,575.03,0,4.5641e+08,1719.8,13887,11998,1,11998,1,0.00059487,1.1043e-10,0,0.00089038,-0.00010846,9.917e+07,19.363,0,1.4104e+08,-7.7463,11997,10083,1,10083,1,-0.0011223,-4.0298e-09,0,2.2482e-05,-0.00042874,-4.5641e+08,-1373.4,0,4.0337e+06,-51.195,10082,11053,1,11053,1,-0.00029551,-5.6808e-10,0,0.00044519,-0.0002741,-1.2007e+08,-82.842,0,9.9941e+07,-17.289,11052,12943,1,12943,1,0.0014853,8.2332e-10,0,0.0014853,5.6972e-05,1.4104e+08,124.04,0,1.692e+08,1.632,12942,1091.8,0,1091.8,0,0.0010276,1.1656e-09,0,0.00065653,0.00019134,1.9127e+08,191.54,0,1.0423e+08,162.55,1091.8,1
3780,6.25,11998,1,11998,1,0.00059583,6.8414e-12,0,0.00099086,-0.0001087,-2.5681,-9.3144,0,1.6061e+08,32.248,11997,13888,1,13888,1,0.0023158,7.2798e-09,0,0.0023158,0.00021177,1.7369e+08,593.02,0,4.5714e+08,1712.3,13887,11998,1,11998,1,0.00059583,5.7274e-11,0,0.00089181,-0.00010863,9.9329e+07,10.98,0,1.4127e+08,-6.0315,11997,10083,1,10083,1,-0.0011241,-3.9681e-09,0,2.2523e-05,-0.00042942,-4.5714e+08,-1352.9,0,4.0416e+06,-37.654,10082,11053,1,11053,1,-0.00029598,-4.8841e-10,0,0.0004459,-0.00027454,-1.2027e+08,-72.166,0,1.001e+08,-13.615,11052,12943,1,12943,1,0.0014876,5.5008e-10,0,0.0014876,5.7062e-05,1.4127e+08,84.507,0,1.6947e+08,1.3526,12942,1091.8,0,1091.8,0,0.0010293,9.893e-10,0,0.00065758,0.00019165,1.9157e+08,167.41,0,1.044e+08,160.92,1091.8,1
3780,6.26,11998,1,11998,1,0.00059679,-1.7668e-11,0,0.00099245,-0.00010887,31.387,-12.956,0,1.6086e+08,29.265,11997,13888,1,13888,1,0.0023195,7.0336e-09,0,0.0023195,0.0002121,1.7396e+08,571.3,0,4.5787e+08,1719.5,13887,11998,1,11998,1,0.00059679,5.15e-11,0,0.00089324,-0.0001088,9.9489e+07,10.68,0,1.415e+08,-8.4976,11997,10083,1,10083,1,-0.0011259,-4.0911e-09,0,2.2564e-05,-0.00043011,-4.5787e+08,-1385.2,0,4.0496e+06,-50.354,10082,11053,1,11053,1,-0.00029645,-6.5036e-10,0,0.00044662,-0.00027498,-1.2046e+08,-97.003,0,1.0026e+08,-18.369,11052,12943,1,12943,1,0.00149,6.5236e-10,0,0.00149,5.7153e-05,1.415e+08,100.74,0,1.6974e+08,0.41391,12942,1091.8,0,1091.8,0,0.0010309,1.1304e-09,0,0.00065864,0.00019195,1.9188e+08,187.3,0,1.0456e+08,162.35,1091.8,1
3780,6.27,11998,1,11998,1,0.00059775,-1.23e-13,0,0.00099403,-0.00010905,10.452,-10.096,0,1.6112e+08,31.694,11997,13888,1,13888,1,0.0023232,7.3831e-09,0,0.0023232,0.00021244,1.7424e+08,601.65,0,4.586e+08,1699.5,13887,11998,1,11998,1,0.00059775,3.4889e-11,0,0.00089466,-0.00010898,9.9648e+07,4.611,0,1.4172e+08,-5.9054,11997,10083,1,10083,1,-0.0011277,-3.9401e-09,0,2.2605e-05,-0.0004308,-4.586e+08,-1343.4,0,4.0576e+06,-33.987,10082,11053,1,11053,1,-0.00029692,-4.619e-10,0,0.00044733,-0.00027542,-1.2065e+08,-70.024,0,1.0042e+08,-13.439,11052,12943,1,12943,1,0.0014924,4.2665e-10,0,0.0014924,5.7243e-05,1.4172e+08,65.82,0,1.7001e+08,0.70888,12942,1091.8,0,1091.8,0,0.0010326,9.4637e-10,0,0.00065969,0.00019226,1.9218e+08,161.53,0,1.0473e+08,159.6,1091.8,1
3780,6.28,11998,1,11998,1,0.00059871,1.4703e-10,0,0.00099563,-0.00010922,7.2123,10.592,0,1.6138e+08,28.517,11997,13888,1,13888,1,0.0023269,6.4006e-09,0,0.0023269,0.00021278,1.7451e+08,578,0,4.5933e+08,1733.8,13887,11998,1,11998,1,0.00059871,1.6045e-10,0,0.0008961,-0.00010915,9.9808e+07,25.961,0,1.4195e+08,-9.0199,11997,10083,1,10083,1,-0.0011295,-4.6157e-09,0,2.2646e-05,-0.00043149,-4.5933e+08,-1473.4,0,4.0655e+06,-69.351,10082,11053,1,11053,1,-0.00029739,-7.1496e-10,0,0.00044805,-0.00027586,-1.2084e+08,-105.53,0,1.0058e+08,-19.452,11052,12943,1,12943,1,0.0014948,1.1485e-09,0,0.0014948,5.7334e-05,1.4195e+08,170.98,0,1.7028e+08,2.3621,12942,1091.8,0,1091.8,0,0.0010342,1.4526e-09,0,0.00066075,0.00019257,1.9249e+08,235.21,0,1.049e+08,164.42,1091.8,1
3780,6.29,11998,1,11998,1,0.00059967,-1.2093e-10,0,0.00099721,-0.0001094,0.18334,-29.122,0,1.6163e+08,34.8,11997,13888,1,13888,1,0.0023306,7.7704e-09,0,0.0023306,0.00021312,1.7478e+08,635.7,0,4.6006e+08,1715,13887,11998,1,11998,1,0.00059966,-1.9827e-11,0,0.00089752,-0.00010933,9.9967e+07,-2.3879,0,1.4217e+08,-4.7552,11997,10083,1,10083,1,-0.0011313,-3.8446e-09,0,2.2687e-05,-0.00043218,-4.6006e+08,-1310.8,0,4.0735e+06,-32.907,10082,11053,1,11053,1,-0.00029785,-5.8295e-10,0,0.00044876,-0.0002763,-1.2103e+08,-89.832,0,1.0074e+08,-11.759,11052,12943,1,12943,1,0.0014972,3.1354e-10,0,0.0014972,5.7424e-05,1.4217e+08,50.158,0,1.7055e+08,2.3066,12942,1091.8,0,1091.8,0,0.0010358,9.1858e-10,0,0.0006618,0.00019287,1.928e+08,152.12,0,1.0506e+08,162.09,1091.8,1
3780,6.3,11998,1,11998,1,0.00060063,-7.1062e-11,0,0.0009988,-0.00010957,-2.8059,-20.653,0,1.6189e+08,34.448,11997,13888,1,13888,1,0.0023343,7.7996e-09,0,0.0023343,0.00021346,1.7505e+08,638.4,0,4.6079e+08,1713.4,13887,11998,1,11998,1,0.00060062,-5.5136e-12,0,0.00089895,-0.0001095,1.0013e+08,-0.72347,0,1.424e+08,-4.1186,11997,10083,1,10083,1,-0.0011331,-3.8036e-09,0,2.2728e-05,-0.00043286,-4.6079e+08,-1296.9,0,4.0815e+06,-28.406,10082,11053,1,11053,1,-0.00029832,-3.8066e-10,0,0.00044948,-0.00027674,-1.2122e+08,-56.126,0,1.009e+08,-8.615,11052,12943,1,12943,1,0.0014996,1.9401e-10,0,0.0014996,5.7515e-05,1.424e+08,31.331,0,1.7082e+08,1.1077,12942,1091.8,0,1091.8,0,0.0010375,8.1068e-10,0,0.00066286,0.00019318,1.931e+08,137.74,0,1.0523e+08,160.41,1091.8,1
3780,6.31,11998,1,11998,1,0.00060159,2.6442e-10,0,0.0010004,-0.00010975,6.7272,29.489,0,1.6214e+08,34.565,11997,13888,1,13888,1,0.002338,8.3854e-09,0,0.002338,0.00021379,1.7532e+08,695.14,0,4.6152e+08,1699,13887,11998,1,11998,1,0.00060159,1.6099e-10,0,0.00090038,-0.00010968,1.0029e+08,25.444,0,1.4263e+08,-3.7986,11997,10083,1,10083,1,-0.0011349,-3.5501e-09,0,2.2769e-05,-0.00043355,-4.6152e+08,-1210.4,0,4.0895e+06,-27.254,10082,11053,1,11053,1,-0.00029879,-1.2072e-11,0,0.00045019,-0.00027719,-1.2141e+08,-1.7837,0,1.0106e+08,-8.0329,11052,12943,1,12943,1,0.001502,5.1302e-10,0,0.001502,5.7605e-05,1.4263e+08,77.519,0,1.7108e+08,0.57743,12942,1091.8,0,1091.8,0,0.0010391,7.8175e-10,0,0.00066391,0.00019349,1.9341e+08,128.01,0,1.054e+08,158.89,1091.8,1
3780,6.32,11998,1,11998,1,0.00060255,1.0153e-10,0,0.001002,-0.00010992,6.4255,4.597,0,1.624e+08,34.358,11997,13888,1,13888,1,0.0023417,7.9617e-09,0,0.0023417,0.00021413,1.756e+08,653.07,0,4.6225e+08,1705.7,13887,11998,1,11998,1,0.00060254,8.1391e-11,0,0.0009018,-0.00010985,1.0045e+08,13.701,0,1.4285e+08,-3.8666,11997,10083,1,10083,1,-0.0011367,-3.7597e-09,0,2.281e-05,-0.00043424,-4.6225e+08,-1281.9,0,4.0975e+06,-24.292,10082,11053,1,11053,1,-0.00029926,-1.3493e-10,0,0.0004509,-0.00027763,-1.216e+08,-20.584,0,1.0122e+08,-8.1303,11052,12943,1,12943,1,0.0015044,3.7366e-10,0,0.0015044,5.7696e-05,1.4285e+08,56.91,0,1.7135e+08,0.26164,12942,1091.8,0,1091.8,0,0.0010408,7.7699e-10,0,0.00066497,0.00019379,1.9371e+08,133.16,0,1.0556e+08,159.43,1091.8,1
3780,6.33,11998,1,11998,1,0.00060351,-4.9321e-11,0,0.0010036,-0.0001101,4.7417,-18.293,0,1.6266e+08,34.773,11997,13888,1,13888,1,0.0023455,7.8739e-09,0,0.0023455,0.00021447,1.7587e+08,644.83,0,4.6298e+08,1722.4,13887,11998,1,11998,1,0.0006035,9.4113e-12,0,0.00090323,-0.00011003,1.006e+08,1.3001,0,1.4308e+08,-4.6168,11997,10083,1,10083,1,-0.0011385,-3.8291e-09,0,2.2851e-05,-0.00043493,-4.6298e+08,-1305.5,0,4.1055e+06,-26.382,10082,11053,1,11053,1,-0.00029973,-4.1335e-10,0,0.00045162,-0.00027807,-1.2179e+08,-61.109,0,1.0137e+08,-11.124,11052,12943,1,12943,1,0.0015067,3.0902e-10,0,0.0015067,5.7786e-05,1.4308e+08,47.929,0,1.7162e+08,1.2948,12942,1091.8,0,1091.8,0,0.0010424,8.4777e-10,0,0.00066602,0.0001941,1.9402e+08,142.4,0,1.0573e+08,162.04,1091.8,1
3780,6.34,11998,1,11998,1,0.00060447,2.2336e-11,0,0.0010052,-0.00011027,8.306,-8.0515,0,1.6291e+08,32.295,11997,13888,1,13888,1,0.0023492,7.4367e-09,0,0.0023492,0.00021481,1.7614e+08,606.26,0,4.6371e+08,1732.1,13887,11998,1,11998,1,0.00060446,4.9206e-11,0,0.00090466,-0.0001102,1.0076e+08,9.0628,0,1.433e+08,-7.0555,11997,10083,1,10083,1,-0.0011403,-3.9738e-09,0,2.2892e-05,-0.00043562,-4.6371e+08,-1354.9,0,4.1135e+06,-41.517,10082,11053,1,11053,1,-0.0003002,-4.5483e-10,0,0.00045233,-0.00027851,-1.2198e+08,-67.298,0,1.0153e+08,-14.697,11052,12943,1,12943,1,0.0015091,5.735e-10,0,0.0015091,5.7877e-05,1.433e+08,85.465,0,1.7189e+08,1.2909,12942,1091.8,0,1091.8,0,0.0010441,9.8712e-10,0,0.00066708,0.00019441,1.9432e+08,165.22,0,1.059e+08,163.3,1091.8,1
3780,6.35,11998,1,11998,1,0.00060543,1.173e-10,0,0.0010067,-0.00011045,10.213,6.9424,0,1.6317e+08,32.373,11997,13888,1,13888,1,0.0023529,7.539e-09,0,0.0023529,0.00021515,1.7641e+08,615.07,0,4.6444e+08,1731.2,13887,11998,1,11998,1,0.00060542,1.1465e-10,0,0.00090609,-0.00011038,1.0092e+08,19.624,0,1.4353e+08,-6.4165,11997,10083,1,10083,1,-0.001142,-3.9554e-09,0,2.2933e-05,-0.00043631,-4.6444e+08,-1348.6,0,4.1215e+06,-37.865,10082,11053,1,11053,1,-0.00030067,-3.5789e-10,0,0.00045305,-0.00027895,-1.2217e+08,-52.103,0,1.0169e+08,-14.467,11052,12943,1,12943,1,0.0015115,6.624e-10,0,0.0015115,5.7967e-05,1.4353e+08,99.375,0,1.7216e+08,0.79988,12942,1091.8,0,1091.8,0,0.0010457,9.8637e-10,0,0.00066814,0.00019472,1.9463e+08,166.1,0,1.0606e+08,162.9,1091.8,1
3780,6.36,11998,1,11998,1,0.00060639,-4.1721e-11,0,0.0010083,-0.00011062,28.198,-17.224,0,1.6342e+08,29.327,11997,13888,1,13888,1,0.0023566,6.8492e-09,0,0.0023566,0.00021549,1.7669e+08,554.32,0,4.6517e+08,1751.1,13887,11998,1,11998,1,0.00060638,5.3257e-11,0,0.00090752,-0.00011055,1.0108e+08,11.081,0,1.4376e+08,-9.2305,11997,10083,1,10083,1,-0.0011438,-4.399e-09,0,2.2974e-05,-0.000437,-4.6517e+08,-1448.6,0,4.1295e+06,-54.189,10082,11053,1,11053,1,-0.00030114,-6.5523e-10,0,0.00045376,-0.00027939,-1.2236e+08,-95.525,0,1.0185e+08,-18.791,11052,12943,1,12943,1,0.0015139,6.6337e-10,0,0.0015139,5.8058e-05,1.4376e+08,100.64,0,1.7243e+08,-0.14593,12942,1091.8,0,1091.8,0,0.0010474,1.171e-09,0,0.00066919,0.00019502,1.9493e+08,195.87,0,1.0623e+08,165.12,1091.8,1
3780,6.37,11998,1,11998,1,0.00060735,-1.7835e-10,0,0.0010099,-0.0001108,5.7144,-37.74,0,1.6368e+08,33.636,11997,13888,1,13888,1,0.0023603,7.9523e-09,0,0.0023603,0.00021582,1.7696e+08,651.45,0,4.659e+08,1738.7,13887,11998,1,11998,1,0.00060734,-8.371e-11,0,0.00090895,-0.00011073,1.0124e+08,-14.281,0,1.4398e+08,-5.5308,11997,10083,1,10083,1,-0.0011456,-3.8212e-09,0,2.3015e-05,-0.00043769,-4.659e+08,-1302.9,0,4.1375e+06,-33.538,10082,11053,1,11053,1,-0.00030161,-5.6165e-10,0,0.00045448,-0.00027983,-1.2255e+08,-86.746,0,1.0201e+08,-11.224,11052,12943,1,12943,1,0.0015163,1.3446e-10,0,0.0015163,5.8148e-05,1.4398e+08,22.925,0,1.727e+08,0.68399,12942,1091.8,0,1091.8,0,0.001049,8.6328e-10,0,0.00067025,0.00019533,1.9524e+08,142.65,0,1.064e+08,163.19,1091.8,1
3780,6.38,11998,1,11998,1,0.00060831,-1.0287e-10,0,0.0010115,-0.00011097,7.7484,-26.698,0,1.6394e+08,31.44,11997,13888,1,13888,1,0.0023641,7.0717e-09,0,0.0023641,0.00021616,1.7723e+08,573.87,0,4.6663e+08,1757.4,13887,11998,1,11998,1,0.0006083,1.6163e-11,0,0.00091038,-0.0001109,1.014e+08,2.4636,0,1.4421e+08,-7.4962,11997,10083,1,10083,1,-0.0011474,-4.246e-09,0,2.3057e-05,-0.00043838,-4.6663e+08,-1425.7,0,4.1456e+06,-51.288,10082,11053,1,11053,1,-0.00030208,-7.4371e-10,0,0.00045519,-0.00028027,-1.2274e+08,-112.58,0,1.0217e+08,-16.578,11052,12943,1,12943,1,0.0015187,5.8169e-10,0,0.0015187,5.8239e-05,1.4421e+08,89.167,0,1.7297e+08,1.4847,12942,1091.8,0,1091.8,0,0.0010507,1.1599e-09,0,0.0006713,0.00019564,1.9554e+08,192.13,0,1.0656e+08,165.74,1091.8,1
3780,6.39,11998,1,11998,1,0.00060927,1.1296e-11,0,0.0010131,-0.00011115,33.548,-8.85,0,1.6419e+08,28.948,11997,13888,1,13888,1,0.0023678,7.0765e-09,0,0.0023678,0.0002165,1.775e+08,573.73,0,4.6736e+08,1737.1,13887,11998,1,11998,1,0.00060926,5.8113e-11,0,0.00091181,-0.00011108,1.0156e+08,10.881,0,1.4443e+08,-8.669,11997,10083,1,10083,1,-0.0011492,-4.2481e-09,0,2.3098e-05,-0.00043907,-4.6736e+08,-1423.4,0,4.1537e+06,-39.483,10082,11053,1,11053,1,-0.00030255,-5.1824e-10,0,0.00045591,-0.00028071,-1.2293e+08,-76.861,0,1.0233e+08,-17.943,11052,12943,1,12943,1,0.0015211,5.7977e-10,0,0.0015211,5.8329e-05,1.4443e+08,89.221,0,1.7323e+08,-1.1184,12942,1091.8,0,1091.8,0,0.0010523,1.0636e-09,0,0.00067236,0.00019594,1.9585e+08,181.88,0,1.0673e+08,163.06,1091.8,1
3780,6.4,11998,1,11998,1,0.00061022,-4.757e-11,0,0.0010147,-0.00011132,13.931,-17.48,0,1.6445e+08,33.393,11997,13888,1,13888,1,0.0023715,7.6935e-09,0,0.0023715,0.00021684,1.7777e+08,628.16,0,4.6809e+08,1741.1,13887,11998,1,11998,1,0.00061022,2.3312e-11,0,0.00091323,-0.00011125,1.0172e+08,3.99,0,1.4466e+08,-5.578,11997,10083,1,10083,1,-0.001151,-3.9711e-09,0,2.3139e-05,-0.00043975,-4.6809e+08,-1353.9,0,4.1617e+06,-32.743,10082,11053,1,11053,1,-0.00030301,-4.3237e-10,0,0.00045662,-0.00028115,-1.2312e+08,-64.177,0,1.0249e+08,-11.597,11052,12943,1,12943,1,0.0015235,3.4634e-10,0,0.0015235,5.842e-05,1.4466e+08,53.58,0,1.735e+08,0.020215,12942,1091.8,0,1091.8,0,0.001054,8.8436e-10,0,0.00067341,0.00019625,1.9615e+08,152,0,1.069e+08,163.29,1091.8,1
3780,6.41,11998,1,11998,1,0.00061119,-1.7892e-10,0,0.0010163,-0.0001115,27.721,-37.38,0,1.647e+08,29.901,11997,13888,1,13888,1,0.0023752,6.9976e-09,0,0.0023752,0.00021718,1.7805e+08,566.88,0,4.6882e+08,1763.3,13887,11998,1,11998,1,0.00061118,4.683e-12,0,0.00091466,-0.00011143,1.0188e+08,0.46941,0,1.4488e+08,-8.9204,11997,10083,1,10083,1,-0.0011528,-4.3821e-09,0,2.318e-05,-0.00044044,-4.6882e+08,-1453.1,0,4.1698e+06,-56.412,10082,11053,1,11053,1,-0.00030348,-8.6037e-10,0,0.00045733,-0.00028159,-1.2331e+08,-131.08,0,1.0265e+08,-19.055,11052,12943,1,12943,1,0.0015259,5.197e-10,0,0.0015259,5.851e-05,1.4488e+08,82.477,0,1.7377e+08,0.49704,12942,1091.8,0,1091.8,0,0.0010556,1.2046e-09,0,0.00067447,0.00019656,1.9646e+08,199.51,0,1.0706e+08,166.89,1091.8,1
3780,6.42,11998,1,11998,1,0.00061214,-6.6449e-11,0,0.0010179,-0.00011167,10.637,-20.994,0,1.6496e+08,32.604,11997,13888,1,13888,1,0.0023789,7.8473e-09,0,0.0023789,0.00021752,1.7832e+08,641.89,0,4.6955e+08,1762.3,13887,11998,1,11998,1,0.00061214,4.0883e-12,0,0.00091609,-0.0001116,1.0204e+08,0.63088,0,1.4511e+08,-7.3466,11997,10083,1,10083,1,-0.0011546,-3.9039e-09,0,2.3222e-05,-0.00044113,-4.6955e+08,-1331.1,0,4.1778e+06,-38.945,10082,11053,1,11053,1,-0.00030395,-5.4355e-10,0,0.00045805,-0.00028203,-1.2351e+08,-83.452,0,1.0281e+08,-15.308,11052,12943,1,12943,1,0.0015282,3.9267e-10,0,0.0015282,5.86e-05,1.4511e+08,60.903,0,1.7404e+08,0.9958,12942,1091.8,0,1091.8,0,0.0010573,9.529e-10,0,0.00067552,0.00019686,1.9677e+08,156.53,0,1.0723e+08,166.13,1091.8,1
3780,6.43,11998,1,11998,1,0.0006131,-2.74e-10,0,0.0010195,-0.00011185,40.371,-51.916,0,1.6522e+08,30.89,11997,13888,1,13888,1,0.0023826,7.5021e-09,0,0.0023826,0.00021785,1.7859e+08,611.38,0,4.7028e+08,1768.1,13887,11998,1,11998,1,0.0006131,-8.9047e-11,0,0.00091752,-0.00011178,1.022e+08,-15.499,0,1.4534e+08,-8.8082,11997,10083,1,10083,1,-0.0011564,-4.0656e-09,0,2.3263e-05,-0.00044182,-4.7028e+08,-1386.2,0,4.1859e+06,-45.375,10082,11053,1,11053,1,-0.00030442,-7.892e-10,0,0.00045876,-0.00028247,-1.237e+08,-123.29,0,1.0297e+08,-17.924,11052,12943,1,12943,1,0.0015306,2.2203e-10,0,0.0015306,5.8691e-05,1.4534e+08,40.551,0,1.7431e+08,0.22074,12942,1091.8,0,1091.8,0,0.0010589,1.0119e-09,0,0.00067658,0.00019717,1.9707e+08,167.24,0,1.074e+08,166.96,1091.8,1
3780,6.44,11998,1,11998,1,0.00061406,-6.485e-11,0,0.001021,-0.00011202,3.1156,-20.402,0,1.6547e+08,33.054,11997,13888,1,13888,1,0.0023863,7.8028e-09,0,0.0023863,0.00021819,1.7886e+08,637.96,0,4.7101e+08,1775.8,13887,11998,1,11998,1,0.00061406,1.3785e-11,0,0.00091895,-0.00011195,1.0236e+08,1.9785,0,1.4556e+08,-7.1308,11997,10083,1,10083,1,-0.0011582,-3.9388e-09,0,2.3304e-05,-0.00044251,-4.7101e+08,-1343,0,4.1939e+06,-45.63,10082,11053,1,11053,1,-0.00030489,-5.9874e-10,0,0.00045948,-0.00028292,-1.2389e+08,-92.432,0,1.0313e+08,-15.847,11052,12943,1,12943,1,0.001533,4.5779e-10,0,0.001533,5.8781e-05,1.4556e+08,70.17,0,1.7458e+08,2.2885,12942,1091.8,0,1091.8,0,0.0010606,1.0174e-09,0,0.00067763,0.00019748,1.9738e+08,165.99,0,1.0756e+08,167.69,1091.8,1
3780,6.45,11998,1,11998,1,0.00061502,-1.4762e-10,0,0.0010226,-0.0001122,5.4193,-33.524,0,1.6573e+08,33.748,11997,13888,1,13888,1,0.00239,7.6077e-09,0,0.00239,0.00021853,1.7913e+08,620.48,0,4.7174e+08,1761.5,13887,11998,1,11998,1,0.00061502,-2.3389e-11,0,0.00092038,-0.00011213,1.0252e+08,-2.4631,0,1.4579e+08,-6.1081,11997,10083,1,10083,1,-0.00116,-4.0533e-09,0,2.3346e-05,-0.0004432,-4.7174e+08,-1382,0,4.2021e+06,-39.085,10082,11053,1,11053,1,-0.00030536,-6.91e-10,0,0.00046019,-0.00028336,-1.2408e+08,-107.42,0,1.0329e+08,-14.301,11052,12943,1,12943,1,0.0015354,3.874e-10,0,0.0015354,5.8872e-05,1.4579e+08,61.321,0,1.7484e+08,1.7234,12942,1091.8,0,1091.8,0,0.0010622,1.0232e-09,0,0.00067869,0.00019779,1.9768e+08,170.18,0,1.0773e+08,166.21,1091.8,1
3780,6.46,11998,1,11998,1,0.00061598,-1.0407e-10,0,0.0010242,-0.00011237,23.096,-26.415,0,1.6598e+08,29.863,11997,13888,1,13888,1,0.0023938,6.893e-09,0,0.0023938,0.00021887,1.7941e+08,557.15,0,4.7247e+08,1760.3,13887,11998,1,11998,1,0.00061598,8.1693e-12,0,0.00092181,-0.0001123,1.0268e+08,1.1495,0,1.4601e+08,-8.023,11997,10083,1,10083,1,-0.0011618,-4.5098e-09,0,2.3387e-05,-0.00044389,-4.7247e+08,-1476.7,0,4.2102e+06,-40.475,10082,11053,1,11053,1,-0.00030583,-6.4817e-10,0,0.00046091,-0.0002838,-1.2427e+08,-97.733,0,1.0345e+08,-17.117,11052,12943,1,12943,1,0.0015378,4.5351e-10,0,0.0015378,5.8962e-05,1.4601e+08,69.842,0,1.7511e+08,-0.36864,12942,1091.8,0,1091.8,0,0.0010639,1.1043e-09,0,0.00067975,0.00019809,1.9799e+08,189.74,0,1.0789e+08,164.9,1091.8,1
3780,6.47,11998,1,11998,1,0.00061694,-6.5407e-11,0,0.0010258,-0.00011255,8.2945,-20.941,0,1.6624e+08,33.543,11997,13888,1,13888,1,0.0023975,7.6287e-09,0,0.0023975,0.00021921,1.7968e+08,621.99,0,4.732e+08,1762.6,13887,11998,1,11998,1,0.00061694,1.0301e-11,0,0.00092323,-0.00011248,1.0284e+08,1.1595,0,1.4624e+08,-6.0346,11997,10083,1,10083,1,-0.0011636,-4.0681e-09,0,2.3428e-05,-0.00044457,-4.732e+08,-1387,0,4.2183e+06,-37.576,10082,11053,1,11053,1,-0.0003063,-6.1118e-10,0,0.00046162,-0.00028424,-1.2446e+08,-93.675,0,1.036e+08,-14.481,11052,12943,1,12943,1,0.0015402,4.7981e-10,0,0.0015402,5.9053e-05,1.4624e+08,74.259,0,1.7538e+08,1.5218,12942,1091.8,0,1091.8,0,0.0010655,1.0272e-09,0,0.0006808,0.0001984,1.9829e+08,171.94,0,1.0806e+08,166.27,1091.8,1
3780,6.48,11998,1,11998,1,0.0006179,-7.5336e-11,0,0.0010274,-0.00011272,-1.6592,-22.039,0,1.6649e+08,37.835,11997,13888,1,13888,1,0.0024012,8.6387e-09,0,0.0024012,0.00021954,1.7995e+08,717.15,0,4.7393e+08,1760.9,13887,11998,1,11998,1,0.0006179,-2.5398e-11,0,0.00092466,-0.00011265,1.03e+08,-3.8521,0,1.4646e+08,-3.7426,11997,10083,1,10083,1,-0.0011654,-3.6645e-09,0,2.347e-05,-0.00044526,-4.7393e+08,-1249.4,0,4.2264e+06,-23.079,10082,11053,1,11053,1,-0.00030676,-3.8186e-10,0,0.00046233,-0.00028468,-1.2465e+08,-57.961,0,1.0376e+08,-8.2414,11052,12943,1,12943,1,0.0015426,1.6335e-10,0,0.0015426,5.9143e-05,1.4646e+08,26.801,0,1.7565e+08,2.2258,12942,1091.8,0,1091.8,0,0.0010672,7.9416e-10,0,0.00068185,0.00019871,1.986e+08,125.33,0,1.0823e+08,165.78,1091.8,1
3780,6.49,11998,1,11998,1,0.00061886,-1.0013e-10,0,0.001029,-0.0001129,4.6418,-25.863,0,1.6675e+08,35.33,11997,13888,1,13888,1,0.0024049,8.1194e-09,0,0.0024049,0.00021988,1.8022e+08,666.1,0,4.7466e+08,1782.9,13887,11998,1,11998,1,0.00061886,-3.268e-12,0,0.00092609,-0.00011283,1.0316e+08,-0.38432,0,1.4669e+08,-5.6776,11997,10083,1,10083,1,-0.0011672,-3.8833e-09,0,2.3511e-05,-0.00044595,-4.7466e+08,-1324.1,0,4.2345e+06,-36.866,10082,11053,1,11053,1,-0.00030723,-5.7647e-10,0,0.00046305,-0.00028512,-1.2484e+08,-87.834,0,1.0392e+08,-12.787,11052,12943,1,12943,1,0.001545,3.5338e-10,0,0.001545,5.9233e-05,1.4669e+08,55.321,0,1.7592e+08,2.1236,12942,1091.8,0,1091.8,0,0.0010688,9.4992e-10,0,0.00068291,0.00019901,1.989e+08,154.83,0,1.0839e+08,168.11,1091.8,1
3780,6.5,11998,1,11998,1,0.00061982,-1.6858e-11,0,0.0010306,-0.00011307,1.7086,-13.846,0,1.6701e+08,35.75,11997,13888,1,13888,1,0.0024086,8.3401e-09,0,0.0024086,0.00022022,1.8049e+08,687.28,0,4.7539e+08,1764.2,13887,11998,1,11998,1,0.00061982,-3.0273e-12,0,0.00092752,-0.000113,1.0332e+08,-0.46741,0,1.4692e+08,-4.8843,11997,10083,1,10083,1,-0.001169,-3.7849e-09,0,2.3553e-05,-0.00044664,-4.7539e+08,-1290.5,0,4.2426e+06,-25.015,10082,11053,1,11053,1,-0.0003077,-3.1784e-10,0,0.00046376,-0.00028556,-1.2503e+08,-48.023,0,1.0408e+08,-9.897,11052,12943,1,12943,1,0.0015473,2.4867e-10,0,0.0015473,5.9324e-05,1.4692e+08,37.69,0,1.7619e+08,0.91026,12942,1091.8,0,1091.8,0,0.0010705,8.0552e-10,0,0.00068396,0.00019932,1.9921e+08,132.65,0,1.0856e+08,165.52,1091.8,1
3780,6.51,11998,1,11998,1,0.00062078,-1.8078e-10,0,0.0010322,-0.00011325,13.913,-38.952,0,1.6726e+08,33.098,11997,13888,1,13888,1,0.0024123,7.6113e-09,0,0.0024123,0.00022056,1.8076e+08,620.58,0,4.7612e+08,1787.1,13887,11998,1,11998,1,0.00062078,-5.2891e-11,0,0.00092895,-0.00011318,1.0348e+08,-9.2495,0,1.4714e+08,-7.4981,11997,10083,1,10083,1,-0.0011708,-4.0908e-09,0,2.3594e-05,-0.00044733,-4.7612e+08,-1394.8,0,4.2507e+06,-40.023,10082,11053,1,11053,1,-0.00030817,-6.7125e-10,0,0.00046448,-0.000286,-1.2522e+08,-103.15,0,1.0424e+08,-15.805,11052,12943,1,12943,1,0.0015497,3.0974e-10,0,0.0015497,5.9414e-05,1.4714e+08,50.871,0,1.7646e+08,1.5938,12942,1091.8,0,1091.8,0,0.0010721,9.9777e-10,0,0.00068502,0.00019963,1.9951e+08,165.91,0,1.0873e+08,168.48,1091.8,1
3780,6.52,11998,1,11998,1,0.00062174,-1.3086e-10,0,0.0010338,-0.00011342,4.7253,-30.953,0,1.6752e+08,36.415,11997,13888,1,13888,1,0.002416,8.3468e-09,0,0.002416,0.0002209,1.8103e+08,687.45,0,4.7685e+08,1779.6,13887,11998,1,11998,1,0.00062174,-4.9543e-11,0,0.00093038,-0.00011335,1.0363e+08,-8.4332,0,1.4737e+08,-5.1409,11997,10083,1,10083,1,-0.0011726,-3.825e-09,0,2.3636e-05,-0.00044802,-4.7685e+08,-1304.2,0,4.2589e+06,-28.217,10082,11053,1,11053,1,-0.00030864,-4.9948e-10,0,0.00046519,-0.00028644,-1.2541e+08,-75.627,0,1.044e+08,-10.971,11052,12943,1,12943,1,0.0015521,1.8971e-10,0,0.0015521,5.9504e-05,1.4737e+08,31.3,0,1.7672e+08,2.1551,12942,1091.8,0,1091.8,0,0.0010738,8.5058e-10,0,0.00068607,0.00019993,1.9982e+08,138.06,0,1.0889e+08,167.73,1091.8,1
3780,6.53,11998,1,11998,1,0.0006227,-6.9893e-11,0,0.0010353,-0.0001136,8.2512,-21.802,0,1.6777e+08,35.663,11997,13888,1,13888,1,0.0024198,8.284e-09,0,0.0024198,0.00022124,1.8131e+08,681.45,0,4.7758e+08,1786.4,13887,11998,1,11998,1,0.0006227,-1.0226e-11,0,0.0009318,-0.00011353,1.0379e+08,-1.7266,0,1.4759e+08,-5.5271,11997,10083,1,10083,1,-0.0011744,-3.8426e-09,0,2.3677e-05,-0.00044871,-4.7758e+08,-1310.2,0,4.267e+06,-35.347,10082,11053,1,11053,1,-0.00030911,-5.1494e-10,0,0.0004659,-0.00028688,-1.256e+08,-78.853,0,1.0456e+08,-13.419,11052,12943,1,12943,1,0.0015545,3.4005e-10,0,0.0015545,5.9595e-05,1.4759e+08,53.632,0,1.7699e+08,2.9967,12942,1091.8,0,1091.8,0,0.0010754,9.1738e-10,0,0.00068713,0.00020024,2.0012e+08,147.98,0,1.0906e+08,168.7,1091.8,1
3780,6.54,11998,1,11998,1,0.00062366,-1.7863e-10,0,0.0010369,-0.00011377,21.542,-39.234,0,1.6803e+08,30.73,11997,13888,1,13888,1,0.0024235,7.4222e-09,0,0.0024235,0.00022158,1.8158e+08,603.64,0,4.7831e+08,1790.5,13887,11998,1,11998,1,0.00062366,-5.3273e-11,0,0.00093324,-0.0001137,1.0395e+08,-9.4461,0,1.4782e+08,-8.7454,11997,10083,1,10083,1,-0.0011762,-4.1882e-09,0,2.3719e-05,-0.0004494,-4.7831e+08,-1428,0,4.2752e+06,-39.861,10082,11053,1,11053,1,-0.00030958,-6.7898e-10,0,0.00046662,-0.00028732,-1.2579e+08,-104.28,0,1.0472e+08,-18.328,11052,12943,1,12943,1,0.0015569,3.2694e-10,0,0.0015569,5.9685e-05,1.4782e+08,52.368,0,1.7726e+08,-0.25171,12942,1091.8,0,1091.8,0,0.0010771,1.0269e-09,0,0.00068819,0.00020055,2.0043e+08,172.09,0,1.0923e+08,168.7,1091.8,1
3780,6.55,11998,1,11998,1,0.00062462,-8.4862e-11,0,0.0010385,-0.00011395,4.1959,-24.324,0,1.6829e+08,34.956,11997,13888,1,13888,1,0.0024272,8.2077e-09,0,0.0024272,0.00022191,1.8185e+08,673.31,0,4.7904e+08,1784.3,13887,11998,1,11998,1,0.00062462,-1.3509e-11,0,0.00093466,-0.00011388,1.0411e+08,-2.0363,0,1.4805e+08,-5.5682,11997,10083,1,10083,1,-0.001178,-3.8995e-09,0,2.376e-05,-0.00045008,-4.7904e+08,-1329.6,0,4.2833e+06,-26.294,10082,11053,1,11053,1,-0.00031004,-4.3526e-10,0,0.00046733,-0.00028776,-1.2598e+08,-65.916,0,1.0488e+08,-11.278,11052,12943,1,12943,1,0.0015593,2.4618e-10,0,0.0015593,5.9776e-05,1.4805e+08,38.498,0,1.7753e+08,0.2082,12942,1091.8,0,1091.8,0,0.0010787,8.5369e-10,0,0.00068924,0.00020086,2.0073e+08,142.1,0,1.0939e+08,167.18,1091.8,1
3780,6.56,11998,1,11998,1,0.00062558,-1.1846e-10,0,0.0010401,-0.00011412,8.838,-29.193,0,1.6854e+08,33.38,11997,13888,1,13888,1,0.0024309,7.9051e-09,0,0.0024309,0.00022225,1.8212e+08,646.41,0,4.7977e+08,1816.1,13887,11998,1,11998,1,0.00062558,2.065e-12,0,0.00093609,-0.00011405,1.0427e+08,0.37981,0,1.4827e+08,-7.7293,11997,10083,1,10083,1,-0.0011797,-4.0388e-09,0,2.3802e-05,-0.00045077,-4.7977e+08,-1377.1,0,4.2915e+06,-47.242,10082,11053,1,11053,1,-0.00031051,-6.417e-10,0,0.00046805,-0.0002882,-1.2617e+08,-96.812,0,1.0504e+08,-15.311,11052,12943,1,12943,1,0.0015617,4.2942e-10,0,0.0015617,5.9866e-05,1.4827e+08,65.268,0,1.778e+08,0.93605,12942,1091.8,0,1091.8,0,0.0010804,1.0329e-09,0,0.0006903,0.00020116,2.0104e+08,169.39,0,1.0956e+08,171.12,1091.8,1
3780,6.57,11998,1,11998,1,0.00062654,-2.6307e-11,0,0.0010417,-0.0001143,2.4931,-15.438,0,1.688e+08,35.707,11997,13888,1,13888,1,0.0024346,8.5166e-09,0,0.0024346,0.00022259,1.8239e+08,703.66,0,4.805e+08,1802.1,13887,11998,1,11998,1,0.00062654,1.341e-11,0,0.00093752,-0.00011423,1.0443e+08,2.2123,0,1.485e+08,-5.9312,11997,10083,1,10083,1,-0.0011815,-3.8073e-09,0,2.3844e-05,-0.00045146,-4.805e+08,-1298.2,0,4.2997e+06,-35.503,10082,11053,1,11053,1,-0.00031098,-4.6515e-10,0,0.00046876,-0.00028865,-1.2636e+08,-69.051,0,1.052e+08,-12.538,11052,12943,1,12943,1,0.0015641,3.9216e-10,0,0.0015641,5.9957e-05,1.485e+08,59.437,0,1.7806e+08,1.827,12942,1091.8,0,1091.8,0,0.001082,9.1677e-10,0,0.00069135,0.00020147,2.0134e+08,147.1,0,1.0973e+08,169.9,1091.8,1
3780,6.58,11998,1,11998,1,0.0006275,-2.2711e-11,0,0.0010433,-0.00011447,15.008,-14.577,0,1.6905e+08,36.851,11997,13888,1,13888,1,0.0024383,8.9332e-09,0,0.0024383,0.00022293,1.8266e+08,744.27,0,4.8123e+08,1791.5,13887,11998,1,11998,1,0.0006275,9.4649e-13,0,0.00093895,-0.0001144,1.0459e+08,0.10404,0,1.4872e+08,-4.8603,11997,10083,1,10083,1,-0.0011833,-3.6611e-09,0,2.3885e-05,-0.00045215,-4.8123e+08,-1248.3,0,4.3079e+06,-24.49,10082,11053,1,11053,1,-0.00031145,-3.6883e-10,0,0.00046947,-0.00028909,-1.2655e+08,-55.932,0,1.0536e+08,-10.657,11052,12943,1,12943,1,0.0015664,2.5238e-10,0,0.0015664,6.0047e-05,1.4872e+08,38.603,0,1.7833e+08,1.1467,12942,1091.8,0,1091.8,0,0.0010837,8.3155e-10,0,0.00069241,0.00020178,2.0165e+08,129.29,0,1.0989e+08,168.96,1091.8,1
3780,6.59,11998,1,11998,1,0.00062846,-1.3685e-10,0,0.0010449,-0.00011465,34.234,-33.028,0,1.6931e+08,31.382,11997,13888,1,13888,1,0.0024421,7.9191e-09,0,0.0024421,0.00022327,1.8294e+08,647.47,0,4.8196e+08,1818.3,13887,11998,1,11998,1,0.00062846,-2.0805e-11,0,0.00094038,-0.00011458,1.0475e+08,-3.7924,0,1.4895e+08,-9.4147,11997,10083,1,10083,1,-0.0011851,-4.0636e-09,0,2.3927e-05,-0.00045284,-4.8196e+08,-1385.5,0,4.3161e+06,-49.559,10082,11053,1,11053,1,-0.00031192,-7.3072e-10,0,0.00047019,-0.00028953,-1.2674e+08,-112.72,0,1.0551e+08,-20.037,11052,12943,1,12943,1,0.0015688,4.5732e-10,0,0.0015688,6.0137e-05,1.4895e+08,70.294,0,1.786e+08,0.4966,12942,1091.8,0,1091.8,0,0.0010853,1.0927e-09,0,0.00069346,0.00020208,2.0196e+08,176.62,0,1.1006e+08,172.29,1091.8,1
3780,6.6,11998,1,11998,1,0.00062942,3.2344e-13,0,0.0010465,-0.00011482,21.616,-11.472,0,1.6956e+08,31.853,11997,13888,1,13888,1,0.0024458,7.6473e-09,0,0.0024458,0.0002236,1.8321e+08,623.11,0,4.8269e+08,1809.7,13887,11998,1,11998,1,0.00062942,4.4899e-11,0,0.00094181,-0.00011475,1.0491e+08,8.8791,0,1.4918e+08,-8.6951,11997,10083,1,10083,1,-0.0011869,-4.1655e-09,0,2.3969e-05,-0.00045353,-4.8269e+08,-1420.2,0,4.3243e+06,-47.765,10082,11053,1,11053,1,-0.00031239,-5.75e-10,0,0.00047091,-0.00028997,-1.2693e+08,-84.747,0,1.0567e+08,-18.004,11052,12943,1,12943,1,0.0015712,6.1848e-10,0,0.0015712,6.0228e-05,1.4918e+08,93.475,0,1.7887e+08,0.42949,12942,1091.8,0,1091.8,0,0.001087,1.0932e-09,0,0.00069452,0.00020239,2.0226e+08,181.24,0,1.1022e+08,170.84,1091.8,1
3780,6.61,11998,1,11998,1,0.00063039,-4.0402e-10,0,0.0010481,-0.000115,-4.5697,-69.405,0,1.6982e+08,36.359,11997,13888,1,13888,1,0.0024495,8.179e-09,0,0.0024495,0.00022394,1.8346e+08,687.28,0,4.8343e+08,1632.8,13887,11998,1,11998,1,0.00063039,-2.2549e-10,0,0.00094325,-0.00011493,1.0507e+08,-40.575,0,1.494e+08,7.9787,11997,10083,1,10083,1,-0.0011887,-3.5139e-09,0,2.4016e-05,-0.00045422,-4.8343e+08,-1198,0,4.3341e+06,-62.486,10082,11053,1,11053,1,-0.00031286,-9.0035e-10,0,0.00047162,-0.00029041,-1.2712e+08,-143.53,0,1.0583e+08,-12.072,11052,12943,1,12943,1,0.0015736,9.2343e-11,0,0.0015736,6.0318e-05,1.494e+08,14.418,0,1.7913e+08,29.769,12942,1091.8,0,1091.8,0,0.0010886,1.0158e-09,0,0.00069558,0.0002027,2.0257e+08,144.84,0,1.1039e+08,148.15,1091.8,1
3780,6.62,11998,1,11998,1,0.00063137,-3.5771e-10,0,0.0010497,-0.00011518,-3.63,-61.848,0,1.7008e+08,31.024,11997,13888,1,13888,1,0.0024533,7.7063e-09,0,0.0024533,0.00022428,1.837e+08,642.38,0,4.8416e+08,1672.7,13887,11998,1,11998,1,0.00063136,-3.9213e-10,0,0.00094468,-0.00011511,1.0523e+08,-62.49,0,1.4963e+08,2.1379,11997,10083,1,10083,1,-0.0011905,-3.8314e-09,0,2.4067e-05,-0.00045492,-4.8416e+08,-1273.8,0,4.345e+06,-80.687,10082,11053,1,11053,1,-0.00031332,-9.215e-10,0,0.00047234,-0.00029086,-1.2731e+08,-139.54,0,1.0599e+08,-11.565,11052,12943,1,12943,1,0.0015761,2.0316e-11,0,0.0015761,6.0407e-05,1.4963e+08,4.2099,0,1.7937e+08,14.144,12942,1091.8,0,1091.8,0,0.0010903,9.5994e-10,0,0.00069665,0.00020301,2.0287e+08,150.68,0,1.1056e+08,153.55,1091.8,1
3780,6.63,11998,1,11998,1,0.00063233,-1.7424e-10,0,0.0010513,-0.00011535,-3.2375,-37.217,0,1.7033e+08,34.143,11997,13888,1,13888,1,0.002457,8.3335e-09,0,0.002457,0.00022462,1.8393e+08,699.77,0,4.8488e+08,1735.2,13887,11998,1,11998,1,0.00063233,-1.8343e-10,0,0.00094611,-0.00011529,1.0539e+08,-30.902,0,1.4986e+08,-3.0983,11997,10083,1,10083,1,-0.0011923,-3.6309e-09,0,2.4117e-05,-0.00045561,-4.8488e+08,-1238,0,4.356e+06,-39.245,10082,11053,1,11053,1,-0.00031378,-6.0507e-10,0,0.00047305,-0.0002913,-1.275e+08,-87.649,0,1.0615e+08,-7.4143,11052,12943,1,12943,1,0.0015784,4.2454e-11,0,0.0015784,6.0495e-05,1.4986e+08,5.9321,0,1.7961e+08,1.6827,12942,1091.8,0,1091.8,0,0.0010919,8.0407e-10,0,0.0006977,0.00020331,2.0317e+08,127.14,0,1.1072e+08,160.73,1091.8,1
3780,6.64,11998,1,11998,1,0.00063332,1.8724e-10,0,0.0010529,-0.00011553,-1.6444,18.937,0,1.7059e+08,29.645,11997,13888,1,13888,1,0.0024608,7.295e-09,0,0.0024608,0.00022496,1.8417e+08,629.04,0,4.8562e+08,1738.2,13887,11998,1,11998,1,0.00063331,1.5237e-10,0,0.00094755,-0.00011546,1.0556e+08,25.094,0,1.5009e+08,-8.4009,11997,10083,1,10083,1,-0.0011941,-4.0511e-09,0,2.4168e-05,-0.00045631,-4.8562e+08,-1360.2,0,4.3671e+06,-91.184,10082,11053,1,11053,1,-0.00031424,-7.8495e-10,0,0.00047378,-0.00029175,-1.2769e+08,-129.16,0,1.0631e+08,-23.019,11052,12943,1,12943,1,0.0015809,1.0983e-09,0,0.0015809,6.0585e-05,1.5009e+08,173.8,0,1.7985e+08,17.536,12942,1091.8,0,1091.8,0,0.0010936,1.4767e-09,0,0.00069878,0.00020363,2.0348e+08,230.65,0,1.1089e+08,163.9,1091.8,1
3780,6.65,11998,1,11998,1,0.00063429,-5.1505e-10,0,0.0010545,-0.00011571,-1.564,-84.953,0,1.7084e+08,32.693,11997,13888,1,13888,1,0.0024645,7.1874e-09,0,0.0024645,0.0002253,1.844e+08,590.5,0,4.8635e+08,1704.9,13887,11998,1,11998,1,0.00063428,-4.5409e-10,0,0.00094899,-0.00011564,1.0572e+08,-72.975,0,1.5031e+08,-0.96007,11997,10083,1,10083,1,-0.0011959,-4.0557e-09,0,2.422e-05,-0.000457,-4.8635e+08,-1382.7,0,4.3782e+06,-54.885,10082,11053,1,11053,1,-0.0003147,-1.2006e-09,0,0.00047449,-0.00029219,-1.2787e+08,-167.83,0,1.0647e+08,-10.019,11052,12943,1,12943,1,0.0015833,5.71e-12,0,0.0015833,6.0674e-05,1.5031e+08,0.94227,0,1.8009e+08,8.9961,12942,1091.8,0,1091.8,0,0.0010952,9.6431e-10,0,0.00069984,0.00020393,2.0378e+08,160.33,0,1.1105e+08,157.08,1091.8,1
3780,6.66,11998,1,11998,1,0.00063526,4.3314e-12,0,0.0010561,-0.00011589,-0.29128,-11.037,0,1.7109e+08,36.076,11997,13888,1,13888,1,0.0024682,8.635e-09,0,0.0024682,0.00022563,1.8463e+08,728.28,0,4.8707e+08,1733.6,13887,11998,1,11998,1,0.00063525,2.9225e-12,0,0.00095041,-0.00011582,1.0588e+08,0.6787,0,1.5054e+08,-3.3395,11997,10083,1,10083,1,-0.0011977,-3.5406e-09,0,2.4271e-05,-0.00045768,-4.8707e+08,-1207.2,0,4.3893e+06,-18.446,10082,11053,1,11053,1,-0.00031516,-2.4298e-10,0,0.00047521,-0.00029263,-1.2806e+08,-38.479,0,1.0663e+08,-7.4067,11052,12943,1,12943,1,0.0015857,1.8509e-10,0,0.0015857,6.0763e-05,1.5054e+08,28.176,0,1.8033e+08,1.7736,12942,1091.8,0,1091.8,0,0.0010969,7.4323e-10,0,0.0007009,0.00020424,2.0408e+08,116.71,0,1.1122e+08,160.35,1091.8,1
3780,6.67,11998,1,11998,1,0.00063623,-1.5795e-10,0,0.0010577,-0.00011606,11.894,-34.222,0,1.7135e+08,36.081,11997,13888,1,13888,1,0.0024719,8.621e-09,0,0.0024719,0.00022597,1.8487e+08,727.13,0,4.878e+08,1737.7,13887,11998,1,11998,1,0.00063623,-1.4288e-10,0,0.00095185,-0.000116,1.0604e+08,-23.146,0,1.5077e+08,-3.2514,11997,10083,1,10083,1,-0.0011995,-3.5286e-09,0,2.4322e-05,-0.00045838,-4.878e+08,-1203.1,0,4.4004e+06,-24.145,10082,11053,1,11053,1,-0.00031562,-4.2078e-10,0,0.00047592,-0.00029308,-1.2825e+08,-59.91,0,1.0679e+08,-5.9198,11052,12943,1,12943,1,0.0015881,-1.7112e-11,0,0.0015881,6.0852e-05,1.5077e+08,-2.1282,0,1.8058e+08,0.57012,12942,1091.8,0,1091.8,0,0.0010985,7.2583e-10,0,0.00070196,0.00020455,2.0439e+08,111.79,0,1.1138e+08,160.87,1091.8,1
3780,6.68,11998,1,11998,1,0.00063721,-8.9531e-12,0,0.0010593,-0.00011624,3.9261,-11.122,0,1.716e+08,36.011,11997,13888,1,13888,1,0.0024757,8.2291e-09,0,0.0024757,0.00022631,1.8511e+08,691.68,0,4.8853e+08,1711,13887,11998,1,11998,1,0.00063721,1.8078e-11,0,0.00095329,-0.00011617,1.062e+08,2.9445,0,1.51e+08,-2.265,11997,10083,1,10083,1,-0.0012013,-3.5966e-09,0,2.4374e-05,-0.00045908,-4.8853e+08,-1226.3,0,4.4116e+06,-25.44,10082,11053,1,11053,1,-0.00031609,-2.9322e-10,0,0.00047665,-0.00029353,-1.2844e+08,-45.856,0,1.0695e+08,-5.6653,11052,12943,1,12943,1,0.0015905,2.4455e-10,0,0.0015905,6.0941e-05,1.51e+08,35.69,0,1.8082e+08,4.173,12942,1091.8,0,1091.8,0,0.0011002,7.3934e-10,0,0.00070303,0.00020486,2.0469e+08,120.03,0,1.1155e+08,157.62,1091.8,1
3780,6.69,11998,1,11998,1,0.00063818,-8.0769e-11,0,0.0010609,-0.00011642,-1.4157,-23.401,0,1.7186e+08,34.081,11997,13888,1,13888,1,0.0024794,8.2719e-09,0,0.0024794,0.00022665,1.8534e+08,694.94,0,4.8926e+08,1745.1,13887,11998,1,11998,1,0.00063817,-2.3574e-11,0,0.00095472,-0.00011635,1.0637e+08,-3.7613,0,1.5122e+08,-4.5832,11997,10083,1,10083,1,-0.0012031,-3.6905e-09,0,2.4425e-05,-0.00045977,-4.8926e+08,-1258.3,0,4.4227e+06,-25.588,10082,11053,1,11053,1,-0.00031654,-4.1539e-10,0,0.00047736,-0.00029397,-1.2862e+08,-64.673,0,1.071e+08,-11.368,11052,12943,1,12943,1,0.0015929,2.0505e-10,0,0.0015929,6.103e-05,1.5122e+08,34.043,0,1.8106e+08,2.6349,12942,1091.8,0,1091.8,0,0.0011019,7.9927e-10,0,0.00070409,0.00020516,2.0499e+08,129.19,0,1.1171e+08,161.25,1091.8,1
3780,6.7,11998,1,11998,1,0.00063917,-9.4213e-10,0,0.0010625,-0.0001166,-20.037,-159.83,0,1.7211e+08,8.2031,11997,13888,1,13888,1,0.0024833,6.4026e-09,0,0.0024833,0.00022699,1.8558e+08,917.54,0,4.9e+08,1868.3,13887,11998,1,11998,1,0.00063916,-1.082e-10,0,0.00095617,-0.00011653,1.0653e+08,-23.584,0,1.5145e+08,-10.53,11997,10083,1,10083,1,-0.0012049,-1.0339e-08,0,2.4475e-05,-0.00046047,-4.9e+08,-2398,0,4.4335e+06,-297,10082,11053,1,11053,1,-0.00031701,-3.5316e-09,0,0.00047809,-0.00029442,-1.2881e+08,-567.06,0,1.0726e+08,-64.435,11052,12943,1,12943,1,0.0015953,2.0422e-09,0,0.0015953,6.1119e-05,1.5145e+08,309.58,0,1.813e+08,35.903,12942,1091.8,0,1091.8,0,0.0011035,4.1438e-09,0,0.00070517,0.00020548,2.053e+08,617.48,0,1.1188e+08,189.37,1091.8,1
3780,6.71,11998,1,11998,1,0.00064013,-1.5683e-10,0,0.0010641,-0.00011678,-2.3519,-36.152,0,1.7236e+08,34.056,11997,13888,1,13888,1,0.0024869,7.9587e-09,0,0.0024869,0.00022732,1.858e+08,658.67,0,4.9072e+08,1750.7,13887,11998,1,11998,1,0.00064012,-5.6514e-11,0,0.00095759,-0.00011671,1.0669e+08,-7.5045,0,1.5168e+08,-4.1877,11997,10083,1,10083,1,-0.0012067,-3.9522e-09,0,2.4528e-05,-0.00046115,-4.9072e+08,-1347.5,0,4.4451e+06,-38.714,10082,11053,1,11053,1,-0.00031747,-6.2834e-10,0,0.0004788,-0.00029486,-1.29e+08,-101.39,0,1.0742e+08,-13.388,11052,12943,1,12943,1,0.0015977,2.8275e-10,0,0.0015977,6.1207e-05,1.5168e+08,50.523,0,1.8154e+08,6.7744,12942,1091.8,0,1091.8,0,0.0011052,9.4413e-10,0,0.00070622,0.00020578,2.056e+08,158.79,0,1.1205e+08,162,1091.8,1
3780,6.72,11998,1,11998,1,0.00064111,-7.4853e-10,0,0.0010657,-0.00011696,-19.131,-124.65,0,1.7262e+08,10.392,11997,13888,1,13888,1,0.0024907,4.5091e-09,0,0.0024907,0.00022767,1.8604e+08,833.15,0,4.9146e+08,1774.2,13887,11998,1,11998,1,0.00064111,-1.7672e-10,0,0.00095904,-0.00011689,1.0685e+08,-24.093,0,1.5191e+08,-20.961,11997,10083,1,10083,1,-0.0012085,-8.0256e-09,0,2.4579e-05,-0.00046186,-4.9146e+08,-2096.8,0,4.4562e+06,-127.57,10082,11053,1,11053,1,-0.00031793,-2.3465e-09,0,0.00047952,-0.00029531,-1.2919e+08,-358.21,0,1.0758e+08,-47.367,11052,12943,1,12943,1,0.0016001,7.7814e-10,0,0.0016001,6.1297e-05,1.5191e+08,144.79,0,1.8178e+08,8.2879,12942,1091.8,0,1091.8,0,0.0011069,2.6084e-09,0,0.00070729,0.00020609,2.0591e+08,406.02,0,1.1221e+08,163.18,1091.8,1
3780,6.73,11998,1,11998,1,0.00064208,-1.1545e-10,0,0.0010673,-0.00011713,15.389,-29.589,0,1.7287e+08,30.499,11997,13888,1,13888,1,0.0024944,7.4931e-09,0,0.0024944,0.000228,1.8627e+08,615.1,0,4.9218e+08,1749.7,13887,11998,1,11998,1,0.00064207,-5.5716e-12,0,0.00096046,-0.00011706,1.0701e+08,-0.89582,0,1.5214e+08,-6.9098,11997,10083,1,10083,1,-0.0012103,-4.118e-09,0,2.4631e-05,-0.00046254,-4.9218e+08,-1404,0,4.4676e+06,-37.932,10082,11053,1,11053,1,-0.00031839,-5.1559e-10,0,0.00048023,-0.00029575,-1.2937e+08,-81.969,0,1.0774e+08,-14.752,11052,12943,1,12943,1,0.0016025,2.868e-10,0,0.0016025,6.1386e-05,1.5214e+08,49.766,0,1.8202e+08,1.084,12942,1091.8,0,1091.8,0,0.0011085,9.1516e-10,0,0.00070835,0.0002064,2.0621e+08,159.93,0,1.1238e+08,161.06,1091.8,1
3780,6.74,11998,1,11998,1,0.00064305,-3.1065e-10,0,0.0010689,-0.00011731,-2.298,-57.976,0,1.7313e+08,28.74,11997,13888,1,13888,1,0.0024982,7.0221e-09,0,0.0024982,0.00022834,1.8651e+08,575.84,0,4.9291e+08,1801.9,13887,11998,1,11998,1,0.00064305,-8.3985e-11,0,0.0009619,-0.00011724,1.0718e+08,-11.902,0,1.5236e+08,-10.962,11997,10083,1,10083,1,-0.0012121,-4.2581e-09,0,2.4683e-05,-0.00046324,-4.9291e+08,-1440.8,0,4.4788e+06,-79.507,10082,11053,1,11053,1,-0.00031885,-1.2045e-09,0,0.00048095,-0.00029619,-1.2956e+08,-191.39,0,1.079e+08,-26.347,11052,12943,1,12943,1,0.001605,5.0574e-10,0,0.001605,6.1475e-05,1.5236e+08,88.973,0,1.8226e+08,11.637,12942,1091.8,0,1091.8,0,0.0011102,1.404e-09,0,0.00070941,0.00020671,2.0651e+08,222.34,0,1.1254e+08,169.63,1091.8,1
3780,6.75,11998,1,11998,1,0.00064402,-1.7903e-10,0,0.0010705,-0.00011749,-0.7513,-38.693,0,1.7338e+08,34.666,11997,13888,1,13888,1,0.0025019,8.0944e-09,0,0.0025019,0.00022867,1.8674e+08,677.07,0,4.9363e+08,1775.2,13887,11998,1,11998,1,0.00064402,-7.4253e-11,0,0.00096333,-0.00011742,1.0734e+08,-10.537,0,1.5259e+08,-5.096,11997,10083,1,10083,1,-0.0012138,-3.8174e-09,0,2.4735e-05,-0.00046393,-4.9363e+08,-1301.6,0,4.4901e+06,-30.786,10082,11053,1,11053,1,-0.00031931,-5.4254e-10,0,0.00048167,-0.00029664,-1.2975e+08,-84.387,0,1.0806e+08,-11.624,11052,12943,1,12943,1,0.0016074,1.3699e-10,0,0.0016074,6.1563e-05,1.5259e+08,26.287,0,1.825e+08,2.7262,12942,1091.8,0,1091.8,0,0.0011118,8.3656e-10,0,0.00071047,0.00020702,2.0681e+08,138.84,0,1.1271e+08,164.63,1091.8,1
3780,6.76,11998,1,11998,1,0.000645,-2.9536e-10,0,0.0010721,-0.00011767,0.24808,-57.432,0,1.7364e+08,29.989,11997,13888,1,13888,1,0.0025056,6.4458e-09,0,0.0025056,0.00022901,1.8697e+08,525.26,0,4.9437e+08,1801.7,13887,11998,1,11998,1,0.000645,-4.544e-11,0,0.00096477,-0.0001176,1.075e+08,-8.4698,0,1.5282e+08,-7.0765,11997,10083,1,10083,1,-0.0012156,-4.7798e-09,0,2.4786e-05,-0.00046462,-4.9437e+08,-1535.2,0,4.5014e+06,-73.895,10082,11053,1,11053,1,-0.00031977,-1.0581e-09,0,0.00048239,-0.00029708,-1.2993e+08,-165.25,0,1.0821e+08,-19.908,11052,12943,1,12943,1,0.0016098,5.4534e-10,0,0.0016098,6.1652e-05,1.5282e+08,87.648,0,1.8274e+08,8.327,12942,1091.8,0,1091.8,0,0.0011135,1.3371e-09,0,0.00071154,0.00020732,2.0712e+08,220.23,0,1.1287e+08,168.65,1091.8,1
3780,6.77,11998,1,11998,1,0.00064598,-2.7484e-10,0,0.0010737,-0.00011784,-5.7589,-48.39,0,1.7389e+08,33.713,11997,13888,1,13888,1,0.0025094,7.8707e-09,0,0.0025094,0.00022935,1.8721e+08,655.32,0,4.951e+08,1721.7,13887,11998,1,11998,1,0.00064597,-3.1459e-10,0,0.00096621,-0.00011777,1.0766e+08,-54.304,0,1.5305e+08,3.587,11997,10083,1,10083,1,-0.0012174,-3.8394e-09,0,2.4839e-05,-0.00046532,-4.951e+08,-1309,0,4.5128e+06,-72.919,10082,11053,1,11053,1,-0.00032023,-8.2523e-10,0,0.00048311,-0.00029753,-1.3012e+08,-116.03,0,1.0837e+08,-7.7678,11052,12943,1,12943,1,0.0016122,5.1709e-11,0,0.0016122,6.1741e-05,1.5305e+08,7.7773,0,1.8298e+08,14.034,12942,1091.8,0,1091.8,0,0.0011151,9.0346e-10,0,0.00071261,0.00020763,2.0742e+08,146.17,0,1.1304e+08,157.48,1091.8,1
3780,6.78,11998,1,11998,1,0.00064695,7.9355e-11,0,0.0010753,-0.00011802,-0.29149,0.66326,0,1.7415e+08,35.673,11997,13888,1,13888,1,0.0025131,8.4865e-09,0,0.0025131,0.00022969,1.8744e+08,714.23,0,4.9582e+08,1750.1,13887,11998,1,11998,1,0.00064694,4.1756e-11,0,0.00096763,-0.00011795,1.0782e+08,7.821,0,1.5327e+08,-3.1344,11997,10083,1,10083,1,-0.0012192,-3.6598e-09,0,2.4891e-05,-0.00046601,-4.9582e+08,-1247.9,0,4.5241e+06,-22.487,10082,11053,1,11053,1,-0.00032069,-1.5727e-10,0,0.00048382,-0.00029797,-1.3031e+08,-24.974,0,1.0853e+08,-6.783,11052,12943,1,12943,1,0.0016146,2.7444e-10,0,0.0016146,6.183e-05,1.5327e+08,40.235,0,1.8322e+08,0.85386,12942,1091.8,0,1091.8,0,0.0011168,7.4563e-10,0,0.00071366,0.00020794,2.0772e+08,121.88,0,1.132e+08,161.1,1091.8,1
3780,6.79,11998,1,11998,1,0.00064792,3.6689e-11,0,0.0010769,-0.0001182,3.3681,-5.593,0,1.744e+08,33.772,11997,13888,1,13888,1,0.0025169,8.1446e-09,0,0.0025169,0.00023002,1.8767e+08,682.78,0,4.9655e+08,1751.4,13887,11998,1,11998,1,0.00064792,2.4894e-11,0,0.00096907,-0.00011813,1.0798e+08,4.9457,0,1.535e+08,-4.5129,11997,10083,1,10083,1,-0.001221,-3.7892e-09,0,2.4943e-05,-0.0004667,-4.9655e+08,-1291.9,0,4.5355e+06,-26.811,10082,11053,1,11053,1,-0.00032115,-2.4447e-10,0,0.00048454,-0.00029841,-1.3049e+08,-38.453,0,1.0869e+08,-9.7982,11052,12943,1,12943,1,0.001617,3.0203e-10,0,0.001617,6.1919e-05,1.535e+08,46.002,0,1.8346e+08,0.74011,12942,1091.8,0,1091.8,0,0.0011184,7.7901e-10,0,0.00071473,0.00020825,2.0803e+08,131.01,0,1.1337e+08,161.39,1091.8,1
3780,6.8,11998,1,11998,1,0.0006489,3.4984e-11,0,0.0010785,-0.00011838,-2.9027,-7.1663,0,1.7466e+08,23.035,11997,13888,1,13888,1,0.0025206,4.837e-09,0,0.0025206,0.00023037,1.879e+08,594.88,0,4.9729e+08,1791.5,13887,11998,1,11998,1,0.0006489,1.6894e-10,0,0.00097051,-0.00011831,1.0815e+08,27.022,0,1.5373e+08,-6.6595,11997,10083,1,10083,1,-0.0012228,-6.0365e-09,0,2.4995e-05,-0.0004674,-4.9729e+08,-1758.3,0,4.5468e+06,-123.7,10082,11053,1,11053,1,-0.00032161,-1.2073e-09,0,0.00048526,-0.00029886,-1.3068e+08,-187.12,0,1.0885e+08,-28.266,11052,12943,1,12943,1,0.0016194,1.5534e-09,0,0.0016194,6.2008e-05,1.5373e+08,232.12,0,1.837e+08,12.946,12942,1091.8,0,1091.8,0,0.0011201,2.0555e-09,0,0.0007158,0.00020856,2.0833e+08,325.14,0,1.1353e+08,167.02,1091.8,1
3780,6.81,11998,1,11998,1,0.00064987,-1.4282e-10,0,0.0010801,-0.00011855,0.12211,-32.836,0,1.7491e+08,35.781,11997,13888,1,13888,1,0.0025243,8.3336e-09,0,0.0025243,0.0002307,1.8813e+08,698.56,0,4.9801e+08,1768.7,13887,11998,1,11998,1,0.00064987,-6.899e-11,0,0.00097194,-0.00011848,1.0831e+08,-8.0104,0,1.5396e+08,-3.5355,11997,10083,1,10083,1,-0.0012246,-3.8124e-09,0,2.5047e-05,-0.00046809,-4.9801e+08,-1299.9,0,4.5582e+06,-29.226,10082,11053,1,11053,1,-0.00032207,-5.3837e-10,0,0.00048597,-0.0002993,-1.3087e+08,-83.979,0,1.0901e+08,-11.118,11052,12943,1,12943,1,0.0016218,1.9502e-10,0,0.0016218,6.2096e-05,1.5396e+08,34.741,0,1.8394e+08,4.9233,12942,1091.8,0,1091.8,0,0.0011217,8.5227e-10,0,0.00071685,0.00020886,2.0863e+08,139.12,0,1.137e+08,163.79,1091.8,1
3780,6.82,11998,1,11998,1,0.00065085,-1.7024e-11,0,0.0010817,-0.00011873,7.3353,-13.271,0,1.7516e+08,33.376,11997,13888,1,13888,1,0.0025281,8.0559e-09,0,0.0025281,0.00023104,1.8836e+08,674.58,0,4.9874e+08,1757.3,13887,11998,1,11998,1,0.00065084,7.654e-12,0,0.00097338,-0.00011866,1.0847e+08,0.94151,0,1.5418e+08,-4.5857,11997,10083,1,10083,1,-0.0012264,-3.836e-09,0,2.5099e-05,-0.00046878,-4.9874e+08,-1307.9,0,4.5697e+06,-27.909,10082,11053,1,11053,1,-0.00032253,-3.9096e-10,0,0.00048669,-0.00029975,-1.3106e+08,-61.321,0,1.0917e+08,-11.864,11052,12943,1,12943,1,0.0016242,3.0014e-10,0,0.0016242,6.2185e-05,1.5418e+08,47.655,0,1.8418e+08,1.7242,12942,1091.8,0,1091.8,0,0.0011234,8.366e-10,0,0.00071792,0.00020917,2.0894e+08,140.07,0,1.1386e+08,161.9,1091.8,1
3780,6.83,11998,1,11998,1,0.00065182,-1.6626e-10,0,0.0010833,-0.00011891,-7.3579,-34.618,0,1.7542e+08,30.859,11997,13888,1,13888,1,0.0025318,7.0232e-09,0,0.0025318,0.00023138,1.886e+08,577.42,0,4.9947e+08,1750.8,13887,11998,1,11998,1,0.00065182,-7.3735e-11,0,0.00097481,-0.00011884,1.0863e+08,-12.135,0,1.5441e+08,-4.5907,11997,10083,1,10083,1,-0.0012282,-4.2574e-09,0,2.5152e-05,-0.00046948,-4.9947e+08,-1447.3,0,4.5811e+06,-45.526,10082,11053,1,11053,1,-0.00032299,-5.9039e-10,0,0.00048741,-0.00030019,-1.3124e+08,-88.562,0,1.0932e+08,-10.644,11052,12943,1,12943,1,0.0016266,1.8482e-10,0,0.0016266,6.2274e-05,1.5441e+08,32.136,0,1.8442e+08,1.3694,12942,1091.8,0,1091.8,0,0.0011251,9.3518e-10,0,0.00071899,0.00020948,2.0924e+08,164.96,0,1.1403e+08,159.5,1091.8,1
3780,6.84,11998,1,11998,1,0.0006528,-1.2621e-10,0,0.0010849,-0.00011909,-3.144,-30.457,0,1.7567e+08,33.32,11997,13888,1,13888,1,0.0025356,7.5867e-09,0,0.0025356,0.00023171,1.8883e+08,628.19,0,5.002e+08,1768.2,13887,11998,1,11998,1,0.00065279,-2.5121e-11,0,0.00097625,-0.00011902,1.0879e+08,-3.978,0,1.5464e+08,-4.7333,11997,10083,1,10083,1,-0.00123,-4.0867e-09,0,2.5204e-05,-0.00047017,-5.002e+08,-1393.3,0,4.5926e+06,-30.419,10082,11053,1,11053,1,-0.00032345,-5.2935e-10,0,0.00048812,-0.00030064,-1.3143e+08,-82.142,0,1.0948e+08,-11.89,11052,12943,1,12943,1,0.001629,2.5884e-10,0,0.001629,6.2363e-05,1.5464e+08,41.238,0,1.8466e+08,2.3869,12942,1091.8,0,1091.8,0,0.0011267,8.9808e-10,0,0.00072005,0.00020979,2.0954e+08,155.08,0,1.1419e+08,162.73,1091.8,1
3780,6.85,11998,1,11998,1,0.00065377,-9.6076e-11,0,0.0010865,-0.00011927,-4.1261,-26.258,0,1.7593e+08,34.581,11997,13888,1,13888,1,0.0025393,8.0784e-09,0,0.0025393,0.00023205,1.8906e+08,676.12,0,5.0092e+08,1772.4,13887,11998,1,11998,1,0.00065377,-3.9057e-11,0,0.00097768,-0.00011919,1.0896e+08,-5.8458,0,1.5487e+08,-4.1813,11997,10083,1,10083,1,-0.0012318,-3.8891e-09,0,2.5256e-05,-0.00047086,-5.0092e+08,-1326,0,4.604e+06,-27.015,10082,11053,1,11053,1,-0.00032391,-4.5911e-10,0,0.00048884,-0.00030108,-1.3162e+08,-71.532,0,1.0964e+08,-10.473,11052,12943,1,12943,1,0.0016315,2.1869e-10,0,0.0016315,6.2452e-05,1.5487e+08,35.376,0,1.849e+08,1.8121,12942,1091.8,0,1091.8,0,0.0011284,8.4435e-10,0,0.00072111,0.0002101,2.0985e+08,141.97,0,1.1436e+08,163.2,1091.8,1
3780,6.86,11998,1,11998,1,0.00065475,-2.4976e-10,0,0.0010881,-0.00011944,-2.6564,-49.748,0,1.7618e+08,32.152,11997,13888,1,13888,1,0.0025431,7.332e-09,0,0.0025431,0.00023239,1.8929e+08,604.74,0,5.0166e+08,1787.2,13887,11998,1,11998,1,0.00065474,-7.6558e-11,0,0.00097912,-0.00011937,1.0912e+08,-11.529,0,1.551e+08,-5.8541,11997,10083,1,10083,1,-0.0012336,-4.2204e-09,0,2.5309e-05,-0.00047156,-5.0166e+08,-1438.9,0,4.6155e+06,-43.751,10082,11053,1,11053,1,-0.00032437,-8.4714e-10,0,0.00048956,-0.00030153,-1.318e+08,-133.88,0,1.098e+08,-16.736,11052,12943,1,12943,1,0.0016339,3.2959e-10,0,0.0016339,6.2541e-05,1.551e+08,54.842,0,1.8514e+08,5.1196,12942,1091.8,0,1091.8,0,0.00113,1.086e-09,0,0.00072218,0.00021041,2.1015e+08,181.01,0,1.1452e+08,165.22,1091.8,1
3780,6.87,11998,1,11998,1,0.00065572,-2.8196e-10,0,0.0010897,-0.00011962,-2.2551,-54.205,0,1.7643e+08,34.754,11997,13888,1,13888,1,0.0025468,7.9943e-09,0,0.0025468,0.00023273,1.8952e+08,668.18,0,5.0238e+08,1768.8,13887,11998,1,11998,1,0.00065572,-1.8088e-10,0,0.00098055,-0.00011955,1.0928e+08,-29.526,0,1.5532e+08,-3.0983,11997,10083,1,10083,1,-0.0012353,-3.9317e-09,0,2.5362e-05,-0.00047225,-5.0238e+08,-1340.5,0,4.6271e+06,-33.309,10082,11053,1,11053,1,-0.00032483,-7.0228e-10,0,0.00049028,-0.00030197,-1.3199e+08,-107.88,0,1.0996e+08,-10.178,11052,12943,1,12943,1,0.0016363,3.7751e-11,0,0.0016363,6.2629e-05,1.5532e+08,7.3458,0,1.8538e+08,2.5348,12942,1091.8,0,1091.8,0,0.0011317,8.5194e-10,0,0.00072324,0.00021071,2.1045e+08,142.04,0,1.1469e+08,163.11,1091.8,1
3780,6.88,11998,1,11998,1,0.0006567,-3.5376e-11,0,0.0010913,-0.0001198,-2.0618,-17.394,0,1.7669e+08,35.145,11997,13888,1,13888,1,0.0025505,8.322e-09,0,0.0025505,0.00023306,1.8975e+08,698.61,0,5.0311e+08,1771,13887,11998,1,11998,1,0.00065669,-1.9915e-11,0,0.00098198,-0.00011973,1.0944e+08,-3.5164,0,1.5555e+08,-3.8533,11997,10083,1,10083,1,-0.0012371,-3.7893e-09,0,2.5414e-05,-0.00047294,-5.0311e+08,-1292,0,4.6386e+06,-25.499,10082,11053,1,11053,1,-0.00032529,-3.3722e-10,0,0.00049099,-0.00030242,-1.3218e+08,-52.475,0,1.1012e+08,-8.4949,11052,12943,1,12943,1,0.0016387,2.1058e-10,0,0.0016387,6.2718e-05,1.5555e+08,31.963,0,1.8561e+08,1.5888,12942,1091.8,0,1091.8,0,0.0011333,7.9512e-10,0,0.0007243,0.00021102,2.1076e+08,132.13,0,1.1486e+08,162.82,1091.8,1
3780,6.89,11998,1,11998,1,0.00065767,-2.4196e-10,0,0.0010929,-0.00011998,-6.5081,-48.053,0,1.7694e+08,34.34,11997,13888,1,13888,1,0.0025543,7.8696e-09,0,0.0025543,0.0002334,1.8998e+08,656.97,0,5.0384e+08,1772.8,13887,11998,1,11998,1,0.00065767,-1.4191e-10,0,0.00098342,-0.00011991,1.096e+08,-24.269,0,1.5578e+08,-4.2399,11997,10083,1,10083,1,-0.0012389,-3.9661e-09,0,2.5467e-05,-0.00047363,-5.0384e+08,-1352.3,0,4.6502e+06,-29.198,10082,11053,1,11053,1,-0.00032575,-5.8216e-10,0,0.00049171,-0.00030286,-1.3236e+08,-88.731,0,1.1028e+08,-9.3156,11052,12943,1,12943,1,0.0016411,3.3454e-11,0,0.0016411,6.2807e-05,1.5578e+08,4.4186,0,1.8585e+08,1.8629,12942,1091.8,0,1091.8,0,0.001135,8.1929e-10,0,0.00072537,0.00021133,2.1106e+08,139.37,0,1.1502e+08,162.7,1091.8,1
3780,6.9,11998,1,11998,1,0.00065865,-3.1659e-10,0,0.0010945,-0.00012015,-3.1293,-59.727,0,1.772e+08,34.205,11997,13888,1,13888,1,0.002558,7.6076e-09,0,0.002558,0.00023374,1.9021e+08,631.08,0,5.0457e+08,1781.1,13887,11998,1,11998,1,0.00065864,-1.4527e-10,0,0.00098485,-0.00012008,1.0976e+08,-26.048,0,1.5601e+08,-4.4349,11997,10083,1,10083,1,-0.0012407,-4.1121e-09,0,2.552e-05,-0.00047433,-5.0457e+08,-1402,0,4.6617e+06,-30.435,10082,11053,1,11053,1,-0.00032621,-7.4231e-10,0,0.00049243,-0.00030331,-1.3255e+08,-114.12,0,1.1043e+08,-11.837,11052,12943,1,12943,1,0.0016435,8.6364e-11,0,0.0016435,6.2895e-05,1.5601e+08,12.634,0,1.8609e+08,2.9619,12942,1091.8,0,1091.8,0,0.0011366,8.9595e-10,0,0.00072643,0.00021164,2.1136e+08,153.01,0,1.1519e+08,164.11,1091.8,1
3780,6.91,11998,1,11998,1,0.00065962,-6.6954e-11,0,0.0010961,-0.00012033,-8.8825,-21.518,0,1.7745e+08,29.294,11997,13888,1,13888,1,0.0025618,6.8004e-09,0,0.0025618,0.00023408,1.9044e+08,561.78,0,5.053e+08,1799.7,13887,11998,1,11998,1,0.00065962,3.4001e-11,0,0.00098629,-0.00012026,1.0993e+08,5.2875,0,1.5623e+08,-7.701,11997,10083,1,10083,1,-0.0012425,-4.5806e-09,0,2.5572e-05,-0.00047502,-5.053e+08,-1517,0,4.6733e+06,-62.802,10082,11053,1,11053,1,-0.00032667,-8.5876e-10,0,0.00049315,-0.00030375,-1.3274e+08,-134.4,0,1.1059e+08,-21.334,11052,12943,1,12943,1,0.0016459,7.3695e-10,0,0.0016459,6.2984e-05,1.5623e+08,115.47,0,1.8633e+08,7.4533,12942,1091.8,0,1091.8,0,0.0011383,1.3415e-09,0,0.0007275,0.00021195,2.1167e+08,220.98,0,1.1535e+08,166.21,1091.8,1
3780,6.92,11998,1,11998,1,0.0006606,-1.0203e-10,0,0.0010977,-0.00012051,-1.4636,-27.583,0,1.777e+08,32.449,11997,13888,1,13888,1,0.0025655,7.5693e-09,0,0.0025655,0.00023442,1.9067e+08,626.07,0,5.0603e+08,1790.1,13887,11998,1,11998,1,0.00066059,-2.3366e-11,0,0.00098773,-0.00012044,1.1009e+08,-3.9702,0,1.5646e+08,-5.481,11997,10083,1,10083,1,-0.0012443,-4.1615e-09,0,2.5625e-05,-0.00047572,-5.0603e+08,-1418.8,0,4.685e+06,-36.409,10082,11053,1,11053,1,-0.00032713,-6.1362e-10,0,0.00049386,-0.0003042,-1.3292e+08,-96.964,0,1.1075e+08,-15.487,11052,12943,1,12943,1,0.0016483,3.8394e-10,0,0.0016483,6.3073e-05,1.5646e+08,59.934,0,1.8657e+08,3.9329,12942,1091.8,0,1091.8,0,0.00114,1.0168e-09,0,0.00072856,0.00021226,2.1197e+08,172.45,0,1.1552e+08,164.96,1091.8,1
3780,6.93,11998,1,11998,1,0.00066157,-1.136e-10,0,0.0010993,-0.00012069,-4.6103,-28.395,0,1.7796e+08,33.732,11997,13888,1,13888,1,0.0025693,7.6865e-09,0,0.0025693,0.00023475,1.909e+08,638.45,0,5.0676e+08,1785.9,13887,11998,1,11998,1,0.00066157,-2.8116e-11,0,0.00098916,-0.00012062,1.1025e+08,-4.2216,0,1.5669e+08,-4.3993,11997,10083,1,10083,1,-0.0012461,-4.0941e-09,0,2.5678e-05,-0.00047641,-5.0676e+08,-1395.9,0,4.6966e+06,-29.429,10082,11053,1,11053,1,-0.00032759,-5.5546e-10,0,0.00049458,-0.00030464,-1.3311e+08,-86.818,0,1.1091e+08,-12.183,11052,12943,1,12943,1,0.0016507,2.9636e-10,0,0.0016507,6.3162e-05,1.5669e+08,47.168,0,1.8681e+08,2.6958,12942,1091.8,0,1091.8,0,0.0011416,9.3001e-10,0,0.00072963,0.00021257,2.1227e+08,159.17,0,1.1568e+08,164.02,1091.8,1
3780,6.94,11998,1,11998,1,0.00066255,1.3142e-11,0,0.0011009,-0.00012087,-1.4855,-8.8832,0,1.7821e+08,32.195,11997,13888,1,13888,1,0.002573,7.752e-09,0,0.002573,0.00023509,1.9113e+08,645.5,0,5.0748e+08,1775.1,13887,11998,1,11998,1,0.00066255,2.8863e-11,0,0.0009906,-0.0001208,1.1041e+08,3.136,0,1.5692e+08,-4.9551,11997,10083,1,10083,1,-0.0012479,-4.0182e-09,0,2.5732e-05,-0.0004771,-5.0748e+08,-1370,0,4.7083e+06,-37.074,10082,11053,1,11053,1,-0.00032805,-3.7404e-10,0,0.0004953,-0.00030509,-1.333e+08,-59.311,0,1.1107e+08,-12.196,11052,12943,1,12943,1,0.0016531,3.3983e-10,0,0.0016531,6.325e-05,1.5692e+08,53.208,0,1.8704e+08,1.5319,12942,1091.8,0,1091.8,0,0.0011433,8.8736e-10,0,0.00073069,0.00021287,2.1258e+08,152.36,0,1.1585e+08,162.48,1091.8,1
3780,6.95,11998,1,11998,1,0.00066352,-2.6856e-11,0,0.0011025,-0.00012104,-4.1544,-15.141,0,1.7847e+08,35.258,11997,13888,1,13888,1,0.0025767,8.2575e-09,0,0.0025767,0.00023543,1.9136e+08,692.23,0,5.0821e+08,1782.7,13887,11998,1,11998,1,0.00066352,1.1772e-12,0,0.00099203,-0.00012097,1.1057e+08,0.24101,0,1.5714e+08,-3.7352,11997,10083,1,10083,1,-0.0012497,-3.8536e-09,0,2.5785e-05,-0.00047779,-5.0821e+08,-1313.9,0,4.7199e+06,-26.837,10082,11053,1,11053,1,-0.00032851,-3.2561e-10,0,0.00049602,-0.00030553,-1.3348e+08,-50.113,0,1.1123e+08,-8.8559,11052,12943,1,12943,1,0.0016556,2.2311e-10,0,0.0016556,6.3339e-05,1.5714e+08,34.665,0,1.8728e+08,1.9919,12942,1091.8,0,1091.8,0,0.0011449,7.9683e-10,0,0.00073175,0.00021318,2.1288e+08,133.75,0,1.1601e+08,163.74,1091.8,1
3780,6.96,11998,1,11998,1,0.00066451,-6.4064e-10,0,0.0011041,-0.00012122,-4.2549,-100.8,0,1.7872e+08,32.43,11997,13888,1,13888,1,0.0025805,6.7142e-09,0,0.0025805,0.00023577,1.9159e+08,641.92,0,5.0895e+08,1631.1,13887,11998,1,11998,1,0.00066451,-2.3377e-10,0,0.00099349,-0.00012115,1.1074e+08,-37.502,0,1.5738e+08,9.8423,11997,10083,1,10083,1,-0.0012515,-5.2163e-09,0,2.5839e-05,-0.0004785,-5.0895e+08,-1430.6,0,4.732e+06,-146.23,10082,11053,1,11053,1,-0.00032897,-1.3477e-09,0,0.00049674,-0.00030598,-1.3367e+08,-224.18,0,1.1139e+08,-26.659,11052,12943,1,12943,1,0.001658,2.8462e-10,0,0.001658,6.3428e-05,1.5738e+08,38.36,0,1.8752e+08,50.093,12942,1091.8,0,1091.8,0,0.0011466,1.5767e-09,0,0.00073283,0.00021349,2.1318e+08,235.95,0,1.1618e+08,152.27,1091.8,1
3780,6.97,11998,1,11998,1,0.00066548,-2.0025e-10,0,0.0011057,-0.0001214,-5.8747,-42.497,0,1.7897e+08,29.986,11997,13888,1,13888,1,0.0025842,6.8825e-09,0,0.0025842,0.0002361,1.9182e+08,564.62,0,5.0967e+08,1810.9,13887,11998,1,11998,1,0.00066547,-9.3144e-12,0,0.0009949,-0.00012133,1.109e+08,-2.1707,0,1.576e+08,-8.3244,11997,10083,1,10083,1,-0.0012533,-4.601e-09,0,2.5891e-05,-0.00047918,-5.0967e+08,-1523.1,0,4.7434e+06,-53.198,10082,11053,1,11053,1,-0.00032943,-8.2651e-10,0,0.00049745,-0.00030642,-1.3386e+08,-128.31,0,1.1154e+08,-20.051,11052,12943,1,12943,1,0.0016604,4.7349e-10,0,0.0016604,6.3516e-05,1.576e+08,68.201,0,1.8776e+08,5.5256,12942,1091.8,0,1091.8,0,0.0011482,1.1721e-09,0,0.00073388,0.0002138,2.1349e+08,196,0,1.1634e+08,167,1091.8,1
3780,6.98,11998,1,11998,1,0.00066645,-1.735e-10,0,0.0011073,-0.00012158,-1.1386,-37.987,0,1.7923e+08,32.399,11997,13888,1,13888,1,0.002588,7.3553e-09,0,0.002588,0.00023644,1.9204e+08,605.58,0,5.104e+08,1780.4,13887,11998,1,11998,1,0.00066645,-5.8964e-11,0,0.00099634,-0.00012151,1.1106e+08,-9.7017,0,1.5783e+08,-4.9362,11997,10083,1,10083,1,-0.0012551,-4.2478e-09,0,2.5944e-05,-0.00047988,-5.104e+08,-1448.3,0,4.7551e+06,-33.792,10082,11053,1,11053,1,-0.00032989,-5.6275e-10,0,0.00049817,-0.00030687,-1.3404e+08,-87.727,0,1.117e+08,-11.3,11052,12943,1,12943,1,0.0016628,1.9796e-10,0,0.0016628,6.3605e-05,1.5783e+08,32.899,0,1.8799e+08,0.70361,12942,1091.8,0,1091.8,0,0.0011499,9.1513e-10,0,0.00073495,0.00021411,2.1379e+08,161.79,0,1.1651e+08,162.67,1091.8,1
3780,6.99,11998,1,11998,1,0.00066743,-6.8943e-11,0,0.0011089,-0.00012176,-2.5658,-22.411,0,1.7948e+08,32.954,11997,13888,1,13888,1,0.0025917,7.4466e-09,0,0.0025917,0.00023678,1.9227e+08,614.16,0,5.1113e+08,1806,13887,11998,1,11998,1,0.00066742,2.1264e-11,0,0.00099777,-0.00012169,1.1122e+08,3.297,0,1.5806e+08,-5.7007,11997,10083,1,10083,1,-0.0012569,-4.2521e-09,0,2.5998e-05,-0.00048057,-5.1113e+08,-1449.7,0,4.7668e+06,-41.412,10082,11053,1,11053,1,-0.00033035,-5.5287e-10,0,0.00049889,-0.00030731,-1.3423e+08,-85.039,0,1.1186e+08,-14.248,11052,12943,1,12943,1,0.0016652,4.7736e-10,0,0.0016652,6.3694e-05,1.5806e+08,70.18,0,1.8823e+08,3.9846,12942,1091.8,0,1091.8,0,0.0011515,1.0102e-09,0,0.00073601,0.00021441,2.1409e+08,173.17,0,1.1667e+08,166.18,1091.8,1
3780,7,11998,1,11998,1,0.0006684,1.1787e-10,0,0.0011105,-0.00012193,1.402,5.7508,0,1.7974e+08,30.367,11997,13888,1,13888,1,0.0025955,7.3916e-09,0,0.0025955,0.00023712,1.925e+08,609.5,0,5.1186e+08,1801.6,13887,11998,1,11998,1,0.0006684,1.0843e-10,0,0.00099921,-0.00012186,1.1139e+08,17.118,0,1.5828e+08,-7.28,11997,10083,1,10083,1,-0.0012586,-4.252e-09,0,2.6051e-05,-0.00048126,-5.1186e+08,-1449.7,0,4.7786e+06,-43.156,10082,11053,1,11053,1,-0.00033081,-3.8163e-10,0,0.0004996,-0.00030776,-1.3442e+08,-61.122,0,1.1202e+08,-16.344,11052,12943,1,12943,1,0.0016676,6.8094e-10,0,0.0016676,6.3782e-05,1.5828e+08,102.29,0,1.8847e+08,2.0324,12942,1091.8,0,1091.8,0,0.0011532,1.0554e-09,0,0.00073708,0.00021472,2.1439e+08,180.61,0,1.1684e+08,164.94,1091.8,1
3780,7.01,11998,1,11998,1,0.00066938,-4.4547e-11,0,0.0011121,-0.00012211,-2.9021,-18.224,0,1.7999e+08,28.071,11997,13888,1,13888,1,0.0025992,6.3288e-09,0,0.0025992,0.00023745,1.9273e+08,552.62,0,5.1259e+08,1786.7,13887,11998,1,11998,1,0.00066938,6.624e-11,0,0.0010006,-0.00012204,1.1155e+08,10.217,0,1.5851e+08,-4.7536,11997,10083,1,10083,1,-0.0012604,-5.0224e-09,0,2.6105e-05,-0.00048196,-5.1259e+08,-1590.9,0,4.7904e+06,-46.242,10082,11053,1,11053,1,-0.00033127,-3.2189e-10,0,0.00050032,-0.0003082,-1.346e+08,-49.455,0,1.1218e+08,-14.118,11052,12943,1,12943,1,0.00167,3.9416e-10,0,0.00167,6.3871e-05,1.5851e+08,59.234,0,1.8871e+08,-0.38278,12942,1091.8,0,1091.8,0,0.0011549,1.0376e-09,0,0.00073814,0.00021503,2.147e+08,190.24,0,1.17e+08,161.52,1091.8,1
3780,7.02,11998,1,11998,1,0.00067035,-7.9363e-11,0,0.0011137,-0.00012229,-1.0762,-22.711,0,1.8024e+08,34.612,11997,13888,1,13888,1,0.0026029,8.1088e-09,0,0.0026029,0.00023779,1.9296e+08,677.39,0,5.1331e+08,1812,13887,11998,1,11998,1,0.00067035,1.19e-13,0,0.0010021,-0.00012222,1.1171e+08,0.010051,0,1.5874e+08,-4.7704,11997,10083,1,10083,1,-0.0012622,-4.0112e-09,0,2.6158e-05,-0.00048265,-5.1331e+08,-1367.6,0,4.8022e+06,-31.092,10082,11053,1,11053,1,-0.00033172,-4.7898e-10,0,0.00050104,-0.00030865,-1.3479e+08,-74.316,0,1.1233e+08,-12.564,11052,12943,1,12943,1,0.0016724,2.795e-10,0,0.0016724,6.3959e-05,1.5874e+08,45.183,0,1.8894e+08,3.9975,12942,1091.8,0,1091.8,0,0.0011565,8.9381e-10,0,0.0007392,0.00021534,2.15e+08,150.55,0,1.1717e+08,166.76,1091.8,1
3780,7.03,11998,1,11998,1,0.00067133,-1.4926e-10,0,0.0011153,-0.00012247,-1.7534,-35.117,0,1.805e+08,30.847,11997,13888,1,13888,1,0.0026067,7.2117e-09,0,0.0026067,0.00023813,1.9318e+08,593.85,0,5.1404e+08,1801.1,13887,11998,1,11998,1,0.00067133,-2.2558e-11,0,0.0010035,-0.0001224,1.1187e+08,-3.9615,0,1.5897e+08,-7.0035,11997,10083,1,10083,1,-0.001264,-4.3393e-09,0,2.6212e-05,-0.00048334,-5.1404e+08,-1479.1,0,4.814e+06,-38.972,10082,11053,1,11053,1,-0.00033218,-5.9589e-10,0,0.00050176,-0.00030909,-1.3498e+08,-92.281,0,1.1249e+08,-16.016,11052,12943,1,12943,1,0.0016748,3.4017e-10,0,0.0016748,6.4048e-05,1.5897e+08,50.225,0,1.8918e+08,1.9624,12942,1091.8,0,1091.8,0,0.0011582,9.9097e-10,0,0.00074027,0.00021565,2.153e+08,172.24,0,1.1733e+08,165.14,1091.8,1
3780,7.04,11998,1,11998,1,0.00067231,-4.971e-11,0,0.0011169,-0.00012265,-2.2056,-19.034,0,1.8075e+08,34.057,11997,13888,1,13888,1,0.0026104,7.99e-09,0,0.0026104,0.00023847,1.9341e+08,666.85,0,5.1477e+08,1810.1,13887,11998,1,11998,1,0.0006723,1.3244e-11,0,0.0010049,-0.00012258,1.1203e+08,1.9201,0,1.5919e+08,-4.9836,11997,10083,1,10083,1,-0.0012658,-4.0402e-09,0,2.6266e-05,-0.00048404,-5.1477e+08,-1377.5,0,4.8259e+06,-32.947,10082,11053,1,11053,1,-0.00033264,-4.5821e-10,0,0.00050247,-0.00030954,-1.3516e+08,-70.411,0,1.1265e+08,-13.216,11052,12943,1,12943,1,0.0016773,3.4416e-10,0,0.0016773,6.4137e-05,1.5919e+08,53.027,0,1.8941e+08,3.5912,12942,1091.8,0,1091.8,0,0.0011598,9.0283e-10,0,0.00074133,0.00021596,2.156e+08,152.94,0,1.175e+08,166.47,1091.8,1
