"N","Time","avg(GlobalElementId)","avg(ObjectId)","avg(PedigreeElementId)","avg(alpha)","avg(strain_x (0))","avg(strain_x (1))","avg(strain_x (2))","avg(strain_x (Magnitude))","avg(strain_yy)","avg(stress_x (0))","avg(stress_x (1))","avg(stress_x (2))","avg(stress_x (Magnitude))","avg(stress_yy)","avg(vtkOriginalCellIds)","max(GlobalElementId)","max(ObjectId)","max(PedigreeElementId)","max(alpha)","max(strain_x (0))","max(strain_x (1))","max(strain_x (2))","max(strain_x (Magnitude))","max(strain_yy)","max(stress_x (0))","max(stress_x (1))","max(stress_x (2))","max(stress_x (Magnitude))","max(stress_yy)","max(vtkOriginalCellIds)","med(GlobalElementId)","med(ObjectId)","med(PedigreeElementId)","med(alpha)","med(strain_x (0))","med(strain_x (1))","med(strain_x (2))","med(strain_x (Magnitude))","med(strain_yy)","med(stress_x (0))","med(stress_x (1))","med(stress_x (2))","med(stress_x (Magnitude))","med(stress_yy)","med(vtkOriginalCellIds)","min(GlobalElementId)","min(ObjectId)","min(PedigreeElementId)","min(alpha)","min(strain_x (0))","min(strain_x (1))","min(strain_x (2))","min(strain_x (Magnitude))","min(strain_yy)","min(stress_x (0))","min(stress_x (1))","min(stress_x (2))","min(stress_x (Magnitude))","min(stress_yy)","min(vtkOriginalCellIds)","q1(GlobalElementId)","q1(ObjectId)","q1(PedigreeElementId)","q1(alpha)","q1(strain_x (0))","q1(strain_x (1))","q1(strain_x (2))","q1(strain_x (Magnitude))","q1(strain_yy)","q1(stress_x (0))","q1(stress_x (1))","q1(stress_x (2))","q1(stress_x (Magnitude))","q1(stress_yy)","q1(vtkOriginalCellIds)","q3(GlobalElementId)","q3(ObjectId)","q3(PedigreeElementId)","q3(alpha)","q3(strain_x (0))","q3(strain_x (1))","q3(strain_x (2))","q3(strain_x (Magnitude))","q3(strain_yy)","q3(stress_x (0))","q3(stress_x (1))","q3(stress_x (2))","q3(stress_x (Magnitude))","q3(stress_yy)","q3(vtkOriginalCellIds)","std(GlobalElementId)","std(ObjectId)","std(PedigreeElementId)","std(alpha)","std(strain_x (0))","std(strain_x (1))","std(strain_x (2))","std(strain_x (Magnitude))","std(strain_yy)","std(stress_x (0))","std(stress_x (1))","std(stress_x (2))","std(stress_x (Magnitude))","std(stress_yy)","std(vtkOriginalCellIds)","vtkValidPointMask"
4990,0,12381,1,12381,1,0,0,0,0,0,0,0,0,0,0,12380,15000,1,15000,1,0,0,0,0,0,0,0,0,0,0,14999,12382,1,12382,1,0,0,0,0,0,0,0,0,0,0,12381,9753,1,9753,1,0,0,0,0,0,0,0,0,0,0,9752,11091,1,11091,1,0,0,0,0,0,0,0,0,0,0,11090,13678,1,13678,1,0,0,0,0,0,0,0,0,0,0,13677,1491.5,0,1491.5,0,0,0,0,0,0,0,0,0,0,0,1491.5,1
4990,0.01,12381,1,12381,1,2.2834e-07,-9.1781e-09,0,1.2296e-06,-3.368e-08,-68619,-1820.4,0,3.3773e+05,-24.627,12380,15000,1,15000,1,3.7907e-06,5.4574e-07,0,3.7907e-06,4.6488e-07,6.3099e+05,76682,0,1.0056e+06,61425,14999,12382,1,12382,1,1.4147e-07,-5.9899e-09,0,1.1319e-06,-1.6121e-08,32735,-1526.4,0,2.9065e+05,-232.55,12381,9753,1,9753,1,-2.4727e-06,-4.8118e-07,0,3.1872e-09,-7.114e-07,-1.0056e+06,-67886,0,128.08,-42093,9752,11091,1,11091,1,-1.0015e-06,-4.7427e-08,0,5.5507e-07,-2.2343e-07,-4.0747e+05,-10655,0,1.5845e+05,-3747.3,11090,13678,1,13678,1,1.3138e-06,1.9558e-08,0,1.7184e-06,1.7995e-07,2.4512e+05,5378.4,0,4.8405e+05,2967.1,13677,1491.5,0,1491.5,0,1.4548e-06,1.0343e-07,0,8.167e-07,2.6925e-07,4.0086e+05,18547,0,2.2728e+05,11269,1491.5,1
4990,0.02,12381,1,12381,1,9.327e-07,-4.9328e-09,0,2.7832e-06,-1.9235e-07,-30943,-1013.3,0,7.2185e+05,-8575.9,12380,15000,1,15000,1,6.7799e-06,1.5168e-07,0,6.7799e-06,8.3585e-07,1.1289e+06,30010,0,1.8107e+06,598.34,14999,12382,1,12382,1,8.7402e-07,6.5791e-10,0,2.6957e-06,-1.852e-07,2.1696e+05,179.1,0,6.8338e+05,-4629.4,12381,9753,1,9753,1,-4.4519e-06,-1.732e-07,0,5.1976e-08,-1.2619e-06,-1.8107e+06,-34066,0,9526.9,-37265,9752,11091,1,11091,1,-1.877e-06,-1.4937e-08,0,1.3046e-06,-7.392e-07,-7.6361e+05,-4260.8,0,3.8847e+05,-13673,11090,13678,1,13678,1,3.6451e-06,9.9444e-09,0,4.0407e-06,3.4576e-07,6.823e+05,2346.3,0,9.5033e+05,-1263.2,13677,1491.5,0,1491.5,0,3.1227e-06,5.6054e-08,0,1.696e-06,5.9356e-07,8.4093e+05,10831,0,4.3252e+05,9484.3,1491.5,1
4990,0.03,12381,1,12381,1,1.4642e-06,1.2185e-09,0,4.3424e-06,-2.7479e-07,-44296,284.52,0,1.1263e+06,-3033.9,12380,15000,1,15000,1,1.0039e-05,3.8105e-08,0,1.0039e-05,1.2681e-06,1.6717e+06,10273,0,2.7445e+06,270.61,14999,12382,1,12382,1,1.39e-06,1.4522e-09,0,4.2184e-06,-2.8146e-07,3.4451e+05,324.5,0,1.0786e+06,-982.24,12381,9753,1,9753,1,-6.7481e-06,-4.2661e-08,0,1.3228e-07,-1.8685e-06,-2.7445e+06,-14252,0,31135,-21197,9752,11091,1,11091,1,-2.9432e-06,-3.7447e-09,0,2.0197e-06,-1.0701e-06,-1.1971e+06,-832.43,0,6.0745e+05,-4492.1,11090,13678,1,13678,1,5.7283e-06,6.6603e-09,0,6.3377e-06,5.5314e-07,1.0744e+06,1460.7,0,1.4876e+06,-161.45,13677,1491.5,0,1491.5,0,4.869e-06,9.0095e-09,0,2.6441e-06,9.1058e-07,1.312e+06,2349.7,0,6.7404e+05,4266.9,1491.5,1
4990,0.04,12381,1,12381,1,1.9338e-06,-1.8629e-09,0,5.7364e-06,-3.6088e-07,-58631,-373.1,0,1.488e+06,-3324.1,12380,15000,1,15000,1,1.3323e-05,4.2599e-08,0,1.3323e-05,1.6664e-06,2.2184e+06,9694.3,0,3.6063e+06,536.46,14999,12382,1,12382,1,1.8285e-06,-9.9308e-10,0,5.5643e-06,-3.7227e-07,4.5308e+05,-223.03,0,1.4218e+06,-1134.6,12381,9753,1,9753,1,-8.8671e-06,-4.5569e-08,0,1.7608e-07,-2.4794e-06,-3.6063e+06,-10369,0,41679,-18588,9752,11091,1,11091,1,-3.9108e-06,-4.7205e-09,0,2.6534e-06,-1.4091e-06,-1.5906e+06,-971.13,0,7.9824e+05,-4946.8,11090,13678,1,13678,1,7.5701e-06,1.2442e-09,0,8.386e-06,7.3474e-07,1.4199e+06,264.48,0,1.9686e+06,-116.14,13677,1491.5,0,1491.5,0,6.4327e-06,9.2625e-09,0,3.4938e-06,1.2022e-06,1.7331e+06,2245.3,0,8.9031e+05,4496.8,1491.5,1
4990,0.05,12381,1,12381,1,2.4203e-06,4.95e-10,0,7.1721e-06,-4.4513e-07,-72145,121.1,0,1.8603e+06,-1995.2,12380,15000,1,15000,1,1.659e-05,2.6312e-08,0,1.659e-05,2.0896e-06,2.7624e+06,6539.7,0,4.5212e+06,551.62,14999,12382,1,12382,1,2.2924e-06,8.8869e-10,0,6.9544e-06,-4.4097e-07,5.6905e+05,203.84,0,1.7786e+06,-575.42,12381,9753,1,9753,1,-1.1117e-05,-2.8148e-08,0,2.1861e-07,-3.0871e-06,-4.5212e+06,-9433.7,0,51618,-16620,9752,11091,1,11091,1,-4.8746e-06,-5.0691e-09,0,3.3278e-06,-1.7593e-06,-1.9821e+06,-1099.8,0,1.001e+06,-2627.2,11090,13678,1,13678,1,9.4561e-06,6.5205e-09,0,1.0472e-05,9.2015e-07,1.7742e+06,1429.2,0,2.4574e+06,-143.67,13677,1491.5,0,1491.5,0,8.0417e-06,8.2369e-09,0,4.3681e-06,1.5017e-06,2.1667e+06,1982.6,0,1.1127e+06,2990.2,1491.5,1
4990,0.06,12381,1,12381,1,2.8886e-06,-9.6882e-10,0,8.5625e-06,-5.322e-07,-86497,-175.22,0,2.221e+06,-2705.2,12380,15000,1,15000,1,1.9928e-05,6.438e-08,0,1.9928e-05,2.4887e-06,3.3183e+06,14647,0,5.385e+06,474.07,14999,12382,1,12382,1,2.7311e-06,-7.5739e-10,0,8.3028e-06,-5.2764e-07,6.7826e+05,-186.47,0,2.1226e+06,-596.17,12381,9753,1,9753,1,-1.3241e-05,-4.7353e-08,0,2.643e-07,-3.7088e-06,-5.385e+06,-10759,0,62760,-22926,9752,11091,1,11091,1,-5.8316e-06,-4.7967e-09,0,3.9639e-06,-2.0972e-06,-2.3718e+06,-1141.8,0,1.1919e+06,-3408.7,11090,13678,1,13678,1,1.1288e-05,1.4023e-09,0,1.2502e-05,1.0996e-06,2.1182e+06,310.01,0,2.9343e+06,-47.086,13677,1491.5,0,1491.5,0,9.6016e-06,8.8857e-09,0,5.2159e-06,1.7932e-06,2.5867e+06,2096.9,0,1.3285e+06,4281.1,1491.5,1
4990,0.07,12381,1,12381,1,3.3838e-06,-1.7293e-10,0,1.0026e-05,-6.1976e-07,-1.006e+05,-7.3885,0,2.6005e+06,-1935.8,12380,15000,1,15000,1,2.3267e-05,2.9807e-08,0,2.3267e-05,2.9163e-06,3.8742e+06,8179.2,0,6.31e+06,1127.5,14999,12382,1,12382,1,3.2047e-06,1.2961e-10,0,9.7256e-06,-6.0249e-07,7.9614e+05,36.184,0,2.487e+06,-510.51,12381,9753,1,9753,1,-1.5515e-05,-2.5268e-08,0,3.1331e-07,-4.3331e-06,-6.31e+06,-5942.4,0,75297,-16682,9752,11091,1,11091,1,-6.8179e-06,-5.8367e-09,0,4.6471e-06,-2.4543e-06,-2.7723e+06,-1326.2,0,1.3978e+06,-2212.6,11090,13678,1,13678,1,1.3226e-05,5.6516e-09,0,1.4646e-05,1.2881e-06,2.4816e+06,1247.3,0,3.4377e+06,-134.77,13677,1491.5,0,1491.5,0,1.1242e-05,8.8636e-09,0,6.1066e-06,2.0991e-06,3.0287e+06,2078.9,0,1.5553e+06,3213.1,1491.5,1
4990,0.08,12381,1,12381,1,3.8448e-06,-6.9919e-10,0,1.1396e-05,-6.973e-07,-1.1443e+05,-120.56,0,2.9561e+06,90.925,12380,15000,1,15000,1,2.6453e-05,1.2941e-08,0,2.6453e-05,3.305e-06,4.4047e+06,4428.2,0,7.1515e+06,2070.1,14999,12382,1,12382,1,3.6345e-06,2.2107e-12,0,1.1048e-05,-6.5748e-07,9.0389e+05,0.38499,0,2.8245e+06,-9.5176,12381,9753,1,9753,1,-1.7584e-05,-1.2706e-08,0,3.4972e-07,-4.9226e-06,-7.1515e+06,-2646.7,0,84683,-302.33,9752,11091,1,11091,1,-7.7728e-06,-3.0655e-09,0,5.2674e-06,-2.787e-06,-3.1605e+06,-663.18,0,1.5849e+06,-46.015,11090,13678,1,13678,1,1.5044e-05,2.0294e-09,0,1.667e-05,1.4694e-06,2.8229e+06,456.4,0,3.9121e+06,48.288,13677,1491.5,0,1491.5,0,1.2778e-05,4.3401e-09,0,6.9415e-06,2.3856e-06,3.4428e+06,986.23,0,1.7679e+06,329.72,1491.5,1
4990,0.09,12381,1,12381,1,4.3241e-06,-1.1116e-10,0,1.2815e-05,-7.8426e-07,-1.2857e+05,17.187,0,3.3243e+06,90.127,12380,15000,1,15000,1,2.977e-05,1.5713e-08,0,2.977e-05,3.7148e-06,4.9571e+06,5376.7,0,8.0384e+06,2331.1,14999,12382,1,12382,1,4.0855e-06,-6.16e-10,0,1.2419e-05,-7.3877e-07,1.0161e+06,-141.23,0,3.1752e+06,-1.1361,12381,9753,1,9753,1,-1.9764e-05,-1.1737e-08,0,3.9368e-07,-5.54e-06,-8.0384e+06,-1728.5,0,95345,-290.62,9752,11091,1,11091,1,-8.7469e-06,-1.6883e-09,0,5.9209e-06,-3.1339e-06,-3.5567e+06,-368.98,0,1.7815e+06,-17.396,11090,13678,1,13678,1,1.6917e-05,5.675e-10,0,1.8748e-05,1.6526e-06,3.1743e+06,124.07,0,4.3998e+06,19.224,13677,1491.5,0,1491.5,0,1.437e-05,2.6943e-09,0,7.8065e-06,2.6828e-06,3.8716e+06,694.92,0,1.988e+06,342.45,1491.5,1
4990,0.1,12381,1,12381,1,4.805e-06,2.0722e-10,0,1.4241e-05,-8.715e-07,-1.4289e+05,94.319,0,3.6942e+06,98.715,12380,15000,1,15000,1,3.3064e-05,1.7777e-08,0,3.3064e-05,4.1293e-06,5.5056e+06,6083.2,0,8.9351e+06,2375.9,14999,12382,1,12382,1,4.5405e-06,2.5272e-10,0,1.3802e-05,-8.2111e-07,1.1292e+06,64.525,0,3.5288e+06,-8.2063,12381,9753,1,9753,1,-2.1969e-05,-1.3226e-08,0,4.3836e-07,-6.1529e-06,-8.9351e+06,-1948,0,1.0621e+05,-491,9752,11091,1,11091,1,-9.7165e-06,-2.6183e-09,0,6.5808e-06,-3.4828e-06,-3.9509e+06,-598.13,0,1.98e+06,-32.266,11090,13678,1,13678,1,1.8799e-05,2.7703e-09,0,2.0833e-05,1.8363e-06,3.5276e+06,627.39,0,4.8888e+06,22.862,13677,1491.5,0,1491.5,0,1.5969e-05,3.7823e-09,0,8.6747e-06,2.9813e-06,4.3023e+06,916.87,0,2.2092e+06,367.87,1491.5,1
4990,0.11,12381,1,12381,1,5.2883e-06,9.442e-10,0,1.5673e-05,-9.5915e-07,-1.5727e+05,253.1,0,4.0657e+06,106.4,12380,15000,1,15000,1,3.6362e-05,2.0673e-08,0,3.6362e-05,4.5469e-06,6.0547e+06,7073.9,0,9.8386e+06,2770.6,14999,12382,1,12382,1,4.9982e-06,8.4824e-10,0,1.5192e-05,-9.0383e-07,1.2431e+06,182.21,0,3.8843e+06,-15.443,12381,9753,1,9753,1,-2.4191e-05,-1.2658e-08,0,4.8155e-07,-6.7669e-06,-9.8386e+06,-2261.4,0,1.1668e+05,-384.29,9752,11091,1,11091,1,-1.0689e-05,-3.3082e-09,0,7.2456e-06,-3.8331e-06,-4.3465e+06,-750.26,0,2.18e+06,-53.307,11090,13678,1,13678,1,2.069e-05,5.0485e-09,0,2.2927e-05,2.0205e-06,3.8823e+06,1181.1,0,5.3802e+06,40.682,13677,1491.5,0,1491.5,0,1.7575e-05,5.639e-09,0,9.5469e-06,3.2811e-06,4.735e+06,1325.3,0,2.4314e+06,436.11,1491.5,1
4990,0.12,12381,1,12381,1,5.759e-06,-1.7218e-10,0,1.7067e-05,-1.0444e-06,-1.7117e+05,22.034,0,4.4273e+06,147.08,12380,15000,1,15000,1,3.9684e-05,1.803e-08,0,3.9684e-05,4.9451e-06,6.6079e+06,6169.4,0,1.0701e+07,3014.9,14999,12382,1,12382,1,5.4396e-06,9.5762e-11,0,1.6537e-05,-9.8355e-07,1.3528e+06,23.347,0,4.2282e+06,4.9209,12381,9753,1,9753,1,-2.631e-05,-2.2824e-08,0,5.2542e-07,-7.3848e-06,-1.0701e+07,-3506.2,0,1.2728e+05,-492.22,9752,11091,1,11091,1,-1.1652e-05,-1.0314e-10,0,7.8826e-06,-4.1741e-06,-4.7382e+06,-25.336,0,2.3718e+06,-3.2555,11090,13678,1,13678,1,2.2531e-05,4.8486e-10,0,2.4973e-05,2.2015e-06,4.2279e+06,113.92,0,5.86e+06,19.024,13677,1491.5,0,1491.5,0,1.9138e-05,3.1245e-09,0,1.0397e-05,3.573e-06,5.1561e+06,676.38,0,2.6476e+06,453.64,1491.5,1
4990,0.13,12381,1,12381,1,6.2438e-06,-2.2086e-10,0,1.8504e-05,-1.1323e-06,-1.8557e+05,14.378,0,4.8e+06,183.95,12380,15000,1,15000,1,4.3e-05,2.1565e-08,0,4.3e-05,5.3623e-06,7.16e+06,7379.1,0,1.1603e+07,16392,14999,12382,1,12382,1,5.8987e-06,-3.869e-10,0,1.7932e-05,-1.0664e-06,1.467e+06,-89.819,0,4.5847e+06,29.214,12381,9753,1,9753,1,-2.853e-05,-2.6113e-08,0,5.6976e-07,-8.0562e-06,-1.1603e+07,-3655.2,0,1.3805e+05,-26692,9752,11091,1,11091,1,-1.2631e-05,-1.4818e-09,0,8.5473e-06,-4.5255e-06,-5.1361e+06,-324.61,0,2.5718e+06,-7.5609,11090,13678,1,13678,1,2.4429e-05,8.5863e-10,0,2.7075e-05,2.3868e-06,4.584e+06,196.12,0,6.3536e+06,163.44,13677,1491.5,0,1491.5,0,2.0749e-05,3.3755e-09,0,1.1272e-05,3.8739e-06,5.5901e+06,832.11,0,2.8704e+06,911.99,1491.5,1
4990,0.14,12381,1,12381,1,6.7202e-06,-1.2002e-10,0,1.9916e-05,-1.2189e-06,-1.9975e+05,40.805,0,5.1663e+06,140.64,12380,15000,1,15000,1,4.6297e-05,3.4495e-08,0,4.6297e-05,5.7704e-06,7.7087e+06,7462,0,1.2487e+07,3507.8,14999,12382,1,12382,1,6.348e-06,9.5034e-11,0,1.9299e-05,-1.1478e-06,1.5788e+06,21.305,0,4.9342e+06,-0.23863,12381,9753,1,9753,1,-3.0702e-05,-2.4978e-08,0,6.1331e-07,-8.6555e-06,-1.2487e+07,-3806.5,0,1.4859e+05,-15072,9752,11091,1,11091,1,-1.3597e-05,-5.1672e-10,0,9.1983e-06,-4.8712e-06,-5.5289e+06,-117.82,0,2.7676e+06,-12.016,11090,13678,1,13678,1,2.6293e-05,7.6972e-10,0,2.9142e-05,2.5691e-06,4.9338e+06,186.73,0,6.8385e+06,25.256,13677,1491.5,0,1491.5,0,2.2333e-05,3.5329e-09,0,1.2132e-05,4.1695e-06,6.0167e+06,798.99,0,3.0894e+06,657.02,1491.5,1
4990,0.15,12381,1,12381,1,7.1995e-06,-4.9533e-10,0,2.1336e-05,-1.306e-06,-2.1398e+05,-34.315,0,5.5347e+06,90.896,12380,15000,1,15000,1,4.9613e-05,1.1725e-07,0,4.9613e-05,6.1812e-06,8.2611e+06,16442,0,1.3375e+07,3826.5,14999,12382,1,12382,1,6.8003e-06,-1.4287e-10,0,2.0675e-05,-1.2296e-06,1.6912e+06,-33.747,0,5.286e+06,5.9527,12381,9753,1,9753,1,-3.2887e-05,-5.356e-08,0,6.5728e-07,-9.2825e-06,-1.3375e+07,-7562.9,0,1.5927e+05,-21189,9752,11091,1,11091,1,-1.4567e-05,-5.2812e-10,0,9.8533e-06,-5.2185e-06,-5.9235e+06,-111.25,0,2.9647e+06,-3.8653,11090,13678,1,13678,1,2.8169e-05,2.4621e-11,0,3.1222e-05,2.7522e-06,5.2858e+06,6.5597,0,7.3262e+06,28.64,13677,1491.5,0,1491.5,0,2.3925e-05,4.283e-09,0,1.2997e-05,4.4671e-06,6.4457e+06,881.97,0,3.3097e+06,934.47,1491.5,1
4990,0.16,12381,1,12381,1,7.6786e-06,-1.0043e-09,0,2.2759e-05,-1.3932e-06,-2.2858e+05,-122.67,0,5.9038e+06,-8.8791,12380,15000,1,15000,1,5.2948e-05,1.1558e-07,0,5.2948e-05,6.5941e-06,8.8164e+06,16249,0,1.4269e+07,10670,14999,12382,1,12382,1,7.253e-06,-4.3177e-10,0,2.2054e-05,-1.3116e-06,1.8038e+06,-118.07,0,5.6383e+06,-15.534,12381,9753,1,9753,1,-3.5084e-05,-2.2479e-07,0,7.0085e-07,-9.8701e-06,-1.4269e+07,-32424,0,1.6983e+05,-22220,9752,11091,1,11091,1,-1.5539e-05,-1.404e-09,0,1.051e-05,-5.5666e-06,-6.3188e+06,-280.39,0,3.1625e+06,-100.32,11090,13678,1,13678,1,3.0046e-05,3.0488e-10,0,3.33e-05,2.9359e-06,5.6379e+06,83.467,0,7.8142e+06,53.923,13677,1491.5,0,1491.5,0,2.5521e-05,8.8307e-09,0,1.3864e-05,4.7653e-06,6.8757e+06,1453.9,0,3.5306e+06,1213.6,1491.5,1
4990,0.17,12381,1,12381,1,8.1622e-06,-1.158e-10,0,2.4189e-05,-1.4813e-06,-2.4257e+05,54.588,0,6.2746e+06,-108.57,12380,15000,1,15000,1,5.6244e-05,1.47e-07,0,5.6244e-05,7.0087e-06,9.3644e+06,21195,0,1.5166e+07,10491,14999,12382,1,12382,1,7.7115e-06,8.6873e-11,0,2.344e-05,-1.3947e-06,1.9178e+06,23.076,0,5.9933e+06,-12.472,12381,9753,1,9753,1,-3.729e-05,-1.7816e-07,0,7.4355e-07,-1.0495e-05,-1.5166e+07,-25330,0,1.7997e+05,-17368,9752,11091,1,11091,1,-1.6514e-05,-9.8524e-10,0,1.1174e-05,-5.9169e-06,-6.7151e+06,-215.88,0,3.362e+06,-100.47,11090,13678,1,13678,1,3.1936e-05,1.0729e-09,0,3.5396e-05,3.1201e-06,5.9927e+06,253.89,0,8.3062e+06,29.139,13677,1491.5,0,1491.5,0,2.7124e-05,8.7192e-09,0,1.4735e-05,5.065e-06,7.3075e+06,1449.4,0,3.7522e+06,1427.8,1491.5,1
4990,0.18,12381,1,12381,1,8.6449e-06,-2.6503e-10,0,2.5613e-05,-1.568e-06,-2.562e+05,36.928,0,6.644e+06,168.21,12380,15000,1,15000,1,5.9548e-05,2.913e-08,0,5.9548e-05,7.4207e-06,9.9153e+06,9967.7,0,1.6057e+07,4826.1,14999,12382,1,12382,1,8.1665e-06,1.3112e-11,0,2.4818e-05,-1.477e-06,2.031e+06,2.8363,0,6.3462e+06,-3.2286,12381,9753,1,9753,1,-3.9482e-05,-3.3138e-08,0,7.8749e-07,-1.1083e-05,-1.6057e+07,-4797.8,0,1.9077e+05,-2269.1,9752,11091,1,11091,1,-1.7484e-05,-1.1995e-09,0,1.1833e-05,-6.265e-06,-7.1093e+06,-264.54,0,3.5601e+06,-69.429,11090,13678,1,13678,1,3.3817e-05,1.0293e-09,0,3.748e-05,3.3035e-06,6.3457e+06,235.35,0,8.795e+06,68.087,13677,1491.5,0,1491.5,0,2.8721e-05,4.6996e-09,0,1.5603e-05,5.3623e-06,7.7375e+06,1078.7,0,3.9729e+06,753.51,1491.5,1
4990,0.19,12381,1,12381,1,9.1269e-06,4.9956e-11,0,2.704e-05,-1.6559e-06,-2.7033e+05,88.58,0,7.014e+06,39.242,12380,15000,1,15000,1,6.2881e-05,9.9415e-08,0,6.2881e-05,7.8344e-06,1.047e+07,13978,0,1.6953e+07,4995.1,14999,12382,1,12382,1,8.623e-06,2.5103e-10,0,2.62e-05,-1.5594e-06,2.1445e+06,62.698,0,6.7001e+06,-15.01,12381,9753,1,9753,1,-4.1682e-05,-6.4899e-08,0,8.311e-07,-1.172e-05,-1.6953e+07,-9143,0,2.0131e+05,-14701,9752,11091,1,11091,1,-1.8457e-05,-1.3741e-09,0,1.2494e-05,-6.6148e-06,-7.5049e+06,-300.46,0,3.7589e+06,-102.29,11090,13678,1,13678,1,3.5701e-05,1.6457e-09,0,3.9568e-05,3.4874e-06,6.6993e+06,370.48,0,9.2849e+06,60.398,13677,1491.5,0,1491.5,0,3.032e-05,6.2986e-09,0,1.6472e-05,5.6614e-06,8.1684e+06,1269.1,0,4.1941e+06,1097.7,1491.5,1
4990,0.2,12381,1,12381,1,9.6025e-06,-2.2863e-10,0,2.8455e-05,-1.7415e-06,-2.8512e+05,49.518,0,7.3813e+06,245.15,12380,15000,1,15000,1,6.6154e-05,3.9529e-08,0,6.6154e-05,8.2436e-06,1.1015e+07,10934,0,1.7838e+07,5152.6,14999,12382,1,12382,1,9.07e-06,4.6103e-11,0,2.7572e-05,-1.6401e-06,2.2557e+06,12.058,0,7.0497e+06,12.459,12381,9753,1,9753,1,-4.386e-05,-3.5627e-08,0,8.7661e-07,-1.2312e-05,-1.7838e+07,-5450.8,0,2.1241e+05,-3749.7,9752,11091,1,11091,1,-1.9427e-05,-5.3085e-10,0,1.3142e-05,-6.9598e-06,-7.8996e+06,-111.39,0,3.9541e+06,-15.568,11090,13678,1,13678,1,3.7568e-05,4.8303e-10,0,4.164e-05,3.6705e-06,7.0496e+06,110.08,0,9.7709e+06,76.36,13677,1491.5,0,1491.5,0,3.1908e-05,5.0079e-09,0,1.7334e-05,5.9571e-06,8.5963e+06,1152.1,0,4.4139e+06,805.89,1491.5,1
4990,0.21,12381,1,12381,1,1.0082e-05,-2.0161e-10,0,2.9877e-05,-1.8293e-06,-2.9934e+05,49.68,0,7.75e+06,19.097,12380,15000,1,15000,1,6.9473e-05,2.0851e-07,0,6.9473e-05,8.6559e-06,1.1567e+07,29384,0,1.873e+07,5896.9,14999,12382,1,12382,1,9.5238e-06,1.3919e-10,0,2.895e-05,-1.7226e-06,2.3685e+06,30.324,0,7.4022e+06,-28.347,12381,9753,1,9753,1,-4.6054e-05,-1.0502e-07,0,9.2129e-07,-1.2952e-05,-1.873e+07,-14724,0,2.2338e+05,-20985,9752,11091,1,11091,1,-2.0396e-05,-4.5898e-10,0,1.3799e-05,-7.3082e-06,-8.2937e+06,-112.81,0,4.1519e+06,-142.19,11090,13678,1,13678,1,3.9446e-05,7.1156e-10,0,4.372e-05,3.8538e-06,7.4019e+06,154.16,0,1.0259e+07,35.986,13677,1491.5,0,1491.5,0,3.3502e-05,8.1905e-09,0,1.82e-05,6.2554e-06,9.0257e+06,1492.1,0,4.6344e+06,1171.6,1491.5,1
4990,0.22,12381,1,12381,1,1.0561e-05,-2.6995e-10,0,3.1298e-05,-1.9154e-06,-3.139e+05,34.567,0,8.1186e+06,233.6,12380,15000,1,15000,1,7.2756e-05,1.0582e-07,0,7.2756e-05,9.0669e-06,1.2115e+07,15580,0,1.962e+07,5783.9,14999,12382,1,12382,1,9.9752e-06,2.6931e-11,0,3.0327e-05,-1.8037e-06,2.4808e+06,6.99,0,7.7539e+06,2.646,12381,9753,1,9753,1,-4.824e-05,-4.7609e-08,0,9.6203e-07,-1.3551e-05,-1.962e+07,-7177.8,0,2.3301e+05,-8139.2,9752,11091,1,11091,1,-2.137e-05,-3.0692e-10,0,1.4453e-05,-7.6554e-06,-8.6894e+06,-58.183,0,4.3488e+06,-10.934,11090,13678,1,13678,1,4.1321e-05,3.0288e-10,0,4.5799e-05,4.0374e-06,7.7538e+06,64.806,0,1.0747e+07,72.761,13677,1491.5,0,1491.5,0,3.5095e-05,6.7176e-09,0,1.9066e-05,6.5523e-06,9.4551e+06,1382.8,0,4.855e+06,918,1491.5,1
4990,0.23,12381,1,12381,1,1.1046e-05,-4.4297e-10,0,3.2728e-05,-2.0032e-06,-3.275e+05,17.892,0,8.4895e+06,290.64,12380,15000,1,15000,1,7.6064e-05,6.3421e-08,0,7.6064e-05,9.4817e-06,1.2665e+07,12999,0,2.0517e+07,6665.3,14999,12382,1,12382,1,1.0435e-05,-1.0959e-10,0,3.171e-05,-1.8869e-06,2.5952e+06,-25.633,0,8.1088e+06,35.211,12381,9753,1,9753,1,-5.0447e-05,-4.6449e-08,0,1.0024e-06,-1.4176e-05,-2.0517e+07,-7136.5,0,2.4258e+05,-10390,9752,11091,1,11091,1,-2.2342e-05,-1.2592e-09,0,1.5119e-05,-8.0048e-06,-9.0849e+06,-284.49,0,4.5489e+06,-1.4963,11090,13678,1,13678,1,4.3209e-05,1.0343e-09,0,4.789e-05,4.2213e-06,8.108e+06,244.83,0,1.1238e+07,134.28,13677,1491.5,0,1491.5,0,3.6698e-05,6.2785e-09,0,1.9937e-05,6.8516e-06,9.8868e+06,1395.6,0,5.0764e+06,1039.8,1491.5,1
4990,0.24,12381,1,12381,1,1.1524e-05,-5.8635e-10,0,3.4147e-05,-2.09e-06,-3.4197e+05,-19.695,0,8.8576e+06,281,12380,15000,1,15000,1,7.9383e-05,3.7276e-08,0,7.9383e-05,9.893e-06,1.3218e+07,12755,0,2.1407e+07,6319.3,14999,12382,1,12382,1,1.0886e-05,-4.1052e-10,0,3.3086e-05,-1.9684e-06,2.7074e+06,-101.25,0,8.4601e+06,43.004,12381,9753,1,9753,1,-5.2635e-05,-4.4481e-08,0,1.051e-06,-1.4806e-05,-2.1407e+07,-6638.3,0,2.5467e+05,-10783,9752,11091,1,11091,1,-2.3312e-05,-1.4161e-09,0,1.5774e-05,-8.3513e-06,-9.4793e+06,-273.41,0,4.7458e+06,-0.15409,11090,13678,1,13678,1,4.5081e-05,3.9534e-10,0,4.9967e-05,4.4043e-06,8.4594e+06,93.241,0,1.1725e+07,166.37,13677,1491.5,0,1491.5,0,3.829e-05,5.5728e-09,0,2.0801e-05,7.1487e-06,1.0316e+07,1299.1,0,5.2967e+06,1048.9,1491.5,1
4990,0.25,12381,1,12381,1,1.2002e-05,-5.7672e-10,0,3.5565e-05,-2.1769e-06,-3.5643e+05,-14.629,0,9.2257e+06,227.56,12380,15000,1,15000,1,8.2682e-05,7.1731e-08,0,8.2682e-05,1.0304e-05,1.3767e+07,13106,0,2.2297e+07,6192.9,14999,12382,1,12382,1,1.1337e-05,-1.1523e-11,0,3.4462e-05,-2.0501e-06,2.8196e+06,-3.0752,0,8.8114e+06,21.82,12381,9753,1,9753,1,-5.4822e-05,-6.9275e-08,0,1.0964e-06,-1.5408e-05,-2.2297e+07,-9836.7,0,2.6576e+05,-9962.4,9752,11091,1,11091,1,-2.4282e-05,-1.4536e-09,0,1.6428e-05,-8.6987e-06,-9.8735e+06,-359.6,0,4.9428e+06,-9.1025,11090,13678,1,13678,1,4.6952e-05,9.2367e-10,0,5.2041e-05,4.5876e-06,8.8105e+06,226.61,0,1.2212e+07,89.525,13677,1491.5,0,1491.5,0,3.9881e-05,6.3158e-09,0,2.1665e-05,7.4459e-06,1.0744e+07,1410.1,0,5.5169e+06,1108.5,1491.5,1
4990,0.26,12381,1,12381,1,1.2482e-05,-5.2001e-10,0,3.6988e-05,-2.2637e-06,-3.7055e+05,13.588,0,9.5946e+06,317.9,12380,15000,1,15000,1,8.5998e-05,4.0192e-08,0,8.5998e-05,1.0715e-05,1.4319e+07,13753,0,2.3186e+07,6636.7,14999,12382,1,12382,1,1.179e-05,1.8318e-11,0,3.5839e-05,-2.132e-06,2.9322e+06,4.3657,0,9.1636e+06,10.824,12381,9753,1,9753,1,-5.701e-05,-4.9271e-08,0,1.1386e-06,-1.601e-05,-2.3186e+07,-7461,0,2.7589e+05,-2450.9,9752,11091,1,11091,1,-2.5253e-05,-6.4709e-10,0,1.7084e-05,-9.0466e-06,-1.0269e+07,-126.76,0,5.1402e+06,-19.933,11090,13678,1,13678,1,4.8832e-05,5.7615e-10,0,5.4124e-05,4.7712e-06,9.1632e+06,129.19,0,1.27e+07,100.65,13677,1491.5,0,1491.5,0,4.1476e-05,6.5609e-09,0,2.2532e-05,7.7433e-06,1.1174e+07,1457.4,0,5.7375e+06,1009.3,1491.5,1
4990,0.27,12381,1,12381,1,1.2957e-05,-5.1675e-10,0,3.8404e-05,-2.3517e-06,-3.8561e+05,-9.0011,0,9.9622e+06,-202.41,12380,15000,1,15000,1,8.933e-05,6.4987e-07,0,8.933e-05,1.1126e-05,1.4873e+07,91756,0,2.4075e+07,21191,14999,12382,1,12382,1,1.224e-05,-8.0566e-11,0,3.7215e-05,-2.2136e-06,3.0441e+06,-20.441,0,9.5148e+06,-25.788,12381,9753,1,9753,1,-5.9196e-05,-2.0958e-07,0,1.1764e-06,-1.6688e-05,-2.4075e+07,-29475,0,2.8466e+05,-46123,9752,11091,1,11091,1,-2.6224e-05,-7.2948e-10,0,1.7736e-05,-9.3943e-06,-1.0663e+07,-164.46,0,5.3364e+06,-131.7,11090,13678,1,13678,1,5.0706e-05,1.7402e-10,0,5.6201e-05,4.9545e-06,9.5147e+06,48.666,0,1.3188e+07,21.614,13677,1491.5,0,1491.5,0,4.3064e-05,2.0246e-08,0,2.3394e-05,8.0418e-06,1.1602e+07,3104.6,0,5.9576e+06,2599.3,1491.5,1
4990,0.28,12381,1,12381,1,1.3439e-05,-1.9425e-10,0,3.9829e-05,-2.4383e-06,-3.9946e+05,50.937,0,1.0332e+07,51.272,12380,15000,1,15000,1,9.262e-05,3.3501e-07,0,9.262e-05,1.1539e-05,1.5422e+07,47032,0,2.4969e+07,14217,14999,12382,1,12382,1,1.2696e-05,-2.7083e-10,0,3.8593e-05,-2.2958e-06,3.1575e+06,-64.642,0,9.8678e+06,27.413,12381,9753,1,9753,1,-6.1392e-05,-1.4181e-07,0,1.2228e-06,-1.7286e-05,-2.4969e+07,-19932,0,2.9579e+05,-31948,9752,11091,1,11091,1,-2.7194e-05,-1.2071e-09,0,1.8396e-05,-9.7418e-06,-1.1058e+07,-242.11,0,5.535e+06,-5.9363,11090,13678,1,13678,1,5.2583e-05,2.5275e-10,0,5.8283e-05,5.1377e-06,9.8671e+06,56.114,0,1.3677e+07,126.22,13677,1491.5,0,1491.5,0,4.4661e-05,1.3101e-08,0,2.4262e-05,8.3392e-06,1.2032e+07,2208.4,0,6.1784e+06,1900.8,1491.5,1
4990,0.29,12381,1,12381,1,1.3921e-05,-6.514e-10,0,4.1255e-05,-2.5247e-06,-4.136e+05,-2.294,0,1.0702e+07,348.56,12380,15000,1,15000,1,9.5927e-05,4.5259e-08,0,9.5927e-05,1.1952e-05,1.5973e+07,15487,0,2.5863e+07,7491.9,14999,12382,1,12382,1,1.315e-05,-8.5356e-11,0,3.9975e-05,-2.3778e-06,3.2704e+06,-20.405,0,1.0221e+07,44.61,12381,9753,1,9753,1,-6.3591e-05,-5.8994e-08,0,1.2697e-06,-1.787e-05,-2.5863e+07,-8685.5,0,3.0755e+05,-8992.5,9752,11091,1,11091,1,-2.8168e-05,-1.2063e-09,0,1.9056e-05,-1.009e-05,-1.1454e+07,-308.84,0,5.7334e+06,3.8921,11090,13678,1,13678,1,5.4463e-05,8.1309e-10,0,6.0366e-05,5.3217e-06,1.022e+07,198.23,0,1.4165e+07,114.75,13677,1491.5,0,1491.5,0,4.626e-05,7.2262e-09,0,2.5131e-05,8.6367e-06,1.2463e+07,1625.4,0,6.3995e+06,1175,1491.5,1
4990,0.3,12381,1,12381,1,1.4401e-05,-3.8958e-10,0,4.2677e-05,-2.6119e-06,-4.2778e+05,43.141,0,1.107e+07,339.91,12380,15000,1,15000,1,9.9218e-05,4.6745e-08,0,9.9218e-05,1.2364e-05,1.6521e+07,15995,0,2.6755e+07,7787.9,14999,12382,1,12382,1,1.3604e-05,7.4479e-11,0,4.1353e-05,-2.4597e-06,3.3832e+06,18.612,0,1.0573e+07,31.726,12381,9753,1,9753,1,-6.5784e-05,-5.4841e-08,0,1.315e-06,-1.8478e-05,-2.6755e+07,-8311.2,0,3.1871e+05,-11917,9752,11091,1,11091,1,-2.9137e-05,-1.4209e-09,0,1.9712e-05,-1.0438e-05,-1.1848e+07,-324.81,0,5.9309e+06,-3.975,11090,13678,1,13678,1,5.6339e-05,1.3052e-09,0,6.2446e-05,5.505e-06,1.0572e+07,313.06,0,1.4654e+07,100.42,13677,1491.5,0,1491.5,0,4.7855e-05,7.4457e-09,0,2.5997e-05,8.9345e-06,1.2893e+07,1686.8,0,6.62e+06,1277.5,1491.5,1
4990,0.31,12381,1,12381,1,1.488e-05,-7.7672e-11,0,4.4098e-05,-2.6992e-06,-4.422e+05,115.83,0,1.1439e+07,201.64,12380,15000,1,15000,1,0.00010255,4.1375e-07,0,0.00010255,1.2776e-05,1.7074e+07,58081,0,2.7646e+07,17430,14999,12382,1,12382,1,1.4057e-05,1.1118e-10,0,4.2731e-05,-2.542e-06,3.4961e+06,28.853,0,1.0926e+07,12.77,12381,9753,1,9753,1,-6.7976e-05,-2.7236e-07,0,1.3536e-06,-1.9147e-05,-2.7646e+07,-38233,0,3.2757e+05,-40735,9752,11091,1,11091,1,-3.0107e-05,-1.2602e-09,0,2.0368e-05,-1.0786e-05,-1.2242e+07,-280.63,0,6.1284e+06,-25.553,11090,13678,1,13678,1,5.8221e-05,1.4201e-09,0,6.4529e-05,5.6886e-06,1.0925e+07,326.41,0,1.5142e+07,86.345,13677,1491.5,0,1491.5,0,4.9448e-05,1.5927e-08,0,2.6863e-05,9.2324e-06,1.3322e+07,2633.7,0,6.8406e+06,1836.9,1491.5,1
4990,0.32,12381,1,12381,1,1.5358e-05,-7.6745e-10,0,4.5514e-05,-2.7853e-06,-4.565e+05,-8.5256,0,1.1807e+07,363.18,12380,15000,1,15000,1,0.00010582,4.9101e-08,0,0.00010582,1.3187e-05,1.762e+07,16801,0,2.8534e+07,7943.1,14999,12382,1,12382,1,1.4507e-05,-5.1207e-11,0,4.4103e-05,-2.6233e-06,3.6079e+06,-11.889,0,1.1276e+07,-6.6329,12381,9753,1,9753,1,-7.0159e-05,-5.7989e-08,0,1.4014e-06,-1.9691e-05,-2.8534e+07,-8908.7,0,3.3948e+05,-3708.2,9752,11091,1,11091,1,-3.1076e-05,-1.4575e-09,0,2.1021e-05,-1.1132e-05,-1.2636e+07,-388.06,0,6.3247e+06,-29.549,11090,13678,1,13678,1,6.0088e-05,1.123e-09,0,6.66e-05,5.8713e-06,1.1275e+07,256.02,0,1.5628e+07,40.777,13677,1491.5,0,1491.5,0,5.1037e-05,8.0213e-09,0,2.7726e-05,9.5284e-06,1.375e+07,1813.2,0,7.0604e+06,1198.5,1491.5,1
4990,0.33,12381,1,12381,1,1.5841e-05,-6.626e-10,0,4.6942e-05,-2.873e-06,-4.7049e+05,8.0731,0,1.2177e+07,349.37,12380,15000,1,15000,1,0.00010914,1.0314e-07,0,0.00010914,1.36e-05,1.8174e+07,17380,0,2.9428e+07,8360.7,14999,12382,1,12382,1,1.4963e-05,-2.5463e-10,0,4.5485e-05,-2.7059e-06,3.7214e+06,-57.568,0,1.163e+07,30.511,12381,9753,1,9753,1,-7.2356e-05,-5.9265e-08,0,1.4443e-06,-2.0335e-05,-2.9428e+07,-9117.9,0,3.4989e+05,-16878,9752,11091,1,11091,1,-3.2049e-05,-1.4024e-09,0,2.1682e-05,-1.1481e-05,-1.3032e+07,-296.8,0,6.5235e+06,-13.148,11090,13678,1,13678,1,6.1973e-05,7.3266e-10,0,6.8689e-05,6.0552e-06,1.1629e+07,174.12,0,1.6118e+07,130.92,13677,1491.5,0,1491.5,0,5.2638e-05,8.3765e-09,0,2.8596e-05,9.8275e-06,1.4181e+07,1849.6,0,7.2817e+06,1382.9,1491.5,1
4990,0.34,12381,1,12381,1,1.632e-05,-5.8013e-10,0,4.8363e-05,-2.9598e-06,-4.8493e+05,34.011,0,1.2546e+07,378.5,12380,15000,1,15000,1,0.00011242,9.952e-08,0,0.00011242,1.4011e-05,1.8718e+07,18024,0,3.0318e+07,8940.1,14999,12382,1,12382,1,1.5416e-05,7.8433e-11,0,4.6863e-05,-2.7876e-06,3.8338e+06,19.172,0,1.1982e+07,25.331,12381,9753,1,9753,1,-7.4545e-05,-6.2949e-08,0,1.4878e-06,-2.0955e-05,-3.0318e+07,-9473.4,0,3.6035e+05,-12782,9752,11091,1,11091,1,-3.3022e-05,-7.4992e-10,0,2.2337e-05,-1.1829e-05,-1.3428e+07,-164.26,0,6.7208e+06,-20.439,11090,13678,1,13678,1,6.3848e-05,8.1079e-10,0,7.0768e-05,6.2388e-06,1.1981e+07,175.78,0,1.6606e+07,127.57,13677,1491.5,0,1491.5,0,5.4232e-05,8.9275e-09,0,2.9461e-05,1.0125e-05,1.4611e+07,1933.2,0,7.5022e+06,1438.8,1491.5,1
4990,0.35,12381,1,12381,1,1.6799e-05,-1.3552e-10,0,4.9786e-05,-3.0474e-06,-4.9951e+05,107.69,0,1.2915e+07,167.65,12380,15000,1,15000,1,0.00011579,2.6522e-07,0,0.00011579,1.4425e-05,1.928e+07,37246,0,3.1213e+07,8474.4,14999,12382,1,12382,1,1.5869e-05,-6.1038e-11,0,4.8244e-05,-2.8695e-06,3.9466e+06,-13.574,0,1.2335e+07,13.385,12381,9753,1,9753,1,-7.6745e-05,-6.8598e-08,0,1.5309e-06,-2.1608e-05,-3.1213e+07,-10095,0,3.7053e+05,-38159,9752,11091,1,11091,1,-3.3992e-05,-1.815e-09,0,2.2994e-05,-1.2177e-05,-1.3822e+07,-444.33,0,6.9186e+06,-18.874,11090,13678,1,13678,1,6.5728e-05,1.451e-09,0,7.2849e-05,6.4225e-06,1.2334e+07,339.45,0,1.7095e+07,56.943,13677,1491.5,0,1491.5,0,5.5827e-05,1.1041e-08,0,3.0328e-05,1.0424e-05,1.5041e+07,2206.1,0,7.7231e+06,2048.7,1491.5,1
4990,0.36,12381,1,12381,1,1.7282e-05,-8.1422e-10,0,5.1213e-05,-3.1341e-06,-5.1327e+05,-1.6623,0,1.3285e+07,476.98,12380,15000,1,15000,1,0.00011905,5.558e-08,0,0.00011905,1.4837e-05,1.9824e+07,19018,0,3.2106e+07,9261.1,14999,12382,1,12382,1,1.6325e-05,-1.9563e-11,0,4.9624e-05,-2.952e-06,4.0601e+06,-3.833,0,1.2688e+07,58.183,12381,9753,1,9753,1,-7.8941e-05,-6.5865e-08,0,1.5763e-06,-2.2163e-05,-3.2106e+07,-9960.3,0,3.8193e+05,-6665.4,9752,11091,1,11091,1,-3.4965e-05,-1.8082e-09,0,2.3655e-05,-1.2525e-05,-1.4218e+07,-391.09,0,7.1173e+06,-3.1716,11090,13678,1,13678,1,6.7611e-05,1.4427e-09,0,7.4937e-05,6.6062e-06,1.2687e+07,336.7,0,1.7585e+07,186.73,13677,1491.5,0,1491.5,0,5.7427e-05,9.1296e-09,0,3.1197e-05,1.0721e-05,1.5471e+07,2040.1,0,7.9442e+06,1430.9,1491.5,1
4990,0.37,12381,1,12381,1,1.7758e-05,-9.7566e-10,0,5.2628e-05,-3.2206e-06,-5.2782e+05,-24.953,0,1.3652e+07,461.39,12380,15000,1,15000,1,0.00012233,8.5648e-08,0,0.00012233,1.5246e-05,2.0368e+07,19730,0,3.2991e+07,9882.6,14999,12382,1,12382,1,1.6774e-05,4.3563e-11,0,5.0995e-05,-3.0329e-06,4.1716e+06,11.699,0,1.3038e+07,41.371,12381,9753,1,9753,1,-8.1117e-05,-1.0116e-07,0,1.6175e-06,-2.2806e-05,-3.2991e+07,-14218,0,3.9172e+05,-16637,9752,11091,1,11091,1,-3.5934e-05,-6.4083e-10,0,2.4305e-05,-1.2872e-05,-1.4612e+07,-144.87,0,7.313e+06,8.9005,11090,13678,1,13678,1,6.9479e-05,6.5917e-10,0,7.7009e-05,6.7891e-06,1.3037e+07,127.25,0,1.8071e+07,102.29,13677,1491.5,0,1491.5,0,5.9014e-05,9.9981e-09,0,3.2059e-05,1.1018e-05,1.5899e+07,2141.5,0,8.1638e+06,1526.1,1491.5,1
4990,0.38,12381,1,12381,1,1.8239e-05,-6.9142e-10,0,5.4052e-05,-3.3078e-06,-5.4205e+05,32.962,0,1.4021e+07,437.92,12380,15000,1,15000,1,0.00012567,5.8105e-08,0,0.00012567,1.566e-05,2.0925e+07,19882,0,3.3885e+07,9566.3,14999,12382,1,12382,1,1.7228e-05,1.6902e-10,0,5.2376e-05,-3.1153e-06,4.2847e+06,43.363,0,1.3391e+07,15.397,12381,9753,1,9753,1,-8.3316e-05,-6.8212e-08,0,1.6654e-06,-2.3412e-05,-3.3885e+07,-10478,0,4.0352e+05,-9509.4,9752,11091,1,11091,1,-3.6905e-05,-1.214e-09,0,2.4964e-05,-1.322e-05,-1.5007e+07,-266.56,0,7.5112e+06,-7.5617,11090,13678,1,13678,1,7.1359e-05,1.246e-09,0,7.9092e-05,6.9726e-06,1.339e+07,292.76,0,1.856e+07,70.105,13677,1491.5,0,1491.5,0,6.0611e-05,9.1832e-09,0,3.2927e-05,1.1316e-05,1.6329e+07,2089.8,0,8.3847e+06,1455.6,1491.5,1
4990,0.39,12381,1,12381,1,1.8717e-05,-8.9829e-10,0,5.547e-05,-3.3945e-06,-5.563e+05,-9.5256,0,1.4389e+07,495.66,12380,15000,1,15000,1,0.00012898,5.9363e-08,0,0.00012898,1.607e-05,2.1477e+07,20313,0,3.4773e+07,10027,14999,12382,1,12382,1,1.768e-05,3.9155e-11,0,5.3749e-05,-3.1968e-06,4.397e+06,10.383,0,1.3742e+07,33.273,12381,9753,1,9753,1,-8.55e-05,-7.3145e-08,0,1.7073e-06,-2.4008e-05,-3.4773e+07,-11191,0,4.1361e+05,-2837.1,9752,11091,1,11091,1,-3.7874e-05,-5.4246e-10,0,2.5617e-05,-1.3567e-05,-1.5401e+07,-122.39,0,7.7079e+06,4.3425,11090,13678,1,13678,1,7.3233e-05,7.3946e-10,0,8.117e-05,7.1556e-06,1.3742e+07,172.39,0,1.9047e+07,99.468,13677,1491.5,0,1491.5,0,6.2201e-05,9.8168e-09,0,3.3791e-05,1.1613e-05,1.6758e+07,2154.7,0,8.6048e+06,1509.1,1491.5,1
4990,0.4,12381,1,12381,1,1.9198e-05,-1.4856e-09,0,5.6896e-05,-3.482e-06,-5.7072e+05,-93.341,0,1.4759e+07,387.87,12380,15000,1,15000,1,0.00013229,1.1029e-07,0,0.00013229,1.6484e-05,2.2027e+07,21084,0,3.5668e+07,13337,14999,12382,1,12382,1,1.8135e-05,-4.9463e-11,0,5.5132e-05,-3.2792e-06,4.5102e+06,-11.982,0,1.4096e+07,35.754,12381,9753,1,9753,1,-8.77e-05,-4.2255e-07,0,1.7503e-06,-2.463e-05,-3.5668e+07,-59601,0,4.2397e+05,-46490,9752,11091,1,11091,1,-3.8848e-05,-1.7133e-09,0,2.6278e-05,-1.3916e-05,-1.5797e+07,-392.29,0,7.9065e+06,-1.382,11090,13678,1,13678,1,7.5115e-05,1.1185e-09,0,8.3255e-05,7.3397e-06,1.4095e+07,257.02,0,1.9537e+07,152,13677,1491.5,0,1491.5,0,6.3799e-05,1.5929e-08,0,3.4659e-05,1.1911e-05,1.7188e+07,2859.5,0,8.8259e+06,2070,1491.5,1
4990,0.41,12381,1,12381,1,1.9677e-05,-9.4048e-10,0,5.8314e-05,-3.5685e-06,-5.8486e+05,-1.1551,0,1.5127e+07,495.78,12380,15000,1,15000,1,0.00013559,6.2493e-08,0,0.00013559,1.6894e-05,2.2576e+07,21384,0,3.6556e+07,10230,14999,12382,1,12382,1,1.8586e-05,3.7406e-11,0,5.6504e-05,-3.3607e-06,4.6222e+06,9.0268,0,1.4446e+07,2.0478,12381,9753,1,9753,1,-8.9883e-05,-7.5431e-08,0,1.7951e-06,-2.5231e-05,-3.6556e+07,-11585,0,4.3481e+05,-1905.5,9752,11091,1,11091,1,-3.9816e-05,-8.9956e-10,0,2.693e-05,-1.4263e-05,-1.619e+07,-212.03,0,8.1028e+06,-11.433,11090,13678,1,13678,1,7.6986e-05,8.0707e-10,0,8.533e-05,7.5224e-06,1.4446e+07,184.99,0,2.0023e+07,64.811,13677,1491.5,0,1491.5,0,6.5389e-05,1.0307e-08,0,3.5523e-05,1.2208e-05,1.7617e+07,2293,0,9.0458e+06,1540.1,1491.5,1
4990,0.42,12381,1,12381,1,2.0156e-05,-8.9078e-10,0,5.9735e-05,-3.6557e-06,-5.9908e+05,12.894,0,1.5495e+07,461.38,12380,15000,1,15000,1,0.0001389,6.4143e-08,0,0.0001389,1.7305e-05,2.3127e+07,21949,0,3.7446e+07,10479,14999,12382,1,12382,1,1.9039e-05,-1.0498e-10,0,5.7881e-05,-3.4427e-06,4.7349e+06,-24.699,0,1.4799e+07,-3.6615,12381,9753,1,9753,1,-9.2071e-05,-7.5598e-08,0,1.8396e-06,-2.5866e-05,-3.7446e+07,-11573,0,4.4562e+05,-10721,9752,11091,1,11091,1,-4.0786e-05,-5.374e-10,0,2.7586e-05,-1.461e-05,-1.6585e+07,-125.72,0,8.3002e+06,-17.166,11090,13678,1,13678,1,7.8863e-05,2.6399e-10,0,8.7411e-05,7.7057e-06,1.4798e+07,59.744,0,2.0511e+07,34.895,13677,1491.5,0,1491.5,0,6.6983e-05,1.0314e-08,0,3.6389e-05,1.2506e-05,1.8046e+07,2320.2,0,9.2663e+06,1617.1,1491.5,1
4990,0.43,12381,1,12381,1,2.0637e-05,-1.0765e-09,0,6.1158e-05,-3.7426e-06,-6.1337e+05,-20.777,0,1.5865e+07,516.48,12380,15000,1,15000,1,0.0001422,6.5946e-08,0,0.0001422,1.7718e-05,2.3678e+07,22565,0,3.8339e+07,10703,14999,12382,1,12382,1,1.9493e-05,-9.2406e-11,0,5.9261e-05,-3.5247e-06,4.8478e+06,-21.304,0,1.5151e+07,-2.0806,12381,9753,1,9753,1,-9.4266e-05,-7.7717e-08,0,1.8828e-06,-2.6464e-05,-3.8339e+07,-11913,0,4.5607e+05,-4706.4,9752,11091,1,11091,1,-4.1758e-05,-1.023e-09,0,2.8243e-05,-1.4959e-05,-1.698e+07,-250.44,0,8.498e+06,-13.249,11090,13678,1,13678,1,8.0743e-05,3.6406e-10,0,8.9494e-05,7.8894e-06,1.5151e+07,83.957,0,2.1e+07,57.435,13677,1491.5,0,1491.5,0,6.8579e-05,1.0604e-08,0,3.7256e-05,1.2803e-05,1.8476e+07,2393.8,0,9.4871e+06,1622.4,1491.5,1
4990,0.44,12381,1,12381,1,2.1116e-05,-1.0193e-09,0,6.2579e-05,-3.8296e-06,-6.2761e+05,-5.1105,0,1.6233e+07,529.76,12380,15000,1,15000,1,0.00014551,6.6951e-08,0,0.00014551,1.8129e-05,2.4228e+07,22909,0,3.9229e+07,11062,14999,12382,1,12382,1,1.9945e-05,3.4151e-12,0,6.0637e-05,-3.6065e-06,4.9603e+06,0.93181,0,1.5503e+07,0.98354,12381,9753,1,9753,1,-9.6455e-05,-8.1172e-08,0,1.9268e-06,-2.7088e-05,-3.9229e+07,-12470,0,4.6676e+05,-4041.7,9752,11091,1,11091,1,-4.2728e-05,-8.3669e-10,0,2.8899e-05,-1.5306e-05,-1.7375e+07,-190.11,0,8.6954e+06,-10.98,11090,13678,1,13678,1,8.2617e-05,5.8845e-10,0,9.1571e-05,8.0726e-06,1.5503e+07,145.63,0,2.1488e+07,75.821,13677,1491.5,0,1491.5,0,7.0172e-05,1.1024e-08,0,3.8121e-05,1.3101e-05,1.8905e+07,2450.5,0,9.7074e+06,1662.2,1491.5,1
4990,0.45,12381,1,12381,1,2.1596e-05,-1.1167e-09,0,6.4002e-05,-3.9166e-06,-6.4186e+05,-20.782,0,1.6602e+07,550.59,12380,15000,1,15000,1,0.00014882,6.8776e-08,0,0.00014882,1.8541e-05,2.4779e+07,23534,0,4.0121e+07,11247,14999,12382,1,12382,1,2.0399e-05,-1.9177e-10,0,6.2016e-05,-3.6885e-06,5.0732e+06,-43.489,0,1.5856e+07,6.914,12381,9753,1,9753,1,-9.8648e-05,-8.1979e-08,0,1.9707e-06,-2.7712e-05,-4.0121e+07,-12577,0,4.7739e+05,-7375.7,9752,11091,1,11091,1,-4.3699e-05,-9.2281e-10,0,2.9556e-05,-1.5654e-05,-1.7769e+07,-202.55,0,8.8931e+06,-6.8364,11090,13678,1,13678,1,8.4497e-05,3.0049e-10,0,9.3655e-05,8.2561e-06,1.5855e+07,67.894,0,2.1976e+07,90.576,13677,1491.5,0,1491.5,0,7.1768e-05,1.1121e-08,0,3.8988e-05,1.3399e-05,1.9335e+07,2498,0,9.9282e+06,1709.6,1491.5,1
4990,0.46,12381,1,12381,1,2.2076e-05,-9.8655e-10,0,6.5424e-05,-4.0037e-06,-6.5615e+05,14.745,0,1.6971e+07,566.11,12380,15000,1,15000,1,0.00015212,7.0178e-08,0,0.00015212,1.8954e-05,2.5329e+07,24014,0,4.1014e+07,11541,14999,12382,1,12382,1,2.0852e-05,-1.3472e-11,0,6.3395e-05,-3.7706e-06,5.1859e+06,-2.462,0,1.6208e+07,2.0809,12381,9753,1,9753,1,-0.00010084,-8.3952e-08,0,2.0145e-06,-2.8318e-05,-4.1014e+07,-12892,0,4.88e+05,-4573.7,9752,11091,1,11091,1,-4.4671e-05,-1.049e-09,0,3.0214e-05,-1.6002e-05,-1.8164e+07,-256.29,0,9.0909e+06,-13.762,11090,13678,1,13678,1,8.6375e-05,9.1014e-10,0,9.5735e-05,8.4397e-06,1.6208e+07,215.02,0,2.2465e+07,85.405,13677,1491.5,0,1491.5,0,7.3363e-05,1.1439e-08,0,3.9854e-05,1.3696e-05,1.9765e+07,2566.3,0,1.0149e+07,1744.2,1491.5,1
4990,0.47,12381,1,12381,1,2.2556e-05,-1.325e-09,0,6.6847e-05,-4.0908e-06,-6.7043e+05,-52.507,0,1.734e+07,563.48,12380,15000,1,15000,1,0.00015543,7.1995e-08,0,0.00015543,1.9366e-05,2.5881e+07,24635,0,4.1905e+07,11697,14999,12382,1,12382,1,2.1306e-05,-2.056e-10,0,6.4774e-05,-3.8526e-06,5.2987e+06,-46.765,0,1.6561e+07,2.6472,12381,9753,1,9753,1,-0.00010303,-8.6026e-08,0,2.058e-06,-2.8925e-05,-4.1905e+07,-13176,0,4.9851e+05,-3171.9,9752,11091,1,11091,1,-4.5641e-05,-1.1571e-09,0,3.0871e-05,-1.635e-05,-1.8559e+07,-274.63,0,9.2885e+06,-13.254,11090,13678,1,13678,1,8.8253e-05,3.0256e-10,0,9.7819e-05,8.6231e-06,1.656e+07,69.398,0,2.2954e+07,61.466,13677,1491.5,0,1491.5,0,7.4958e-05,1.1699e-08,0,4.0721e-05,1.3994e-05,2.0195e+07,2621.4,0,1.037e+07,1757.7,1491.5,1
4990,0.48,12381,1,12381,1,2.3036e-05,-1.0262e-09,0,6.8269e-05,-4.1778e-06,-6.8468e+05,14.933,0,1.7709e+07,585.14,12380,15000,1,15000,1,0.00015874,7.3472e-08,0,0.00015874,1.9777e-05,2.6431e+07,25141,0,4.2795e+07,11960,14999,12382,1,12382,1,2.1759e-05,2.7942e-11,0,6.6151e-05,-3.9345e-06,5.4113e+06,6.9538,0,1.6913e+07,-1.6747,12381,9753,1,9753,1,-0.00010522,-8.7756e-08,0,2.1016e-06,-2.9539e-05,-4.2795e+07,-13450,0,5.0908e+05,-2676.9,9752,11091,1,11091,1,-4.6615e-05,-3.6648e-10,0,3.1527e-05,-1.6698e-05,-1.8955e+07,-78.395,0,9.4859e+06,-8.4653,11090,13678,1,13678,1,9.0132e-05,3.4625e-10,0,9.9899e-05,8.8068e-06,1.6913e+07,78.451,0,2.3442e+07,73.198,13677,1491.5,0,1491.5,0,7.6553e-05,1.1936e-08,0,4.1588e-05,1.4292e-05,2.0624e+07,2668.9,0,1.059e+07,1798.7,1491.5,1
4990,0.49,12381,1,12381,1,2.3517e-05,-1.1526e-09,0,6.9693e-05,-4.2649e-06,-6.9893e+05,-5.9243,0,1.8078e+07,586.64,12380,15000,1,15000,1,0.00016205,7.5178e-08,0,0.00016205,2.019e-05,2.6982e+07,25724,0,4.3688e+07,12265,14999,12382,1,12382,1,2.2213e-05,-1.3312e-10,0,6.7531e-05,-4.0167e-06,5.5243e+06,-31.864,0,1.7266e+07,0.95114,12381,9753,1,9753,1,-0.00010742,-8.9874e-08,0,2.1454e-06,-3.0163e-05,-4.3688e+07,-13765,0,5.1971e+05,-2264.8,9752,11091,1,11091,1,-4.7585e-05,-8.9955e-10,0,3.2185e-05,-1.7046e-05,-1.935e+07,-217.27,0,9.6839e+06,-19.091,11090,13678,1,13678,1,9.201e-05,5.0003e-10,0,0.00010198,8.9903e-06,1.7265e+07,112.1,0,2.3931e+07,59.309,13677,1491.5,0,1491.5,0,7.8149e-05,1.2159e-08,0,4.2455e-05,1.459e-05,2.1054e+07,2726.2,0,1.0811e+07,1842,1491.5,1
4990,0.5,12381,1,12381,1,2.3996e-05,-9.971e-10,0,7.1115e-05,-4.3519e-06,-7.1321e+05,32.096,0,1.8447e+07,604.83,12380,15000,1,15000,1,0.00016535,7.6744e-08,0,0.00016535,2.0602e-05,2.7532e+07,26260,0,4.458e+07,12500,14999,12382,1,12382,1,2.2666e-05,-6.6836e-11,0,6.8908e-05,-4.0985e-06,5.637e+06,-15.746,0,1.7618e+07,-0.61128,12381,9753,1,9753,1,-0.00010961,-9.0698e-08,0,2.1894e-06,-3.0769e-05,-4.458e+07,-13873,0,5.3033e+05,-2219.9,9752,11091,1,11091,1,-4.8557e-05,-5.8005e-10,0,3.2841e-05,-1.7394e-05,-1.9745e+07,-115.35,0,9.8814e+06,-15.265,11090,13678,1,13678,1,9.3887e-05,4.7291e-10,0,0.00010406,9.1738e-06,1.7617e+07,104.29,0,2.4419e+07,55.532,13677,1491.5,0,1491.5,0,7.9744e-05,1.2325e-08,0,4.3321e-05,1.4888e-05,2.1484e+07,2776.4,0,1.1032e+07,1878,1491.5,1
4990,0.51,12381,1,12381,1,2.4476e-05,-1.4556e-09,0,7.2536e-05,-4.4389e-06,-7.2745e+05,-52.856,0,1.8816e+07,627.42,12380,15000,1,15000,1,0.00016869,7.9452e-08,0,0.00016869,2.1014e-05,2.8088e+07,27187,0,4.5471e+07,13016,14999,12382,1,12382,1,2.3118e-05,-3.3496e-10,0,7.0284e-05,-4.1802e-06,5.7495e+06,-76.902,0,1.797e+07,3.8243,12381,9753,1,9753,1,-0.0001118,-1.0132e-07,0,2.2315e-06,-3.1403e-05,-4.5471e+07,-14928,0,5.4042e+05,-3569.8,9752,11091,1,11091,1,-4.9526e-05,-8.3429e-10,0,3.3497e-05,-1.7741e-05,-2.0139e+07,-175.44,0,1.0079e+07,-7.019,11090,13678,1,13678,1,9.5762e-05,-3.4731e-11,0,0.00010614,9.3568e-06,1.7969e+07,-9.3774,0,2.4906e+07,60.186,13677,1491.5,0,1491.5,0,8.1337e-05,1.3151e-08,0,4.4187e-05,1.5185e-05,2.1913e+07,2914.3,0,1.1252e+07,1956.9,1491.5,1
4990,0.52,12381,1,12381,1,2.4956e-05,-1.0195e-09,0,7.3958e-05,-4.5259e-06,-7.417e+05,35.975,0,1.9185e+07,630.01,12380,15000,1,15000,1,0.00017197,7.9224e-08,0,0.00017197,2.1425e-05,2.8634e+07,27109,0,4.6362e+07,12915,14999,12382,1,12382,1,2.3571e-05,2.3534e-10,0,7.1662e-05,-4.2622e-06,5.8622e+06,56.637,0,1.8322e+07,-1.2717,12381,9753,1,9753,1,-0.00011399,-9.4819e-08,0,2.2773e-06,-3.2012e-05,-4.6362e+07,-14522,0,5.5165e+05,-3373.2,9752,11091,1,11091,1,-5.0498e-05,-4.2184e-11,0,3.4154e-05,-1.8089e-05,-2.0534e+07,-11.932,0,1.0276e+07,-8.9574,11090,13678,1,13678,1,9.7641e-05,5.1411e-10,0,0.00010822,9.5404e-06,1.8322e+07,113.25,0,2.5395e+07,70.172,13677,1491.5,0,1491.5,0,8.2932e-05,1.2971e-08,0,4.5053e-05,1.5483e-05,2.2343e+07,2887.3,0,1.1473e+07,1951.1,1491.5,1
4990,0.53,12381,1,12381,1,2.5436e-05,-1.1429e-09,0,7.538e-05,-4.6129e-06,-7.5596e+05,14.394,0,1.9554e+07,653.62,12380,15000,1,15000,1,0.00017527,8.0992e-08,0,0.00017527,2.1837e-05,2.9184e+07,27714,0,4.7252e+07,13236,14999,12382,1,12382,1,2.4025e-05,5.5107e-11,0,7.304e-05,-4.3442e-06,5.9749e+06,12.782,0,1.8674e+07,3.0257,12381,9753,1,9753,1,-0.00011618,-9.74e-08,0,2.3209e-06,-3.2616e-05,-4.7252e+07,-14932,0,5.622e+05,-2277.7,9752,11091,1,11091,1,-5.147e-05,-7.0156e-11,0,3.481e-05,-1.8437e-05,-2.0929e+07,-18.513,0,1.0474e+07,-5.0276,11090,13678,1,13678,1,9.9519e-05,3.0633e-10,0,0.0001103,9.724e-06,1.8674e+07,67.058,0,2.5883e+07,80.752,13677,1491.5,0,1491.5,0,8.4526e-05,1.3225e-08,0,4.5919e-05,1.5781e-05,2.2772e+07,2951.4,0,1.1693e+07,1995.7,1491.5,1
4990,0.54,12381,1,12381,1,2.5916e-05,-1.2453e-09,0,7.6804e-05,-4.7001e-06,-7.7023e+05,-4.3451,0,1.9923e+07,652.23,12380,15000,1,15000,1,0.00017858,8.2574e-08,0,0.00017858,2.2249e-05,2.9736e+07,28255,0,4.8145e+07,13463,14999,12382,1,12382,1,2.4478e-05,-1.7438e-10,0,7.442e-05,-4.4262e-06,6.0878e+06,-41.249,0,1.9027e+07,1.9744,12381,9753,1,9753,1,-0.00011838,-9.7774e-08,0,2.3655e-06,-3.3234e-05,-4.8145e+07,-14965,0,5.7303e+05,-2468.6,9752,11091,1,11091,1,-5.2442e-05,-3.7117e-10,0,3.5467e-05,-1.8786e-05,-2.1324e+07,-77.697,0,1.0672e+07,-5.3946,11090,13678,1,13678,1,0.0001014,1.0017e-11,0,0.00011239,9.9076e-06,1.9027e+07,3.0911,0,2.6372e+07,69.271,13677,1491.5,0,1491.5,0,8.6123e-05,1.3316e-08,0,4.6786e-05,1.6079e-05,2.3202e+07,2991.4,0,1.1914e+07,2022.9,1491.5,1
4990,0.55,12381,1,12381,1,2.6396e-05,-1.11e-09,0,7.8225e-05,-4.7871e-06,-7.845e+05,31.515,0,2.0292e+07,668.91,12380,15000,1,15000,1,0.00018189,8.4051e-08,0,0.00018189,2.2661e-05,3.0286e+07,28761,0,4.9035e+07,13731,14999,12382,1,12382,1,2.4932e-05,5.1093e-11,0,7.5798e-05,-4.5082e-06,6.2005e+06,12.365,0,1.9379e+07,0.092656,12381,9753,1,9753,1,-0.00012057,-1.0045e-07,0,2.4087e-06,-3.3856e-05,-4.9035e+07,-15377,0,5.8347e+05,-2550.5,9752,11091,1,11091,1,-5.3413e-05,-4.2712e-11,0,3.6124e-05,-1.9134e-05,-2.1719e+07,-9.8595,0,1.0869e+07,-8.022,11090,13678,1,13678,1,0.00010328,1.6636e-10,0,0.00011447,1.0091e-05,1.9379e+07,37.415,0,2.686e+07,73.605,13677,1491.5,0,1491.5,0,8.7717e-05,1.3632e-08,0,4.7652e-05,1.6376e-05,2.3632e+07,3052.2,0,1.2135e+07,2063.1,1491.5,1
4990,0.56,12381,1,12381,1,2.6876e-05,-1.2706e-09,0,7.9648e-05,-4.8741e-06,-7.9875e+05,0.46357,0,2.0661e+07,690.47,12380,15000,1,15000,1,0.0001852,8.5355e-08,0,0.0001852,2.3073e-05,3.0837e+07,29207,0,4.9927e+07,13879,14999,12382,1,12382,1,2.5385e-05,-8.6665e-11,0,7.7176e-05,-4.5901e-06,6.3133e+06,-20.325,0,1.9732e+07,5.3349,12381,9753,1,9753,1,-0.00012276,-1.0167e-07,0,2.453e-06,-3.447e-05,-4.9927e+07,-15575,0,5.9422e+05,-2489.3,9752,11091,1,11091,1,-5.4384e-05,-4.7318e-10,0,3.6781e-05,-1.9481e-05,-2.2114e+07,-93.232,0,1.1067e+07,-1.6242,11090,13678,1,13678,1,0.00010515,1.7674e-10,0,0.00011655,1.0275e-05,1.9731e+07,40.592,0,2.7349e+07,86.033,13677,1491.5,0,1491.5,0,8.9312e-05,1.3855e-08,0,4.8519e-05,1.6674e-05,2.4062e+07,3102.3,0,1.2355e+07,2094.1,1491.5,1
4990,0.57,12381,1,12381,1,2.7355e-05,-1.186e-09,0,8.1068e-05,-4.961e-06,-8.1303e+05,24.669,0,2.1029e+07,701.16,12380,15000,1,15000,1,0.0001885,8.6968e-08,0,0.0001885,2.3485e-05,3.1387e+07,29759,0,5.0818e+07,14218,14999,12382,1,12382,1,2.5838e-05,9.8596e-11,0,7.8552e-05,-4.672e-06,6.4258e+06,23.736,0,2.0083e+07,1.6416,12381,9753,1,9753,1,-0.00012495,-1.0454e-07,0,2.4961e-06,-3.5078e-05,-5.0818e+07,-16013,0,6.0464e+05,-2483.6,9752,11091,1,11091,1,-5.5354e-05,4.5801e-12,0,3.7437e-05,-1.9829e-05,-2.2509e+07,1.2103,0,1.1264e+07,-4.9234,11090,13678,1,13678,1,0.00010703,2.7722e-10,0,0.00011863,1.0458e-05,2.0083e+07,61.239,0,2.7837e+07,87.281,13677,1491.5,0,1491.5,0,9.0905e-05,1.4204e-08,0,4.9384e-05,1.6971e-05,2.4491e+07,3164.8,0,1.2576e+07,2140.9,1491.5,1
4990,0.58,12381,1,12381,1,2.7835e-05,-1.2105e-09,0,8.2491e-05,-5.0481e-06,-8.2727e+05,24.57,0,2.1398e+07,713.14,12380,15000,1,15000,1,0.00019181,8.8559e-08,0,0.00019181,2.3897e-05,3.1938e+07,30303,0,5.171e+07,14508,14999,12382,1,12382,1,2.6291e-05,1.3697e-10,0,7.993e-05,-4.754e-06,6.5385e+06,30.205,0,2.0436e+07,1.9172,12381,9753,1,9753,1,-0.00012714,-1.0668e-07,0,2.5399e-06,-3.5693e-05,-5.171e+07,-16355,0,6.1525e+05,-2474.4,9752,11091,1,11091,1,-5.6325e-05,-2.7016e-11,0,3.8094e-05,-2.0177e-05,-2.2903e+07,-7.2699,0,1.1462e+07,-6.831,11090,13678,1,13678,1,0.00010891,3.698e-10,0,0.00012071,1.0641e-05,2.0436e+07,80.632,0,2.8325e+07,87.715,13677,1491.5,0,1491.5,0,9.25e-05,1.4486e-08,0,5.0251e-05,1.7269e-05,2.4921e+07,3225.5,0,1.2796e+07,2180.7,1491.5,1
4990,0.59,12381,1,12381,1,2.8316e-05,-1.1685e-09,0,8.3916e-05,-5.1353e-06,-8.4159e+05,36.18,0,2.1768e+07,712.76,12380,15000,1,15000,1,0.00019511,8.9874e-08,0,0.00019511,2.431e-05,3.2488e+07,30753,0,5.2603e+07,14666,14999,12382,1,12382,1,2.6745e-05,2.2505e-10,0,8.1312e-05,-4.8361e-06,6.6516e+06,49.958,0,2.0789e+07,2.2276,12381,9753,1,9753,1,-0.00012934,-1.0637e-07,0,2.5843e-06,-3.6318e-05,-5.2603e+07,-16341,0,6.2607e+05,-3633.6,9752,11091,1,11091,1,-5.7298e-05,-2.6181e-10,0,3.8752e-05,-2.0525e-05,-2.3299e+07,-57.271,0,1.166e+07,-4.8958,11090,13678,1,13678,1,0.00011079,6.1337e-10,0,0.0001228,1.0825e-05,2.0789e+07,135,0,2.8814e+07,84.07,13677,1491.5,0,1491.5,0,9.4098e-05,1.4553e-08,0,5.1119e-05,1.7568e-05,2.5351e+07,3257.6,0,1.3017e+07,2209.5,1491.5,1
4990,0.6,12381,1,12381,1,2.8795e-05,-1.2232e-09,0,8.5336e-05,-5.2223e-06,-8.5579e+05,29.625,0,2.2136e+07,733.68,12380,15000,1,15000,1,0.00019842,9.1368e-08,0,0.00019842,2.4721e-05,3.3039e+07,31264,0,5.3494e+07,15016,14999,12382,1,12382,1,2.7198e-05,1.7635e-10,0,8.2688e-05,-4.918e-06,6.7642e+06,42.193,0,2.1141e+07,2.0649,12381,9753,1,9753,1,-0.00013153,-1.0978e-07,0,2.6278e-06,-3.6931e-05,-5.3494e+07,-16813,0,6.3657e+05,-3089.8,9752,11091,1,11091,1,-5.8268e-05,-1.6743e-10,0,3.9408e-05,-2.0873e-05,-2.3693e+07,-40.027,0,1.1857e+07,-3.4727,11090,13678,1,13678,1,0.00011266,4.8228e-10,0,0.00012487,1.1008e-05,2.1141e+07,94.213,0,2.9302e+07,95.261,13677,1491.5,0,1491.5,0,9.5691e-05,1.4911e-08,0,5.1984e-05,1.7865e-05,2.578e+07,3324,0,1.3238e+07,2254,1491.5,1
4990,0.61,12381,1,12381,1,2.9275e-05,-1.1833e-09,0,8.6759e-05,-5.3093e-06,-8.7011e+05,44.879,0,2.2506e+07,732.74,12380,15000,1,15000,1,0.00020172,9.3453e-08,0,0.00020172,2.5133e-05,3.3589e+07,31978,0,5.4386e+07,15231,14999,12382,1,12382,1,2.7652e-05,1.3663e-10,0,8.4067e-05,-5.0001e-06,6.877e+06,30.759,0,2.1493e+07,-2.2116,12381,9753,1,9753,1,-0.00013372,-1.1137e-07,0,2.6712e-06,-3.7553e-05,-5.4386e+07,-17038,0,6.4706e+05,-5420.6,9752,11091,1,11091,1,-5.924e-05,-2.7435e-10,0,4.0065e-05,-2.1221e-05,-2.4088e+07,-61.787,0,1.2055e+07,-9.1883,11090,13678,1,13678,1,0.00011454,5.1965e-10,0,0.00012696,1.1192e-05,2.1493e+07,116.02,0,2.9791e+07,97.593,13677,1491.5,0,1491.5,0,9.7287e-05,1.5119e-08,0,5.2851e-05,1.8163e-05,2.621e+07,3389.6,0,1.3458e+07,2274.9,1491.5,1
4990,0.62,12381,1,12381,1,2.9756e-05,-1.3303e-09,0,8.8183e-05,-5.3963e-06,-8.8442e+05,17.134,0,2.2875e+07,776.48,12380,15000,1,15000,1,0.00020504,9.4618e-08,0,0.00020504,2.5546e-05,3.4141e+07,32376,0,5.5278e+07,15457,14999,12382,1,12382,1,2.8105e-05,-3.9988e-11,0,8.5447e-05,-5.082e-06,6.9898e+06,-8.3733,0,2.1846e+07,16.354,12381,9753,1,9753,1,-0.00013592,-1.1235e-07,0,2.7157e-06,-3.8158e-05,-5.5278e+07,-17223,0,6.5786e+05,-2678.8,9752,11091,1,11091,1,-6.0211e-05,-5.6284e-10,0,4.0723e-05,-2.1569e-05,-2.4483e+07,-119.38,0,1.2253e+07,-0.24188,11090,13678,1,13678,1,0.00011642,4.3845e-10,0,0.00012904,1.1376e-05,2.1846e+07,98.336,0,3.0279e+07,117.27,13677,1491.5,0,1491.5,0,9.8883e-05,1.527e-08,0,5.3718e-05,1.8461e-05,2.664e+07,3429.8,0,1.3679e+07,2329.6,1491.5,1
4990,0.63,12381,1,12381,1,3.0235e-05,-1.3363e-09,0,8.9604e-05,-5.4834e-06,-8.9861e+05,21.639,0,2.3243e+07,770.53,12380,15000,1,15000,1,0.00020834,9.6918e-08,0,0.00020834,2.5957e-05,3.4691e+07,33163,0,5.6168e+07,15711,14999,12382,1,12382,1,2.8558e-05,-9.5309e-11,0,8.6823e-05,-5.164e-06,7.1024e+06,-23.299,0,2.2198e+07,0.37987,12381,9753,1,9753,1,-0.00013811,-1.1443e-07,0,2.759e-06,-3.877e-05,-5.6168e+07,-17512,0,6.6833e+05,-2856.1,9752,11091,1,11091,1,-6.1182e-05,-2.5971e-10,0,4.1379e-05,-2.1917e-05,-2.4878e+07,-55.106,0,1.245e+07,-6.3181,11090,13678,1,13678,1,0.0001183,1.2507e-10,0,0.00013112,1.1559e-05,2.2198e+07,30.838,0,3.0767e+07,92.42,13677,1491.5,0,1491.5,0,0.00010048,1.5552e-08,0,5.4584e-05,1.8758e-05,2.707e+07,3502.2,0,1.39e+07,2364.5,1491.5,1
4990,0.64,12381,1,12381,1,3.0716e-05,-1.3816e-09,0,9.1027e-05,-5.5705e-06,-9.1289e+05,17.238,0,2.3613e+07,780.74,12380,15000,1,15000,1,0.00021165,9.8535e-08,0,0.00021165,2.637e-05,3.5242e+07,33717,0,5.7061e+07,15937,14999,12382,1,12382,1,2.9012e-05,-1.4201e-10,0,8.8202e-05,-5.246e-06,7.2152e+06,-34.045,0,2.2551e+07,-0.96047,12381,9753,1,9753,1,-0.0001403,-1.1604e-07,0,2.8029e-06,-3.9387e-05,-5.7061e+07,-17752,0,6.7896e+05,-2737.5,9752,11091,1,11091,1,-6.2154e-05,-3.9674e-10,0,4.2036e-05,-2.2265e-05,-2.5274e+07,-82.177,0,1.2648e+07,-6.6162,11090,13678,1,13678,1,0.00012018,1.2971e-10,0,0.0001332,1.1742e-05,2.255e+07,29.165,0,3.1256e+07,96.55,13677,1491.5,0,1491.5,0,0.00010207,1.5784e-08,0,5.5451e-05,1.9056e-05,2.7499e+07,3556.3,0,1.412e+07,2400.4,1491.5,1
4990,0.65,12381,1,12381,1,3.1195e-05,-1.3921e-09,0,9.2449e-05,-5.6574e-06,-9.272e+05,20.582,0,2.3982e+07,810.6,12380,15000,1,15000,1,0.00021496,9.9639e-08,0,0.00021496,2.6782e-05,3.5793e+07,34095,0,5.7953e+07,16215,14999,12382,1,12382,1,2.9465e-05,-1.6433e-10,0,8.958e-05,-5.3278e-06,7.328e+06,-36.87,0,2.2903e+07,17.508,12381,9753,1,9753,1,-0.00014249,-1.1841e-07,0,2.8467e-06,-4.0001e-05,-5.7953e+07,-18124,0,6.8957e+05,-2728.4,9752,11091,1,11091,1,-6.3125e-05,-6.0844e-10,0,4.2693e-05,-2.2612e-05,-2.5668e+07,-123.07,0,1.2846e+07,2.843,11090,13678,1,13678,1,0.00012205,3.0598e-10,0,0.00013528,1.1926e-05,2.2903e+07,69.203,0,3.1744e+07,118.4,13677,1491.5,0,1491.5,0,0.00010367,1.606e-08,0,5.6317e-05,1.9354e-05,2.7929e+07,3609.8,0,1.4341e+07,2441.9,1491.5,1
4990,0.66,12381,1,12381,1,3.1675e-05,-1.3669e-09,0,9.3871e-05,-5.7445e-06,-9.414e+05,29.55,0,2.435e+07,810.23,12380,15000,1,15000,1,0.00021826,1.0119e-07,0,0.00021826,2.7193e-05,3.6343e+07,34624,0,5.8843e+07,16468,14999,12382,1,12382,1,2.9918e-05,4.9742e-11,0,9.0958e-05,-5.4099e-06,7.4407e+06,12.056,0,2.3255e+07,-0.63638,12381,9753,1,9753,1,-0.00014468,-1.205e-07,0,2.8902e-06,-4.0616e-05,-5.8843e+07,-18457,0,7.0013e+05,-2792.1,9752,11091,1,11091,1,-6.4095e-05,-3.2841e-10,0,4.3349e-05,-2.296e-05,-2.6063e+07,-74.92,0,1.3043e+07,-6.999,11090,13678,1,13678,1,0.00012393,4.4209e-10,0,0.00013736,1.2109e-05,2.3255e+07,100.04,0,3.2233e+07,104.81,13677,1491.5,0,1491.5,0,0.00010526,1.637e-08,0,5.7183e-05,1.9652e-05,2.8358e+07,3667.1,0,1.4562e+07,2478.5,1491.5,1
4990,0.67,12381,1,12381,1,3.2156e-05,-1.4446e-09,0,9.5297e-05,-5.8317e-06,-9.5578e+05,16.788,0,2.472e+07,822.88,12380,15000,1,15000,1,0.00022157,1.02e-07,0,0.00022157,2.7607e-05,3.6895e+07,34901,0,5.9738e+07,16679,14999,12382,1,12382,1,3.0373e-05,2.7219e-11,0,9.234e-05,-5.4921e-06,7.5537e+06,6.5695,0,2.3608e+07,0.16492,12381,9753,1,9753,1,-0.00014688,-1.208e-07,0,2.935e-06,-4.1232e-05,-5.9738e+07,-18541,0,7.1103e+05,-3349.3,9752,11091,1,11091,1,-6.5068e-05,-5.9814e-10,0,4.4008e-05,-2.3309e-05,-2.6459e+07,-133.51,0,1.3241e+07,-13.924,11090,13678,1,13678,1,0.00012581,5.9779e-10,0,0.00013945,1.2293e-05,2.3608e+07,134.26,0,3.2722e+07,125.9,13677,1491.5,0,1491.5,0,0.00010686,1.6508e-08,0,5.8052e-05,1.995e-05,2.8789e+07,3704.7,0,1.4783e+07,2530.4,1491.5,1
4990,0.68,12381,1,12381,1,3.2635e-05,-1.438e-09,0,9.6717e-05,-5.9186e-06,-9.7004e+05,23.394,0,2.5088e+07,845.58,12380,15000,1,15000,1,0.00022488,1.044e-07,0,0.00022488,2.8018e-05,3.7445e+07,35724,0,6.0627e+07,17010,14999,12382,1,12382,1,3.0825e-05,-1.1594e-10,0,9.3716e-05,-5.5738e-06,7.6662e+06,-26.752,0,2.396e+07,6.7448,12381,9753,1,9753,1,-0.00014907,-1.2315e-07,0,2.9773e-06,-4.1847e-05,-6.0627e+07,-18834,0,7.2117e+05,-2887.2,9752,11091,1,11091,1,-6.6039e-05,-5.9873e-10,0,4.4663e-05,-2.3656e-05,-2.6853e+07,-131.25,0,1.3439e+07,-2.5021,11090,13678,1,13678,1,0.00012769,3.1826e-10,0,0.00014153,1.2477e-05,2.396e+07,69.959,0,3.321e+07,121.76,13677,1491.5,0,1491.5,0,0.00010845,1.6727e-08,0,5.8917e-05,2.0247e-05,2.9218e+07,3768.9,0,1.5003e+07,2558.8,1491.5,1
4990,0.69,12381,1,12381,1,3.3117e-05,-1.3956e-09,0,9.8142e-05,-6.006e-06,-9.8422e+05,37.773,0,2.5458e+07,837.93,12380,15000,1,15000,1,0.00022819,1.056e-07,0,0.00022819,2.8431e-05,3.7996e+07,36133,0,6.1522e+07,17087,14999,12382,1,12382,1,3.128e-05,6.5781e-11,0,9.5097e-05,-5.6562e-06,7.7793e+06,17.066,0,2.4313e+07,10.179,12381,9753,1,9753,1,-0.00015127,-1.2361e-07,0,3.0242e-06,-4.2469e-05,-6.1522e+07,-18880,0,7.3271e+05,-3326,9752,11091,1,11091,1,-6.7011e-05,-8.7057e-10,0,4.5322e-05,-2.4005e-05,-2.7248e+07,-193.84,0,1.3637e+07,-9.14,11090,13678,1,13678,1,0.00012957,8.4834e-10,0,0.00014361,1.266e-05,2.4313e+07,185.54,0,3.3699e+07,112.8,13677,1491.5,0,1491.5,0,0.00011005,1.6901e-08,0,5.9785e-05,2.0546e-05,2.9649e+07,3811.3,0,1.5224e+07,2575.6,1491.5,1
4990,0.7,12381,1,12381,1,3.3596e-05,-1.4183e-09,0,9.9564e-05,-6.0928e-06,-9.9851e+05,37.174,0,2.5827e+07,884.48,12380,15000,1,15000,1,0.0002315,1.0708e-07,0,0.0002315,2.8843e-05,3.8547e+07,36642,0,6.2413e+07,17531,14999,12382,1,12382,1,3.1733e-05,1.0152e-10,0,9.6475e-05,-5.738e-06,7.892e+06,23.795,0,2.4665e+07,12.911,12381,9753,1,9753,1,-0.00015346,-1.2723e-07,0,3.0656e-06,-4.3078e-05,-6.2413e+07,-19509,0,7.4265e+05,-3572,9752,11091,1,11091,1,-6.7982e-05,-5.2064e-10,0,4.5979e-05,-2.4352e-05,-2.7643e+07,-113.22,0,1.3834e+07,-4.2137,11090,13678,1,13678,1,0.00013145,6.7428e-10,0,0.00014569,1.2844e-05,2.4665e+07,150.45,0,3.4188e+07,164.74,13677,1491.5,0,1491.5,0,0.00011165,1.734e-08,0,6.0651e-05,2.0843e-05,3.0078e+07,3882.3,0,1.5445e+07,2627.2,1491.5,1
4990,0.71,12381,1,12381,1,3.4075e-05,-1.5689e-09,0,0.00010098,-6.1797e-06,-1.0128e+06,10.316,0,2.6195e+07,872.9,12380,15000,1,15000,1,0.0002348,1.0875e-07,0,0.0002348,2.9254e-05,3.9097e+07,37212,0,6.3301e+07,17678,14999,12382,1,12382,1,3.2185e-05,-3.7501e-11,0,9.7849e-05,-5.8198e-06,8.0044e+06,-8.7052,0,2.5017e+07,-2.1677,12381,9753,1,9753,1,-0.00015564,-1.2971e-07,0,3.1093e-06,-4.3693e-05,-6.3301e+07,-19885,0,7.532e+05,-2988,9752,11091,1,11091,1,-6.8951e-05,-4.7342e-10,0,4.6633e-05,-2.47e-05,-2.8037e+07,-105.11,0,1.4031e+07,-7.2635,11090,13678,1,13678,1,0.00013332,4.0728e-10,0,0.00014777,1.3027e-05,2.5017e+07,93.311,0,3.4675e+07,121.58,13677,1491.5,0,1491.5,0,0.00011324,1.7627e-08,0,6.1515e-05,2.114e-05,3.0507e+07,3948.3,0,1.5665e+07,2664.8,1491.5,1
4990,0.72,12381,1,12381,1,3.4555e-05,-1.6504e-09,0,0.00010241,-6.2668e-06,-1.027e+06,-0.32096,0,2.6564e+07,896.59,12380,15000,1,15000,1,0.00023811,1.104e-07,0,0.00023811,2.9666e-05,3.9648e+07,37775,0,6.4193e+07,17840,14999,12382,1,12382,1,3.2639e-05,-1.4694e-10,0,9.9227e-05,-5.9017e-06,8.1172e+06,-33.265,0,2.5369e+07,21.189,12381,9753,1,9753,1,-0.00015784,-1.3072e-07,0,3.1541e-06,-4.4317e-05,-6.4193e+07,-20020,0,7.6412e+05,-2969.5,9752,11091,1,11091,1,-6.9922e-05,-5.4162e-10,0,4.7291e-05,-2.5047e-05,-2.8433e+07,-110.94,0,1.4229e+07,1.8821,11090,13678,1,13678,1,0.0001352,2.2055e-10,0,0.00014985,1.321e-05,2.5369e+07,48.722,0,3.5163e+07,146.4,13677,1491.5,0,1491.5,0,0.00011483,1.7824e-08,0,6.2382e-05,2.1438e-05,3.0937e+07,3997.4,0,1.5885e+07,2693,1491.5,1
4990,0.73,12381,1,12381,1,3.5035e-05,-1.6845e-09,0,0.00010383,-6.3539e-06,-1.0413e+06,-6.5357,0,2.6933e+07,894.38,12380,15000,1,15000,1,0.00024142,1.1226e-07,0,0.00024142,3.0079e-05,4.0199e+07,38415,0,6.5086e+07,18091,14999,12382,1,12382,1,3.3092e-05,-3.2562e-10,0,0.00010061,-5.9838e-06,8.23e+06,-75.388,0,2.5722e+07,-3.4067,12381,9753,1,9753,1,-0.00016003,-1.3216e-07,0,3.1976e-06,-4.4933e-05,-6.5086e+07,-20190,0,7.7463e+05,-3111.7,9752,11091,1,11091,1,-7.0894e-05,-7.7835e-10,0,4.7948e-05,-2.5396e-05,-2.8828e+07,-170.35,0,1.4427e+07,-12.56,11090,13678,1,13678,1,0.00013708,1.3975e-10,0,0.00015194,1.3394e-05,2.5722e+07,34.14,0,3.5652e+07,122.36,13677,1491.5,0,1491.5,0,0.00011643,1.7937e-08,0,6.3249e-05,2.1736e-05,3.1367e+07,4047.1,0,1.6106e+07,2733.1,1491.5,1
4990,0.74,12381,1,12381,1,3.5515e-05,-1.4044e-09,0,0.00010525,-6.4409e-06,-1.0556e+06,61.916,0,2.7302e+07,926.56,12380,15000,1,15000,1,0.00024472,1.1395e-07,0,0.00024472,3.0491e-05,4.0748e+07,38991,0,6.5978e+07,18492,14999,12382,1,12382,1,3.3546e-05,4.9373e-11,0,0.00010199,-6.0658e-06,8.3428e+06,12.877,0,2.6074e+07,5.3866,12381,9753,1,9753,1,-0.00016223,-1.3402e-07,0,3.2408e-06,-4.5548e-05,-6.5978e+07,-20490,0,7.8505e+05,-2916.4,9752,11091,1,11091,1,-7.1865e-05,-8.0735e-10,0,4.8605e-05,-2.5744e-05,-2.9222e+07,-185.25,0,1.4625e+07,-4.1549,11090,13678,1,13678,1,0.00013896,8.6983e-10,0,0.00015402,1.3577e-05,2.6074e+07,193.86,0,3.614e+07,168.18,13677,1491.5,0,1491.5,0,0.00011802,1.8251e-08,0,6.4116e-05,2.2034e-05,3.1797e+07,4119.7,0,1.6327e+07,2789.5,1491.5,1
4990,0.75,12381,1,12381,1,3.5995e-05,-1.5237e-09,0,0.00010667,-6.5279e-06,-1.0698e+06,41.104,0,2.7671e+07,921.33,12380,15000,1,15000,1,0.00024803,1.1527e-07,0,0.00024803,3.0902e-05,4.1299e+07,39443,0,6.6868e+07,18779,14999,12382,1,12382,1,3.3999e-05,2.3974e-11,0,0.00010336,-6.1477e-06,8.4554e+06,6.5258,0,2.6426e+07,-1.4997,12381,9753,1,9753,1,-0.00016441,-1.364e-07,0,3.2843e-06,-4.6155e-05,-6.6868e+07,-20880,0,7.9558e+05,-3134.7,9752,11091,1,11091,1,-7.2836e-05,-4.4423e-10,0,4.9261e-05,-2.6091e-05,-2.9617e+07,-96.066,0,1.4822e+07,-8.74,11090,13678,1,13678,1,0.00014083,4.6687e-10,0,0.0001561,1.3761e-05,2.6426e+07,107.43,0,3.6628e+07,112.05,13677,1491.5,0,1491.5,0,0.00011962,1.8528e-08,0,6.4982e-05,2.2332e-05,3.2226e+07,4171.4,0,1.6547e+07,2822.5,1491.5,1
4990,0.76,12381,1,12381,1,3.6474e-05,-1.6133e-09,0,0.00010809,-6.6148e-06,-1.084e+06,25.95,0,2.8039e+07,934.99,12380,15000,1,15000,1,0.00025133,1.1623e-07,0,0.00025133,3.1313e-05,4.185e+07,39771,0,6.7757e+07,18951,14999,12382,1,12382,1,3.4451e-05,7.9453e-11,0,0.00010474,-6.2295e-06,8.5679e+06,18.565,0,2.6778e+07,0.32022,12381,9753,1,9753,1,-0.0001666,-1.3953e-07,0,3.3282e-06,-4.677e-05,-6.7757e+07,-21384,0,8.0621e+05,-3258.9,9752,11091,1,11091,1,-7.3806e-05,-2.5431e-10,0,4.9916e-05,-2.6439e-05,-3.0012e+07,-57.671,0,1.5019e+07,-6.6797,11090,13678,1,13678,1,0.00014271,3.5553e-10,0,0.00015817,1.3944e-05,2.6778e+07,80.514,0,3.7116e+07,123.12,13677,1491.5,0,1491.5,0,0.00012121,1.8938e-08,0,6.5846e-05,2.2629e-05,3.2655e+07,4224.8,0,1.6768e+07,2849.6,1491.5,1
4990,0.77,12381,1,12381,1,3.6954e-05,-1.7534e-09,0,0.00010952,-6.7019e-06,-1.0983e+06,0.63365,0,2.8408e+07,943.75,12380,15000,1,15000,1,0.00025464,1.1834e-07,0,0.00025464,3.1726e-05,4.2401e+07,40494,0,6.865e+07,19183,14999,12382,1,12382,1,3.4904e-05,-2.8645e-10,0,0.00010612,-6.3114e-06,8.6807e+06,-65.818,0,2.713e+07,1.2436,12381,9753,1,9753,1,-0.0001688,-1.4016e-07,0,3.3721e-06,-4.7386e-05,-6.865e+07,-21455,0,8.1685e+05,-3333.3,9752,11091,1,11091,1,-7.4776e-05,-7.3136e-10,0,5.0574e-05,-2.6786e-05,-3.0406e+07,-152.07,0,1.5217e+07,-6.1732,11090,13678,1,13678,1,0.00014458,1.334e-10,0,0.00016025,1.4127e-05,2.713e+07,36.231,0,3.7604e+07,120.31,13677,1491.5,0,1491.5,0,0.0001228,1.9037e-08,0,6.6713e-05,2.2927e-05,3.3085e+07,4280.9,0,1.6988e+07,2883.2,1491.5,1
4990,0.78,12381,1,12381,1,3.7435e-05,-1.388e-09,0,0.00011094,-6.789e-06,-1.1126e+06,86.069,0,2.8778e+07,965.33,12380,15000,1,15000,1,0.00025794,1.1933e-07,0,0.00025794,3.2139e-05,4.2951e+07,40832,0,6.9544e+07,19431,14999,12382,1,12382,1,3.5359e-05,4.3405e-10,0,0.0001075,-6.3936e-06,8.7937e+06,97.802,0,2.7483e+07,2.5946,12381,9753,1,9753,1,-0.00017099,-1.4295e-07,0,3.416e-06,-4.8001e-05,-6.9544e+07,-21904,0,8.2751e+05,-3393.4,9752,11091,1,11091,1,-7.5749e-05,-4.0116e-10,0,5.1233e-05,-2.7135e-05,-3.0802e+07,-86.586,0,1.5415e+07,-7.2952,11090,13678,1,13678,1,0.00014647,1.1651e-09,0,0.00016234,1.4311e-05,2.7483e+07,258.8,0,3.8094e+07,150.43,13677,1491.5,0,1491.5,0,0.0001244,1.9424e-08,0,6.7581e-05,2.3225e-05,3.3515e+07,4340.3,0,1.7209e+07,2926,1491.5,1
4990,0.79,12381,1,12381,1,3.7914e-05,-1.6402e-09,0,0.00011236,-6.8759e-06,-1.1268e+06,35.252,0,2.9146e+07,971.48,12380,15000,1,15000,1,0.00026126,1.2073e-07,0,0.00026126,3.2549e-05,4.3502e+07,41311,0,7.0432e+07,19732,14999,12382,1,12382,1,3.581e-05,1.0866e-10,0,0.00010887,-6.4753e-06,8.906e+06,24.487,0,2.7834e+07,2.7515,12381,9753,1,9753,1,-0.00017318,-1.4518e-07,0,3.4595e-06,-4.8627e-05,-7.0432e+07,-22264,0,8.3802e+05,-3353.8,9752,11091,1,11091,1,-7.6719e-05,2.0655e-11,0,5.1886e-05,-2.7482e-05,-3.1196e+07,4.9598,0,1.5612e+07,-3.9053,11090,13678,1,13678,1,0.00014834,3.1759e-10,0,0.00016442,1.4494e-05,2.7834e+07,68.214,0,3.858e+07,124.78,13677,1491.5,0,1491.5,0,0.00012599,1.9735e-08,0,6.8445e-05,2.3522e-05,3.3944e+07,4395.1,0,1.7429e+07,2967.3,1491.5,1
4990,0.8,12381,1,12381,1,3.8395e-05,-1.6267e-09,0,0.00011379,-6.9631e-06,-1.1411e+06,40.164,0,2.9516e+07,1001.1,12380,15000,1,15000,1,0.00026456,1.225e-07,0,0.00026456,3.2963e-05,4.4052e+07,41916,0,7.1328e+07,19991,14999,12382,1,12382,1,3.6266e-05,2.7134e-10,0,0.00011025,-6.5575e-06,9.0193e+06,64.542,0,2.8188e+07,18.454,12381,9753,1,9753,1,-0.00017538,-1.4621e-07,0,3.5035e-06,-4.9232e-05,-7.1328e+07,-22412,0,8.4872e+05,-4720.4,9752,11091,1,11091,1,-7.7692e-05,-8.8195e-10,0,5.2547e-05,-2.7831e-05,-3.1592e+07,-193.38,0,1.581e+07,-1.3107,11090,13678,1,13678,1,0.00015022,1.1212e-09,0,0.0001665,1.4678e-05,2.8188e+07,252.8,0,3.9071e+07,172.94,13677,1491.5,0,1491.5,0,0.00012759,1.9889e-08,0,6.9314e-05,2.3821e-05,3.4375e+07,4452.7,0,1.7651e+07,3014.1,1491.5,1
4990,0.81,12381,1,12381,1,3.8875e-05,-1.6382e-09,0,0.00011521,-7.0502e-06,-1.1554e+06,44.774,0,2.9885e+07,1002.9,12380,15000,1,15000,1,0.00026787,1.2392e-07,0,0.00026787,3.3374e-05,4.4604e+07,42404,0,7.2218e+07,20241,14999,12382,1,12382,1,3.6719e-05,8.2971e-11,0,0.00011163,-6.6395e-06,9.1319e+06,20.984,0,2.854e+07,10.172,12381,9753,1,9753,1,-0.00017757,-1.4825e-07,0,3.5477e-06,-4.9855e-05,-7.2218e+07,-22712,0,8.5942e+05,-3474.9,9752,11091,1,11091,1,-7.8663e-05,-4.0099e-10,0,5.3202e-05,-2.8179e-05,-3.1987e+07,-91.012,0,1.6008e+07,-4.3186,11090,13678,1,13678,1,0.0001521,6.6364e-10,0,0.00016858,1.4862e-05,2.854e+07,146.95,0,3.9559e+07,139.67,13677,1491.5,0,1491.5,0,0.00012919,2.0148e-08,0,7.018e-05,2.4118e-05,3.4804e+07,4498,0,1.7871e+07,3036.4,1491.5,1
4990,0.82,12381,1,12381,1,3.9354e-05,-1.759e-09,0,0.00011663,-7.1372e-06,-1.1696e+06,23.709,0,3.0253e+07,1021.4,12380,15000,1,15000,1,0.00027118,1.2546e-07,0,0.00027118,3.3786e-05,4.5155e+07,42929,0,7.3108e+07,20372,14999,12382,1,12382,1,3.7172e-05,9.7594e-11,0,0.00011301,-6.7214e-06,9.2445e+06,24.314,0,2.8892e+07,15.962,12381,9753,1,9753,1,-0.00017976,-1.504e-07,0,3.5914e-06,-5.0464e-05,-7.3108e+07,-23039,0,8.6999e+05,-3501.9,9752,11091,1,11091,1,-7.9634e-05,-2.7347e-10,0,5.3859e-05,-2.8526e-05,-3.2381e+07,-60.928,0,1.6205e+07,0.66766,11090,13678,1,13678,1,0.00015398,3.2176e-10,0,0.00017066,1.5045e-05,2.8892e+07,72.573,0,4.0047e+07,154.01,13677,1491.5,0,1491.5,0,0.00013078,2.0427e-08,0,7.1046e-05,2.4416e-05,3.5233e+07,4564.1,0,1.8092e+07,3071.9,1491.5,1
4990,0.83,12381,1,12381,1,3.9835e-05,-1.75e-09,0,0.00011805,-7.2244e-06,-1.1839e+06,30.656,0,3.0623e+07,1028.8,12380,15000,1,15000,1,0.00027449,1.2739e-07,0,0.00027449,3.4199e-05,4.5705e+07,43591,0,7.4002e+07,20763,14999,12382,1,12382,1,3.7626e-05,2.1047e-10,0,0.00011439,-6.8035e-06,9.3574e+06,47.913,0,2.9245e+07,10.11,12381,9753,1,9753,1,-0.00018195,-1.5245e-07,0,3.6358e-06,-5.11e-05,-7.4002e+07,-23296,0,8.8082e+05,-6062,9752,11091,1,11091,1,-8.0606e-05,-2.6798e-10,0,5.4517e-05,-2.8875e-05,-3.2777e+07,-57.123,0,1.6403e+07,-3.393,11090,13678,1,13678,1,0.00015586,5.1046e-10,0,0.00017275,1.5229e-05,2.9245e+07,111.8,0,4.0536e+07,167.58,13677,1491.5,0,1491.5,0,0.00013238,2.0726e-08,0,7.1914e-05,2.4714e-05,3.5664e+07,4628.7,0,1.8313e+07,3126.6,1491.5,1
4990,0.84,12381,1,12381,1,4.0314e-05,-2.0226e-09,0,0.00011947,-7.3112e-06,-1.1982e+06,-18.987,0,3.0991e+07,1036,12380,15000,1,15000,1,0.0002778,1.2855e-07,0,0.0002778,3.461e-05,4.6257e+07,43988,0,7.4891e+07,20797,14999,12382,1,12382,1,3.8078e-05,-2.6894e-10,0,0.00011576,-6.8853e-06,9.4699e+06,-58.036,0,2.9597e+07,3.2231,12381,9753,1,9753,1,-0.00018414,-1.5495e-07,0,3.679e-06,-5.1696e-05,-7.4891e+07,-23767,0,8.912e+05,-3731.2,9752,11091,1,11091,1,-8.1576e-05,-5.2268e-10,0,5.5172e-05,-2.9222e-05,-3.3171e+07,-112.22,0,1.66e+07,-6.4315,11090,13678,1,13678,1,0.00015773,5.6801e-11,0,0.00017483,1.5412e-05,2.9597e+07,13.937,0,4.1023e+07,145.45,13677,1491.5,0,1491.5,0,0.00013397,2.1048e-08,0,7.2779e-05,2.5011e-05,3.6093e+07,4699.9,0,1.8533e+07,3144.4,1491.5,1
4990,0.85,12381,1,12381,1,4.0794e-05,-1.8864e-09,0,0.00012089,-7.3983e-06,-1.2124e+06,14.292,0,3.136e+07,1048.6,12380,15000,1,15000,1,0.0002811,1.3024e-07,0,0.0002811,3.5022e-05,4.6806e+07,44567,0,7.5783e+07,21142,14999,12382,1,12382,1,3.8531e-05,-8.5851e-11,0,0.00011714,-6.9673e-06,9.5827e+06,-19.686,0,2.9949e+07,1.4489,12381,9753,1,9753,1,-0.00018633,-1.5557e-07,0,3.7228e-06,-5.231e-05,-7.5783e+07,-23849,0,9.0181e+05,-3490.6,9752,11091,1,11091,1,-8.2547e-05,-4.8088e-10,0,5.5829e-05,-2.957e-05,-3.3566e+07,-100.32,0,1.6798e+07,-10.076,11090,13678,1,13678,1,0.00015961,2.9451e-10,0,0.00017691,1.5595e-05,2.9949e+07,65.47,0,4.1512e+07,142.17,13677,1491.5,0,1491.5,0,0.00013556,2.1124e-08,0,7.3645e-05,2.5309e-05,3.6522e+07,4732.7,0,1.8754e+07,3193.7,1491.5,1
4990,0.86,12381,1,12381,1,4.1276e-05,-1.9351e-09,0,0.00012232,-7.4856e-06,-1.2267e+06,7.1999,0,3.173e+07,1071.3,12380,15000,1,15000,1,0.00028442,1.3211e-07,0,0.00028442,3.5436e-05,4.7358e+07,45207,0,7.6679e+07,21632,14999,12382,1,12382,1,3.8987e-05,1.2681e-10,0,0.00011853,-7.0496e-06,9.6959e+06,28.286,0,3.0303e+07,19.434,12381,9753,1,9753,1,-0.00018854,-1.6214e-07,0,3.7668e-06,-5.2941e-05,-7.6679e+07,-24826,0,9.1253e+05,-4020.6,9752,11091,1,11091,1,-8.352e-05,-8.0356e-10,0,5.6488e-05,-2.9919e-05,-3.3962e+07,-174.32,0,1.6996e+07,-2.5927,11090,13678,1,13678,1,0.00016149,8.6027e-10,0,0.000179,1.5779e-05,3.0302e+07,189.8,0,4.2002e+07,177.68,13677,1491.5,0,1491.5,0,0.00013716,2.1678e-08,0,7.4514e-05,2.5608e-05,3.6953e+07,4819.9,0,1.8975e+07,3238.3,1491.5,1
4990,0.87,12381,1,12381,1,4.1754e-05,-1.8541e-09,0,0.00012374,-7.5723e-06,-1.241e+06,27.603,0,3.2098e+07,1070,12380,15000,1,15000,1,0.00028771,1.3327e-07,0,0.00028771,3.5846e-05,4.7907e+07,45603,0,7.7566e+07,21677,14999,12382,1,12382,1,3.9438e-05,-1.0238e-11,0,0.0001199,-7.1313e-06,9.8082e+06,-2.7354,0,3.0654e+07,-1.599,12381,9753,1,9753,1,-0.00019072,-1.5898e-07,0,3.8102e-06,-5.354e-05,-7.7566e+07,-24347,0,9.2299e+05,-3803,9752,11091,1,11091,1,-8.4489e-05,-5.2665e-10,0,5.7142e-05,-3.0266e-05,-3.4356e+07,-118.59,0,1.7193e+07,-8.8775,11090,13678,1,13678,1,0.00016336,4.3656e-10,0,0.00018107,1.5962e-05,3.0653e+07,97.966,0,4.2488e+07,144.32,13677,1491.5,0,1491.5,0,0.00013875,2.1579e-08,0,7.5378e-05,2.5904e-05,3.7382e+07,4836.3,0,1.9195e+07,3263.6,1491.5,1
4990,0.88,12381,1,12381,1,4.2233e-05,-1.8508e-09,0,0.00012516,-7.6592e-06,-1.2552e+06,33.259,0,3.2466e+07,1084.5,12380,15000,1,15000,1,0.00029102,1.3423e-07,0,0.00029102,3.6258e-05,4.8457e+07,45931,0,7.8457e+07,21987,14999,12382,1,12382,1,3.9891e-05,2.2718e-10,0,0.00012128,-7.2131e-06,9.9208e+06,52.915,0,3.1006e+07,-1.4143,12381,9753,1,9753,1,-0.00019291,-1.6207e-07,0,3.8538e-06,-5.4155e-05,-7.8457e+07,-24855,0,9.3355e+05,-3755,9752,11091,1,11091,1,-8.5459e-05,-3.4891e-10,0,5.7799e-05,-3.0613e-05,-3.475e+07,-76.71,0,1.7391e+07,-7.9786,11090,13678,1,13678,1,0.00016524,7.164e-10,0,0.00018315,1.6146e-05,3.1005e+07,153.47,0,4.2976e+07,140.14,13677,1491.5,0,1491.5,0,0.00014035,2.1997e-08,0,7.6243e-05,2.6202e-05,3.7811e+07,4893.8,0,1.9415e+07,3310,1491.5,1
4990,0.89,12381,1,12381,1,4.2713e-05,-1.901e-09,0,0.00012658,-7.7463e-06,-1.2695e+06,27.25,0,3.2835e+07,1096,12380,15000,1,15000,1,0.00029432,1.3588e-07,0,0.00029432,3.6669e-05,4.9008e+07,46496,0,7.9348e+07,22235,14999,12382,1,12382,1,4.0344e-05,1.9295e-10,0,0.00012265,-7.295e-06,1.0033e+07,44.322,0,3.1358e+07,-0.0080275,12381,9753,1,9753,1,-0.0001951,-1.6377e-07,0,3.8976e-06,-5.4771e-05,-7.9348e+07,-25107,0,9.4416e+05,-3769.9,9752,11091,1,11091,1,-8.643e-05,-2.1149e-10,0,5.8455e-05,-3.0961e-05,-3.5145e+07,-45.181,0,1.7588e+07,-8.4779,11090,13678,1,13678,1,0.00016712,5.2113e-10,0,0.00018523,1.6329e-05,3.1358e+07,104.49,0,4.3464e+07,147.33,13677,1491.5,0,1491.5,0,0.00014194,2.2228e-08,0,7.7109e-05,2.6499e-05,3.824e+07,4948.6,0,1.9636e+07,3347.1,1491.5,1
4990,0.9,12381,1,12381,1,4.3193e-05,-2.0347e-09,0,0.000128,-7.8333e-06,-1.2837e+06,3.4661,0,3.3204e+07,1110.6,12380,15000,1,15000,1,0.00029764,1.3726e-07,0,0.00029764,3.7081e-05,4.956e+07,46968,0,8.0239e+07,22443,14999,12382,1,12382,1,4.0797e-05,4.5889e-11,0,0.00012403,-7.377e-06,1.0146e+07,11.486,0,3.171e+07,-0.63605,12381,9753,1,9753,1,-0.00019729,-1.6541e-07,0,3.9419e-06,-5.5387e-05,-8.0239e+07,-25363,0,9.549e+05,-3888.1,9752,11091,1,11091,1,-8.7402e-05,-3.2859e-10,0,5.9112e-05,-3.1309e-05,-3.554e+07,-74.502,0,1.7786e+07,-5.3065,11090,13678,1,13678,1,0.000169,2.6538e-10,0,0.00018731,1.6513e-05,3.171e+07,59.233,0,4.3953e+07,155.09,13677,1491.5,0,1491.5,0,0.00014354,2.2462e-08,0,7.7976e-05,2.6797e-05,3.867e+07,5001,0,1.9856e+07,3383,1491.5,1
4990,0.91,12381,1,12381,1,4.3673e-05,-2.2024e-09,0,0.00012943,-7.9204e-06,-1.298e+06,-24.585,0,3.3573e+07,1124.3,12380,15000,1,15000,1,0.00030095,1.3894e-07,0,0.00030095,3.7493e-05,5.0112e+07,47542,0,8.113e+07,22640,14999,12382,1,12382,1,4.125e-05,-1.0704e-10,0,0.00012541,-7.459e-06,1.0259e+07,-25.941,0,3.2062e+07,4.1502,12381,9753,1,9753,1,-0.00019948,-1.6782e-07,0,3.9861e-06,-5.6005e-05,-8.113e+07,-25764,0,9.6565e+05,-3921.8,9752,11091,1,11091,1,-8.8373e-05,-2.6597e-10,0,5.9768e-05,-3.1657e-05,-3.5935e+07,-53.542,0,1.7983e+07,-6.2978,11090,13678,1,13678,1,0.00017087,1.2124e-11,0,0.00018939,1.6696e-05,3.2062e+07,3.4471,0,4.4441e+07,151.48,13677,1491.5,0,1491.5,0,0.00014513,2.286e-08,0,7.8843e-05,2.7095e-05,3.91e+07,5081.4,0,2.0077e+07,3415.1,1491.5,1
4990,0.92,12381,1,12381,1,4.4155e-05,-1.8136e-09,0,0.00013085,-8.0077e-06,-1.3122e+06,60.324,0,3.3943e+07,1141,12380,15000,1,15000,1,0.00030425,1.4093e-07,0,0.00030425,3.7907e-05,5.066e+07,48225,0,8.2027e+07,22952,14999,12382,1,12382,1,4.1706e-05,2.1885e-10,0,0.00012679,-7.5413e-06,1.0372e+07,51.675,0,3.2416e+07,12.782,12381,9753,1,9753,1,-0.00020168,-1.6734e-07,0,4.0312e-06,-5.6623e-05,-8.2027e+07,-25657,0,9.7667e+05,-3852.8,9752,11091,1,11091,1,-8.9345e-05,-6.7665e-10,0,6.0428e-05,-3.2005e-05,-3.633e+07,-145.08,0,1.8182e+07,-6.2004,11090,13678,1,13678,1,0.00017276,9.2678e-10,0,0.00019148,1.688e-05,3.2416e+07,204.59,0,4.4931e+07,177.4,13677,1491.5,0,1491.5,0,0.00014673,2.2786e-08,0,7.9712e-05,2.7394e-05,3.9531e+07,5104.8,0,2.0298e+07,3472,1491.5,1
4990,0.93,12381,1,12381,1,4.4633e-05,-2.1767e-09,0,0.00013227,-8.0944e-06,-1.3265e+06,-12.403,0,3.4311e+07,1148.3,12380,15000,1,15000,1,0.00030756,1.4186e-07,0,0.00030756,3.8317e-05,5.1212e+07,48540,0,8.2912e+07,23165,14999,12382,1,12382,1,4.2157e-05,-8.5102e-11,0,0.00012816,-7.6229e-06,1.0484e+07,-20.022,0,3.2767e+07,-2.3017,12381,9753,1,9753,1,-0.00020386,-1.71e-07,0,4.0732e-06,-5.7233e-05,-8.2912e+07,-26224,0,9.8672e+05,-3975.7,9752,11091,1,11091,1,-9.0315e-05,-2.3025e-10,0,6.1081e-05,-3.2352e-05,-3.6724e+07,-51.917,0,1.8378e+07,-10.379,11090,13678,1,13678,1,0.00017463,3.814e-11,0,0.00019355,1.7063e-05,3.2767e+07,8.8975,0,4.5418e+07,159.4,13677,1491.5,0,1491.5,0,0.00014832,2.3254e-08,0,8.0575e-05,2.769e-05,3.9959e+07,5174.5,0,2.0518e+07,3498.6,1491.5,1
4990,0.94,12381,1,12381,1,4.5113e-05,-1.9702e-09,0,0.00013369,-8.1815e-06,-1.3408e+06,38.147,0,3.468e+07,1159,12380,15000,1,15000,1,0.00031086,1.4365e-07,0,0.00031086,3.8729e-05,5.1762e+07,49153,0,8.3805e+07,23475,14999,12382,1,12382,1,4.2611e-05,9.6543e-11,0,0.00012954,-7.7049e-06,1.0597e+07,23.091,0,3.3119e+07,-0.69189,12381,9753,1,9753,1,-0.00020606,-1.7276e-07,0,4.1166e-06,-5.7847e-05,-8.3805e+07,-26482,0,9.9723e+05,-3973.9,9752,11091,1,11091,1,-9.1286e-05,-3.3663e-10,0,6.1739e-05,-3.27e-05,-3.7119e+07,-81.261,0,1.8576e+07,-7.8034,11090,13678,1,13678,1,0.00017651,5.8382e-10,0,0.00019564,1.7246e-05,3.3119e+07,131.39,0,4.5906e+07,154.88,13677,1491.5,0,1491.5,0,0.00014992,2.3457e-08,0,8.1442e-05,2.7988e-05,4.0389e+07,5228,0,2.0739e+07,3533.7,1491.5,1
4990,0.95,12381,1,12381,1,4.5592e-05,-2.0827e-09,0,0.00013511,-8.2684e-06,-1.3551e+06,18.474,0,3.5048e+07,1175.1,12380,15000,1,15000,1,0.00031417,1.4478e-07,0,0.00031417,3.9141e-05,5.2312e+07,49541,0,8.4695e+07,23766,14999,12382,1,12382,1,4.3063e-05,1.2484e-10,0,0.00013092,-7.7867e-06,1.071e+07,31.58,0,3.3471e+07,2.0624,12381,9753,1,9753,1,-0.00020825,-1.7537e-07,0,4.1602e-06,-5.8463e-05,-8.4695e+07,-26899,0,1.0078e+06,-4019.1,9752,11091,1,11091,1,-9.2256e-05,-3.3366e-11,0,6.2394e-05,-3.3048e-05,-3.7514e+07,-9.2841,0,1.8773e+07,-4.0499,11090,13678,1,13678,1,0.00017838,3.0245e-10,0,0.00019771,1.743e-05,3.3471e+07,60.452,0,4.6394e+07,158.78,13677,1491.5,0,1491.5,0,0.00015151,2.38e-08,0,8.2307e-05,2.8286e-05,4.0818e+07,5284.1,0,2.0959e+07,3573.9,1491.5,1
4990,0.96,12381,1,12381,1,4.6073e-05,-2.2186e-09,0,0.00013654,-8.3556e-06,-1.3693e+06,-7.401,0,3.5418e+07,1185.2,12380,15000,1,15000,1,0.00031748,1.4671e-07,0,0.00031748,3.9553e-05,5.2864e+07,50201,0,8.5588e+07,24010,14999,12382,1,12382,1,4.3517e-05,-9.5665e-11,0,0.0001323,-7.8688e-06,1.0823e+07,-21.561,0,3.3824e+07,0.38087,12381,9753,1,9753,1,-0.00021044,-1.7636e-07,0,4.2044e-06,-5.9079e-05,-8.5588e+07,-27031,0,1.0185e+06,-4028.4,9752,11091,1,11091,1,-9.3228e-05,-5.9229e-10,0,6.3053e-05,-3.3396e-05,-3.7909e+07,-132.4,0,1.8971e+07,-6.2632,11090,13678,1,13678,1,0.00018026,2.7677e-10,0,0.0001998,1.7613e-05,3.3824e+07,63.411,0,4.6883e+07,159.58,13677,1491.5,0,1491.5,0,0.0001531,2.3922e-08,0,8.3175e-05,2.8584e-05,4.1248e+07,5338.8,0,2.118e+07,3608.7,1491.5,1
4990,0.97,12381,1,12381,1,4.6552e-05,-2.1507e-09,0,0.00013796,-8.4425e-06,-1.3836e+06,13.027,0,3.5786e+07,1194,12380,15000,1,15000,1,0.00032078,1.4789e-07,0,0.00032078,3.9965e-05,5.3414e+07,50606,0,8.6479e+07,24258,14999,12382,1,12382,1,4.397e-05,1.399e-10,0,0.00013368,-7.9508e-06,1.0935e+07,34.186,0,3.4176e+07,-1.6092,12381,9753,1,9753,1,-0.00021263,-1.7896e-07,0,4.2482e-06,-5.9694e-05,-8.6479e+07,-27450,0,1.0291e+06,-4129.1,9752,11091,1,11091,1,-9.4198e-05,-1.5858e-10,0,6.3709e-05,-3.3744e-05,-3.8304e+07,-36.315,0,1.9169e+07,-10.88,11090,13678,1,13678,1,0.00018214,4.096e-10,0,0.00020188,1.7797e-05,3.4176e+07,83.951,0,4.7371e+07,159.92,13677,1491.5,0,1491.5,0,0.0001547,2.4295e-08,0,8.404e-05,2.8881e-05,4.1677e+07,5397.6,0,2.1401e+07,3648,1491.5,1
4990,0.98,12381,1,12381,1,4.7032e-05,-2.0666e-09,0,0.00013938,-8.5296e-06,-1.3979e+06,36.356,0,3.6156e+07,1221.6,12380,15000,1,15000,1,0.00032409,1.4976e-07,0,0.00032409,4.0378e-05,5.3964e+07,51245,0,8.7372e+07,24513,14999,12382,1,12382,1,4.4424e-05,2.3774e-10,0,0.00013506,-8.0327e-06,1.1048e+07,55.325,0,3.4529e+07,11.303,12381,9753,1,9753,1,-0.00021483,-1.8017e-07,0,4.2919e-06,-6.0311e-05,-8.7372e+07,-27624,0,1.0397e+06,-4138.9,9752,11091,1,11091,1,-9.517e-05,-4.1596e-10,0,6.4367e-05,-3.4092e-05,-3.8699e+07,-92.452,0,1.9367e+07,0.34327,11090,13678,1,13678,1,0.00018402,8.0942e-10,0,0.00020396,1.798e-05,3.4528e+07,169.3,0,4.786e+07,172.16,13677,1491.5,0,1491.5,0,0.00015629,2.4474e-08,0,8.4907e-05,2.9179e-05,4.2107e+07,5458,0,2.1621e+07,3689.5,1491.5,1
4990,0.99,12381,1,12381,1,4.7512e-05,-2.0951e-09,0,0.0001408,-8.6167e-06,-1.4121e+06,35.967,0,3.6525e+07,1214.6,12380,15000,1,15000,1,0.0003274,1.5123e-07,0,0.0003274,4.0789e-05,5.4515e+07,51747,0,8.8262e+07,24717,14999,12382,1,12382,1,4.4877e-05,1.1684e-10,0,0.00013643,-8.1148e-06,1.1161e+07,28.005,0,3.4881e+07,-2.2903,12381,9753,1,9753,1,-0.00021702,-1.8208e-07,0,4.3361e-06,-6.0924e-05,-8.8262e+07,-27912,0,1.0504e+06,-4230.9,9752,11091,1,11091,1,-9.6141e-05,-1.9543e-10,0,6.5023e-05,-3.444e-05,-3.9094e+07,-42.724,0,1.9564e+07,-12.69,11090,13678,1,13678,1,0.00018589,4.9023e-10,0,0.00020604,1.8164e-05,3.4881e+07,107.16,0,4.8348e+07,156.25,13677,1491.5,0,1491.5,0,0.00015789,2.4714e-08,0,8.5773e-05,2.9477e-05,4.2537e+07,5506.9,0,2.1842e+07,3717.3,1491.5,1
4990,1,12381,1,12381,1,4.7993e-05,-2.2124e-09,0,0.00014223,-8.7037e-06,-1.4264e+06,15.061,0,3.6894e+07,1238.9,12380,15000,1,15000,1,0.00033071,1.5281e-07,0,0.00033071,4.1201e-05,5.5066e+07,52290,0,8.9155e+07,24928,14999,12382,1,12382,1,4.5331e-05,4.2374e-11,0,0.00013781,-8.1967e-06,1.1274e+07,9.6758,0,3.5233e+07,3.9585,12381,9753,1,9753,1,-0.00021921,-1.8398e-07,0,4.3797e-06,-6.1541e-05,-8.9155e+07,-28208,0,1.061e+06,-4207,9752,11091,1,11091,1,-9.7113e-05,-4.3034e-10,0,6.568e-05,-3.4788e-05,-3.9489e+07,-96.139,0,1.9762e+07,-5.1227,11090,13678,1,13678,1,0.00018777,4.8203e-10,0,0.00020812,1.8347e-05,3.5233e+07,108.96,0,4.8837e+07,166.28,13677,1491.5,0,1491.5,0,0.00015948,2.4975e-08,0,8.664e-05,2.9775e-05,4.2967e+07,5565.6,0,2.2063e+07,3756,1491.5,1
4990,1.01,12381,1,12381,1,4.8473e-05,-2.2238e-09,0,0.00014365,-8.7908e-06,-1.4406e+06,19.512,0,3.7263e+07,1259.5,12380,15000,1,15000,1,0.00033401,1.5457e-07,0,0.00033401,4.1614e-05,5.5617e+07,52890,0,9.0047e+07,25355,14999,12382,1,12382,1,4.5784e-05,2.8212e-11,0,0.00013919,-8.2788e-06,1.1386e+07,6.9154,0,3.5586e+07,7.6539,12381,9753,1,9753,1,-0.0002214,-1.8544e-07,0,4.4243e-06,-6.2157e-05,-9.0047e+07,-28432,0,1.0718e+06,-4659.6,9752,11091,1,11091,1,-9.8084e-05,-4.6295e-10,0,6.6337e-05,-3.5136e-05,-3.9884e+07,-103.86,0,1.996e+07,-4.3268,11090,13678,1,13678,1,0.00018965,5.6327e-10,0,0.00021021,1.8531e-05,3.5585e+07,126.23,0,4.9325e+07,189.89,13677,1491.5,0,1491.5,0,0.00016108,2.5204e-08,0,8.7507e-05,3.0073e-05,4.3397e+07,5625.9,0,2.2283e+07,3796.1,1491.5,1
4990,1.02,12381,1,12381,1,4.8953e-05,-2.0907e-09,0,0.00014507,-8.8779e-06,-1.4549e+06,50.528,0,3.7632e+07,1269.9,12380,15000,1,15000,1,0.00033732,1.5599e-07,0,0.00033732,4.2026e-05,5.6167e+07,53378,0,9.0939e+07,25488,14999,12382,1,12382,1,4.6238e-05,2.5691e-10,0,0.00014057,-8.3607e-06,1.1499e+07,57.777,0,3.5938e+07,11.808,12381,9753,1,9753,1,-0.0002236,-1.8731e-07,0,4.4671e-06,-6.2772e-05,-9.0939e+07,-28722,0,1.0821e+06,-4278.6,9752,11091,1,11091,1,-9.9055e-05,-3.1428e-10,0,6.6995e-05,-3.5484e-05,-4.0279e+07,-67.1,0,2.0157e+07,-0.21873,11090,13678,1,13678,1,0.00019153,7.3704e-10,0,0.00021229,1.8714e-05,3.5938e+07,159.28,0,4.9814e+07,185.42,13677,1491.5,0,1491.5,0,0.00016268,2.5443e-08,0,8.8374e-05,3.0371e-05,4.3826e+07,5677.9,0,2.2504e+07,3835.1,1491.5,1
4990,1.03,12381,1,12381,1,4.9432e-05,-2.3102e-09,0,0.00014649,-8.9648e-06,-1.4692e+06,9.0542,0,3.8e+07,1274.9,12380,15000,1,15000,1,0.00034063,1.5737e-07,0,0.00034063,4.2437e-05,5.6718e+07,53850,0,9.1829e+07,25756,14999,12382,1,12382,1,4.669e-05,-4.4142e-12,0,0.00014195,-8.4426e-06,1.1612e+07,-0.98871,0,3.629e+07,0.40983,12381,9753,1,9753,1,-0.00022579,-1.8931e-07,0,4.5111e-06,-6.3389e-05,-9.1829e+07,-29020,0,1.0928e+06,-4366.7,9752,11091,1,11091,1,-0.00010003,-5.2525e-10,0,6.765e-05,-3.5831e-05,-4.0673e+07,-116.02,0,2.0355e+07,-6.3138,11090,13678,1,13678,1,0.00019341,4.2072e-10,0,0.00021437,1.8897e-05,3.629e+07,95.232,0,5.0302e+07,170.1,13677,1491.5,0,1491.5,0,0.00016427,2.5692e-08,0,8.9239e-05,3.0668e-05,4.4256e+07,5730.7,0,2.2724e+07,3875.3,1491.5,1
4990,1.04,12381,1,12381,1,4.9912e-05,-2.2149e-09,0,0.00014791,-9.0518e-06,-1.4834e+06,35.394,0,3.8369e+07,1281.2,12380,15000,1,15000,1,0.00034393,1.5883e-07,0,0.00034393,4.2849e-05,5.7268e+07,54347,0,9.272e+07,25975,14999,12382,1,12382,1,4.7143e-05,8.9703e-11,0,0.00014332,-8.5246e-06,1.1724e+07,21.061,0,3.6642e+07,-0.68315,12381,9753,1,9753,1,-0.00022798,-1.9122e-07,0,4.5548e-06,-6.4001e-05,-9.272e+07,-29314,0,1.1034e+06,-4416.9,9752,11091,1,11091,1,-0.000101,-2.8222e-10,0,6.8306e-05,-3.6179e-05,-4.1068e+07,-62.66,0,2.0552e+07,-8.6711,11090,13678,1,13678,1,0.00019528,4.9584e-10,0,0.00021645,1.9081e-05,3.6642e+07,112.35,0,5.079e+07,174,13677,1491.5,0,1491.5,0,0.00016586,2.5952e-08,0,9.0105e-05,3.0966e-05,4.4685e+07,5783.7,0,2.2945e+07,3906.9,1491.5,1
4990,1.05,12381,1,12381,1,5.0391e-05,-2.2581e-09,0,0.00014934,-9.1388e-06,-1.4977e+06,30.437,0,3.8738e+07,1294.8,12380,15000,1,15000,1,0.00034724,1.6042e-07,0,0.00034724,4.3261e-05,5.7819e+07,54892,0,9.3611e+07,26208,14999,12382,1,12382,1,4.7596e-05,2.4297e-11,0,0.0001447,-8.6065e-06,1.1837e+07,7.1952,0,3.6994e+07,-0.25271,12381,9753,1,9753,1,-0.00023017,-1.9304e-07,0,4.5986e-06,-6.4617e-05,-9.3611e+07,-29596,0,1.114e+06,-4402.7,9752,11091,1,11091,1,-0.00010197,-2.7258e-10,0,6.8963e-05,-3.6527e-05,-4.1463e+07,-62.381,0,2.075e+07,-6.6687,11090,13678,1,13678,1,0.00019716,4.0667e-10,0,0.00021853,1.9264e-05,3.6994e+07,92.87,0,5.1278e+07,171.59,13677,1491.5,0,1491.5,0,0.00016746,2.6207e-08,0,9.0971e-05,3.1263e-05,4.5114e+07,5839.2,0,2.3165e+07,3945.8,1491.5,1
4990,1.06,12381,1,12381,1,5.0872e-05,-2.4319e-09,0,0.00015076,-9.2259e-06,-1.5119e+06,-3.2786,0,3.9107e+07,1306.3,12380,15000,1,15000,1,0.00035055,1.6163e-07,0,0.00035055,4.3673e-05,5.837e+07,55307,0,9.4502e+07,26524,14999,12382,1,12382,1,4.805e-05,4.7344e-12,0,0.00014608,-8.6885e-06,1.195e+07,1.14,0,3.7347e+07,-0.65728,12381,9753,1,9753,1,-0.00023236,-1.9537e-07,0,4.6426e-06,-6.5237e-05,-9.4502e+07,-29953,0,1.1247e+06,-4503.5,9752,11091,1,11091,1,-0.00010294,-3.7647e-10,0,6.962e-05,-3.6875e-05,-4.1858e+07,-81.936,0,2.0947e+07,-7.6731,11090,13678,1,13678,1,0.00019904,2.8464e-10,0,0.00022061,1.9448e-05,3.7346e+07,64.403,0,5.1766e+07,177.41,13677,1491.5,0,1491.5,0,0.00016905,2.6499e-08,0,9.1838e-05,3.1561e-05,4.5544e+07,5896.1,0,2.3386e+07,3987.1,1491.5,1
4990,1.07,12381,1,12381,1,5.1353e-05,-2.1289e-09,0,0.00015219,-9.3131e-06,-1.5263e+06,64.781,0,3.9477e+07,1335.4,12380,15000,1,15000,1,0.00035386,1.6375e-07,0,0.00035386,4.4087e-05,5.8921e+07,56032,0,9.5398e+07,26800,14999,12382,1,12382,1,4.8504e-05,2.8275e-10,0,0.00014746,-8.7705e-06,1.2063e+07,67.466,0,3.77e+07,33.862,12381,9753,1,9753,1,-0.00023456,-1.9673e-07,0,4.6859e-06,-6.5849e-05,-9.5398e+07,-30156,0,1.1351e+06,-4532.8,9752,11091,1,11091,1,-0.00010391,-1.79e-10,0,7.0279e-05,-3.7223e-05,-4.2254e+07,-38.817,0,2.1145e+07,8.9165,11090,13678,1,13678,1,0.00020092,7.8772e-10,0,0.00022269,1.9632e-05,3.7699e+07,149.03,0,5.2256e+07,203.66,13677,1491.5,0,1491.5,0,0.00017065,2.6648e-08,0,9.2706e-05,3.186e-05,4.5975e+07,5952.5,0,2.3607e+07,4018.6,1491.5,1
4990,1.08,12381,1,12381,1,5.1831e-05,-2.469e-09,0,0.0001536,-9.3999e-06,-1.5405e+06,-1.0524,0,3.9845e+07,1333,12380,15000,1,15000,1,0.00035716,1.6452e-07,0,0.00035716,4.4497e-05,5.9472e+07,56294,0,9.6285e+07,26979,14999,12382,1,12382,1,4.8956e-05,4.9757e-11,0,0.00014883,-8.8524e-06,1.2175e+07,11.747,0,3.8051e+07,-5.6366,12381,9753,1,9753,1,-0.00023674,-1.9961e-07,0,4.7302e-06,-6.6464e-05,-9.6285e+07,-30633,0,1.1459e+06,-4471.1,9752,11091,1,11091,1,-0.00010488,-2.7851e-10,0,7.0933e-05,-3.757e-05,-4.2647e+07,-62.111,0,2.1342e+07,-14.565,11090,13678,1,13678,1,0.00020279,3.273e-10,0,0.00022477,1.9815e-05,3.8051e+07,70.573,0,5.2743e+07,184.23,13677,1491.5,0,1491.5,0,0.00017224,2.7108e-08,0,9.357e-05,3.2156e-05,4.6403e+07,6013.6,0,2.3827e+07,4065.1,1491.5,1
4990,1.09,12381,1,12381,1,5.2311e-05,-2.4047e-09,0,0.00015503,-9.487e-06,-1.5547e+06,18.184,0,4.0214e+07,1355.4,12380,15000,1,15000,1,0.00036047,1.6637e-07,0,0.00036047,4.4909e-05,6.0022e+07,56928,0,9.7177e+07,27177,14999,12382,1,12382,1,4.941e-05,7.9232e-11,0,0.00015021,-8.9343e-06,1.2288e+07,19.368,0,3.8403e+07,5.8065,12381,9753,1,9753,1,-0.00023894,-2.0069e-07,0,4.7743e-06,-6.708e-05,-9.7177e+07,-30767,0,1.1566e+06,-4605.6,9752,11091,1,11091,1,-0.00010585,-3.8771e-11,0,7.159e-05,-3.7918e-05,-4.3043e+07,-10.813,0,2.154e+07,-2.1921,11090,13678,1,13678,1,0.00020467,2.5068e-10,0,0.00022685,1.9998e-05,3.8403e+07,51.565,0,5.3231e+07,201.29,13677,1491.5,0,1491.5,0,0.00017384,2.7254e-08,0,9.4437e-05,3.2454e-05,4.6833e+07,6061.4,0,2.4048e+07,4094,1491.5,1
4990,1.1,12381,1,12381,1,5.2791e-05,-2.4952e-09,0,0.00015645,-9.5741e-06,-1.569e+06,2.7644,0,4.0583e+07,1350,12380,15000,1,15000,1,0.00036377,1.6807e-07,0,0.00036377,4.5321e-05,6.0572e+07,57510,0,9.8069e+07,27448,14999,12382,1,12382,1,4.9863e-05,-1.2252e-10,0,0.00015159,-9.0164e-06,1.2401e+07,-27.173,0,3.8756e+07,-0.84757,12381,9753,1,9753,1,-0.00024113,-2.0218e-07,0,4.8179e-06,-6.7694e-05,-9.8069e+07,-30995,0,1.1671e+06,-4694.3,9752,11091,1,11091,1,-0.00010682,-7.3359e-10,0,7.2247e-05,-3.8266e-05,-4.3437e+07,-161.86,0,2.1738e+07,-9.1381,11090,13678,1,13678,1,0.00020655,3.6885e-10,0,0.00022893,2.0182e-05,3.8755e+07,84.064,0,5.372e+07,180.37,13677,1491.5,0,1491.5,0,0.00017543,2.7425e-08,0,9.5303e-05,3.2752e-05,4.7263e+07,6116,0,2.4269e+07,4125.4,1491.5,1
4990,1.11,12381,1,12381,1,5.3271e-05,-2.4803e-09,0,0.00015787,-9.661e-06,-1.5832e+06,11.233,0,4.0951e+07,1369.7,12380,15000,1,15000,1,0.00036708,1.6924e-07,0,0.00036708,4.5732e-05,6.1123e+07,57912,0,9.8959e+07,27760,14999,12382,1,12382,1,5.0316e-05,7.9626e-11,0,0.00015297,-9.0981e-06,1.2513e+07,17.571,0,3.9107e+07,1.4897,12381,9753,1,9753,1,-0.00024332,-2.0485e-07,0,4.8613e-06,-6.831e-05,-9.8959e+07,-31423,0,1.1776e+06,-4668.4,9752,11091,1,11091,1,-0.00010779,-3.6052e-11,0,7.2903e-05,-3.8613e-05,-4.3832e+07,-10.018,0,2.1935e+07,-6.1865,11090,13678,1,13678,1,0.00020842,2.8745e-10,0,0.00023101,2.0365e-05,3.9107e+07,60.713,0,5.4207e+07,181.94,13677,1491.5,0,1491.5,0,0.00017702,2.7809e-08,0,9.6169e-05,3.3049e-05,4.7692e+07,6176.7,0,2.4489e+07,4175.3,1491.5,1
4990,1.12,12381,1,12381,1,5.3751e-05,-2.469e-09,0,0.00015929,-9.7481e-06,-1.5975e+06,19.527,0,4.132e+07,1378.3,12380,15000,1,15000,1,0.00037039,1.7092e-07,0,0.00037039,4.6144e-05,6.1674e+07,58487,0,9.985e+07,28013,14999,12382,1,12382,1,5.0769e-05,1.5367e-11,0,0.00015435,-9.1802e-06,1.2626e+07,3.7019,0,3.946e+07,-0.96477,12381,9753,1,9753,1,-0.00024551,-2.062e-07,0,4.9052e-06,-6.8925e-05,-9.985e+07,-31620,0,1.1883e+06,-4732.1,9752,11091,1,11091,1,-0.00010876,-1.0468e-10,0,7.356e-05,-3.8962e-05,-4.4227e+07,-21.233,0,2.2133e+07,-7.2825,11090,13678,1,13678,1,0.0002103,1.3214e-10,0,0.00023309,2.0548e-05,3.946e+07,32.815,0,5.4696e+07,175.89,13677,1491.5,0,1491.5,0,0.00017862,2.7991e-08,0,9.7035e-05,3.3347e-05,4.8122e+07,6230.7,0,2.471e+07,4212.3,1491.5,1
4990,1.13,12381,1,12381,1,5.423e-05,-2.5913e-09,0,0.00016071,-9.835e-06,-1.6118e+06,-2.366,0,4.1688e+07,1394.2,12380,15000,1,15000,1,0.00037369,1.7228e-07,0,0.00037369,4.6556e-05,6.2224e+07,58951,0,1.0074e+08,28259,14999,12382,1,12382,1,5.1222e-05,-5.6262e-11,0,0.00015572,-9.262e-06,1.2739e+07,-12.392,0,3.9811e+07,1.4062,12381,9753,1,9753,1,-0.0002477,-2.0858e-07,0,4.949e-06,-6.9541e-05,-1.0074e+08,-31997,0,1.1989e+06,-4776.2,9752,11091,1,11091,1,-0.00010973,-2.3321e-10,0,7.4216e-05,-3.9309e-05,-4.4621e+07,-47.956,0,2.233e+07,-4.3471,11090,13678,1,13678,1,0.00021218,3.8866e-11,0,0.00023517,2.0732e-05,3.9811e+07,11.041,0,5.5183e+07,179.84,13677,1491.5,0,1491.5,0,0.00018021,2.8306e-08,0,9.79e-05,3.3644e-05,4.8551e+07,6289.7,0,2.493e+07,4251.6,1491.5,1
4990,1.14,12381,1,12381,1,5.471e-05,-2.5387e-09,0,0.00016213,-9.9221e-06,-1.626e+06,13.219,0,4.2058e+07,1405,12380,15000,1,15000,1,0.000377,1.7381e-07,0,0.000377,4.6968e-05,6.2774e+07,59475,0,1.0163e+08,28505,14999,12382,1,12382,1,5.1676e-05,9.6611e-11,0,0.0001571,-9.3441e-06,1.2852e+07,23.205,0,4.0164e+07,0.46199,12381,9753,1,9753,1,-0.00024989,-2.1036e-07,0,4.9927e-06,-7.0157e-05,-1.0163e+08,-32266,0,1.2095e+06,-4807.6,9752,11091,1,11091,1,-0.00011071,-2.2247e-10,0,7.4874e-05,-3.9657e-05,-4.5016e+07,-49.73,0,2.2528e+07,-8.9872,11090,13678,1,13678,1,0.00021406,3.1384e-10,0,0.00023726,2.0915e-05,4.0164e+07,68.454,0,5.5672e+07,183.44,13677,1491.5,0,1491.5,0,0.00018181,2.8535e-08,0,9.8768e-05,3.3942e-05,4.8981e+07,6343.3,0,2.5151e+07,4289.8,1491.5,1
4990,1.15,12381,1,12381,1,5.519e-05,-2.6238e-09,0,0.00016356,-1.0009e-05,-1.6403e+06,-0.30148,0,4.2426e+07,1415.7,12380,15000,1,15000,1,0.00038031,1.7502e-07,0,0.00038031,4.738e-05,6.3325e+07,59889,0,1.0252e+08,28749,14999,12382,1,12382,1,5.2129e-05,1.1334e-10,0,0.00015848,-9.426e-06,1.2964e+07,28.295,0,4.0516e+07,-1.6383,12381,9753,1,9753,1,-0.00025208,-2.128e-07,0,5.0368e-06,-7.0771e-05,-1.0252e+08,-32656,0,1.2202e+06,-4875.5,9752,11091,1,11091,1,-0.00011168,-9.988e-11,0,7.553e-05,-4.0005e-05,-4.5411e+07,-27.142,0,2.2725e+07,-10.611,11090,13678,1,13678,1,0.00021593,3.2426e-10,0,0.00023933,2.1099e-05,4.0516e+07,63.679,0,5.616e+07,185.91,13677,1491.5,0,1491.5,0,0.0001834,2.8877e-08,0,9.9634e-05,3.424e-05,4.941e+07,6401.1,0,2.5371e+07,4326.3,1491.5,1
4990,1.16,12381,1,12381,1,5.567e-05,-2.6647e-09,0,0.00016498,-1.0096e-05,-1.6546e+06,-4.3911,0,4.2796e+07,1427.5,12380,15000,1,15000,1,0.00038362,1.7695e-07,0,0.00038362,4.7792e-05,6.3876e+07,60548,0,1.0342e+08,29013,14999,12382,1,12382,1,5.2583e-05,-2.2879e-11,0,0.00015986,-9.5081e-06,1.3077e+07,-5.4035,0,4.0869e+07,-2.9822,12381,9753,1,9753,1,-0.00025428,-2.1371e-07,0,5.0805e-06,-7.1387e-05,-1.0342e+08,-32772,0,1.2308e+06,-4900.8,9752,11091,1,11091,1,-0.00011265,-3.3668e-10,0,7.6187e-05,-4.0353e-05,-4.5806e+07,-74.32,0,2.2923e+07,-9.9949,11090,13678,1,13678,1,0.00021781,1.8707e-10,0,0.00024142,2.1282e-05,4.0869e+07,43.068,0,5.6649e+07,182.82,13677,1491.5,0,1491.5,0,0.000185,2.8994e-08,0,0.0001005,3.4538e-05,4.984e+07,6450.4,0,2.5592e+07,4364.5,1491.5,1
4990,1.17,12381,1,12381,1,5.615e-05,-2.6731e-09,0,0.0001664,-1.0183e-05,-1.6688e+06,-1.1209,0,4.3164e+07,1440.4,12380,15000,1,15000,1,0.00038692,1.7809e-07,0,0.00038692,4.8204e-05,6.4427e+07,60938,0,1.0431e+08,29246,14999,12382,1,12382,1,5.3035e-05,1.6131e-10,0,0.00016123,-9.59e-06,1.319e+07,38.03,0,4.1221e+07,-0.58832,12381,9753,1,9753,1,-0.00025647,-2.1656e-07,0,5.1245e-06,-7.2002e-05,-1.0431e+08,-33234,0,1.2414e+06,-4972.4,9752,11091,1,11091,1,-0.00011362,-1.6964e-10,0,7.6844e-05,-4.07e-05,-4.6201e+07,-38.242,0,2.3121e+07,-10.086,11090,13678,1,13678,1,0.00021969,4.6177e-10,0,0.0002435,2.1465e-05,4.122e+07,95.035,0,5.7137e+07,187.99,13677,1491.5,0,1491.5,0,0.00018659,2.9387e-08,0,0.00010137,3.4836e-05,5.027e+07,6514.5,0,2.5813e+07,4400.2,1491.5,1
4990,1.18,12381,1,12381,1,5.663e-05,-2.7226e-09,0,0.00016782,-1.027e-05,-1.6831e+06,-6.5616,0,4.3533e+07,1456,12380,15000,1,15000,1,0.00039023,1.7959e-07,0,0.00039023,4.8615e-05,6.4977e+07,61451,0,1.052e+08,29510,14999,12382,1,12382,1,5.3488e-05,4.1708e-12,0,0.00016261,-9.6718e-06,1.3302e+07,1.0878,0,4.1573e+07,0.8505,12381,9753,1,9753,1,-0.00025866,-2.183e-07,0,5.1681e-06,-7.2618e-05,-1.052e+08,-33500,0,1.252e+06,-4991.7,9752,11091,1,11091,1,-0.00011459,-7.9038e-11,0,7.7499e-05,-4.1048e-05,-4.6595e+07,-16.685,0,2.3318e+07,-5.4615,11090,13678,1,13678,1,0.00022157,7.316e-11,0,0.00024558,2.1649e-05,4.1573e+07,17.486,0,5.7625e+07,190.65,13677,1491.5,0,1491.5,0,0.00018819,2.9616e-08,0,0.00010223,3.5133e-05,5.0699e+07,6566.1,0,2.6033e+07,4439.9,1491.5,1
4990,1.19,12381,1,12381,1,5.7112e-05,-2.6165e-09,0,0.00016925,-1.0358e-05,-1.6974e+06,22.497,0,4.3904e+07,1458.1,12380,15000,1,15000,1,0.00039353,1.8263e-07,0,0.00039353,4.9031e-05,6.5528e+07,62492,0,1.061e+08,29614,14999,12382,1,12382,1,5.3945e-05,-7.3168e-11,0,0.000164,-9.7546e-06,1.3416e+07,-20.174,0,4.1927e+07,-5.0662,12381,9753,1,9753,1,-0.00026087,-2.1716e-07,0,5.2121e-06,-7.3232e-05,-1.061e+08,-33251,0,1.2626e+06,-5022.1,9752,11091,1,11091,1,-0.00011556,-1.6186e-09,0,7.8162e-05,-4.1398e-05,-4.6991e+07,-355.37,0,2.3517e+07,-21.92,11090,13678,1,13678,1,0.00022345,9.4984e-10,0,0.00024767,2.1833e-05,4.1927e+07,214.16,0,5.8117e+07,175.76,13677,1491.5,0,1491.5,0,0.00018979,2.9484e-08,0,0.0001031,3.5432e-05,5.1131e+07,6625,0,2.6255e+07,4466.9,1491.5,1
4990,1.2,12381,1,12381,1,5.759e-05,-2.6649e-09,0,0.00017067,-1.0444e-05,-1.7116e+06,16.398,0,4.4271e+07,1477,12380,15000,1,15000,1,0.00039684,1.8308e-07,0,0.00039684,4.944e-05,6.6079e+07,62647,0,1.0698e+08,30006,14999,12382,1,12382,1,5.4396e-05,-2.7758e-11,0,0.00016537,-9.8359e-06,1.3528e+07,-6.0166,0,4.2278e+07,-1.3129,12381,9753,1,9753,1,-0.00026304,-2.2103e-07,0,5.2556e-06,-7.3848e-05,-1.0698e+08,-33898,0,1.2732e+06,-5088.5,9752,11091,1,11091,1,-0.00011653,-2.5579e-10,0,7.8814e-05,-4.1744e-05,-4.7385e+07,-51.408,0,2.3713e+07,-8.0269,11090,13678,1,13678,1,0.00022532,2.4618e-10,0,0.00024974,2.2016e-05,4.2277e+07,55.181,0,5.8603e+07,191.22,13677,1491.5,0,1491.5,0,0.00019138,2.9995e-08,0,0.00010397,3.5729e-05,5.1559e+07,6674.9,0,2.6475e+07,4512.3,1491.5,1
4990,1.21,12381,1,12381,1,5.807e-05,-2.7926e-09,0,0.00017209,-1.0531e-05,-1.7259e+06,-6.2903,0,4.464e+07,1491.3,12380,15000,1,15000,1,0.00040015,1.8466e-07,0,0.00040015,4.9852e-05,6.663e+07,63189,0,1.0787e+08,30240,14999,12382,1,12382,1,5.4848e-05,-1.8313e-10,0,0.00016675,-9.9178e-06,1.3641e+07,-42.705,0,4.263e+07,1.2966,12381,9753,1,9753,1,-0.00026524,-2.229e-07,0,5.2996e-06,-7.4464e-05,-1.0787e+08,-34185,0,1.2838e+06,-5138.3,9752,11091,1,11091,1,-0.0001175,-4.7579e-10,0,7.9471e-05,-4.2092e-05,-4.778e+07,-98.013,0,2.3911e+07,-4.7378,11090,13678,1,13678,1,0.0002272,7.3814e-11,0,0.00025182,2.2199e-05,4.2629e+07,20.661,0,5.9091e+07,192.69,13677,1491.5,0,1491.5,0,0.00019297,3.025e-08,0,0.00010483,3.6027e-05,5.1988e+07,6733.7,0,2.6695e+07,4549,1491.5,1
4990,1.22,12381,1,12381,1,5.8549e-05,-2.8416e-09,0,0.00017351,-1.0618e-05,-1.7401e+06,-12.041,0,4.5008e+07,1508.2,12380,15000,1,15000,1,0.00040346,1.8573e-07,0,0.00040346,5.0263e-05,6.718e+07,63554,0,1.0876e+08,30526,14999,12382,1,12382,1,5.5301e-05,-5.1407e-11,0,0.00016812,-9.9996e-06,1.3753e+07,-12.452,0,4.2981e+07,1.6121,12381,9753,1,9753,1,-0.00026742,-2.2571e-07,0,5.3434e-06,-7.5079e-05,-1.0876e+08,-34637,0,1.2945e+06,-5141.7,9752,11091,1,11091,1,-0.00011847,-2.7667e-10,0,8.0126e-05,-4.2439e-05,-4.8174e+07,-63.347,0,2.4108e+07,-4.0753,11090,13678,1,13678,1,0.00022907,1.069e-10,0,0.0002539,2.2382e-05,4.2981e+07,27.596,0,5.9578e+07,199.26,13677,1491.5,0,1491.5,0,0.00019456,3.0633e-08,0,0.0001057,3.6324e-05,5.2417e+07,6790.6,0,2.6915e+07,4591.7,1491.5,1
4990,1.23,12381,1,12381,1,5.9029e-05,-2.7408e-09,0,0.00017493,-1.0705e-05,-1.7544e+06,15.157,0,4.5378e+07,1517.8,12380,15000,1,15000,1,0.00040676,1.875e-07,0,0.00040676,5.0675e-05,6.7731e+07,64160,0,1.0966e+08,30742,14999,12382,1,12382,1,5.5755e-05,2.1217e-11,0,0.0001695,-1.0082e-05,1.3866e+07,4.7011,0,4.3334e+07,1.624,12381,9753,1,9753,1,-0.00026962,-2.2713e-07,0,5.3871e-06,-7.5694e-05,-1.0966e+08,-34845,0,1.305e+06,-5201.1,9752,11091,1,11091,1,-0.00011944,-9.3119e-11,0,8.0784e-05,-4.2788e-05,-4.857e+07,-18.536,0,2.4306e+07,-4.5641,11090,13678,1,13678,1,0.00023095,1.0954e-10,0,0.00025598,2.2566e-05,4.3334e+07,28.895,0,6.0067e+07,199.79,13677,1491.5,0,1491.5,0,0.00019616,3.0827e-08,0,0.00010656,3.6622e-05,5.2847e+07,6845.8,0,2.7136e+07,4625.8,1491.5,1
4990,1.24,12381,1,12381,1,5.9509e-05,-2.8424e-09,0,0.00017636,-1.0792e-05,-1.7687e+06,-2.8881,0,4.5746e+07,1530.5,12380,15000,1,15000,1,0.00041007,1.8896e-07,0,0.00041007,5.1088e-05,6.8281e+07,64660,0,1.1055e+08,31021,14999,12382,1,12382,1,5.6208e-05,4.6449e-11,0,0.00017088,-1.0164e-05,1.3979e+07,10.43,0,4.3686e+07,3.6928,12381,9753,1,9753,1,-0.00027181,-2.2917e-07,0,5.431e-06,-7.631e-05,-1.1055e+08,-35164,0,1.3157e+06,-5244.1,9752,11091,1,11091,1,-0.00012042,-8.9274e-11,0,8.1441e-05,-4.3135e-05,-4.8965e+07,-24.301,0,2.4504e+07,-6.6634,11090,13678,1,13678,1,0.00023283,2.9948e-10,0,0.00025806,2.275e-05,4.3686e+07,63.345,0,6.0555e+07,198.94,13677,1491.5,0,1491.5,0,0.00019775,3.1108e-08,0,0.00010743,3.692e-05,5.3277e+07,6904.4,0,2.7357e+07,4666.5,1491.5,1
4990,1.25,12381,1,12381,1,5.999e-05,-2.948e-09,0,0.00017778,-1.088e-05,-1.7829e+06,-20.819,0,4.6116e+07,1540.3,12380,15000,1,15000,1,0.00041338,1.9067e-07,0,0.00041338,5.15e-05,6.8832e+07,65244,0,1.1144e+08,31240,14999,12382,1,12382,1,5.6662e-05,-2.1375e-10,0,0.00017226,-1.0246e-05,1.4092e+07,-49.488,0,4.4039e+07,-0.49037,12381,9753,1,9753,1,-0.000274,-2.3038e-07,0,5.4751e-06,-7.6926e-05,-1.1144e+08,-35333,0,1.3264e+06,-5295.8,9752,11091,1,11091,1,-0.00012139,-4.8623e-10,0,8.2098e-05,-4.3484e-05,-4.936e+07,-102.75,0,2.4701e+07,-6.736,11090,13678,1,13678,1,0.00023471,5.5092e-11,0,0.00026015,2.2933e-05,4.4039e+07,15.058,0,6.1044e+07,199.55,13677,1491.5,0,1491.5,0,0.00019935,3.1261e-08,0,0.0001083,3.7218e-05,5.3707e+07,6955.1,0,2.7578e+07,4701.1,1491.5,1
4990,1.26,12381,1,12381,1,6.0469e-05,-2.9001e-09,0,0.0001792,-1.0966e-05,-1.7972e+06,-5.3348,0,4.6484e+07,1553.8,12380,15000,1,15000,1,0.00041668,1.9194e-07,0,0.00041668,5.1911e-05,6.9383e+07,65677,0,1.1233e+08,31500,14999,12382,1,12382,1,5.7115e-05,-3.4872e-12,0,0.00017364,-1.0328e-05,1.4204e+07,-1.0162,0,4.4391e+07,1.1407,12381,9753,1,9753,1,-0.00027619,-2.3287e-07,0,5.5187e-06,-7.7541e-05,-1.1233e+08,-35731,0,1.3369e+06,-5334.4,9752,11091,1,11091,1,-0.00012236,-1.3416e-10,0,8.2754e-05,-4.3831e-05,-4.9754e+07,-27.601,0,2.4899e+07,-5.9677,11090,13678,1,13678,1,0.00023659,1.4365e-10,0,0.00026223,2.3117e-05,4.4391e+07,30.863,0,6.1532e+07,203.23,13677,1491.5,0,1491.5,0,0.00020094,3.16e-08,0,0.00010916,3.7515e-05,5.4136e+07,7011.9,0,2.7798e+07,4739.3,1491.5,1
4990,1.27,12381,1,12381,1,6.0949e-05,-2.9311e-09,0,0.00018062,-1.1053e-05,-1.8114e+06,-7.2596,0,4.6853e+07,1567.7,12380,15000,1,15000,1,0.00041999,1.9327e-07,0,0.00041999,5.2323e-05,6.9933e+07,66133,0,1.1322e+08,31763,14999,12382,1,12382,1,5.7568e-05,3.1419e-11,0,0.00017501,-1.041e-05,1.4317e+07,7.6907,0,4.4743e+07,-0.36351,12381,9753,1,9753,1,-0.00027838,-2.3514e-07,0,5.5625e-06,-7.8156e-05,-1.1322e+08,-36088,0,1.3475e+06,-5348.1,9752,11091,1,11091,1,-0.00012333,-8.2359e-11,0,8.3411e-05,-4.4179e-05,-5.0149e+07,-19.563,0,2.5096e+07,-7.0838,11090,13678,1,13678,1,0.00023846,1.3095e-10,0,0.00026431,2.33e-05,4.4743e+07,28.972,0,6.202e+07,207.35,13677,1491.5,0,1491.5,0,0.00020254,3.1901e-08,0,0.00011003,3.7813e-05,5.4566e+07,7068.8,0,2.8018e+07,4778.9,1491.5,1
4990,1.28,12381,1,12381,1,6.143e-05,-2.8675e-09,0,0.00018205,-1.1141e-05,-1.8257e+06,11.58,0,4.7223e+07,1575,12380,15000,1,15000,1,0.0004233,1.9495e-07,0,0.0004233,5.2736e-05,7.0485e+07,66708,0,1.1412e+08,31997,14999,12382,1,12382,1,5.8023e-05,1.3099e-10,0,0.0001764,-1.0492e-05,1.443e+07,31.327,0,4.5096e+07,-1.246,12381,9753,1,9753,1,-0.00028058,-2.3675e-07,0,5.6066e-06,-7.8773e-05,-1.1412e+08,-36321,0,1.3582e+06,-5508.5,9752,11091,1,11091,1,-0.0001243,-1.4867e-10,0,8.4069e-05,-4.4528e-05,-5.0545e+07,-33.375,0,2.5294e+07,-8.6051,11090,13678,1,13678,1,0.00024035,3.9547e-10,0,0.00026639,2.3484e-05,4.5096e+07,86.345,0,6.251e+07,210.12,13677,1491.5,0,1491.5,0,0.00020414,3.2122e-08,0,0.0001109,3.8111e-05,5.4996e+07,7125.4,0,2.824e+07,4806.8,1491.5,1
4990,1.29,12381,1,12381,1,6.1911e-05,-3.0191e-09,0,0.00018347,-1.1228e-05,-1.84e+06,-16.05,0,4.7592e+07,1588.7,12380,15000,1,15000,1,0.00042662,1.9666e-07,0,0.00042662,5.3149e-05,7.1037e+07,67293,0,1.1501e+08,32244,14999,12382,1,12382,1,5.8476e-05,-1.5237e-11,0,0.00017777,-1.0574e-05,1.4543e+07,-3.6549,0,4.5448e+07,5.1951,12381,9753,1,9753,1,-0.00028278,-2.3856e-07,0,5.6504e-06,-7.9391e-05,-1.1501e+08,-36615,0,1.3689e+06,-5545.8,9752,11091,1,11091,1,-0.00012527,-3.2647e-10,0,8.4727e-05,-4.4876e-05,-5.094e+07,-69.114,0,2.5492e+07,-3.7869,11090,13678,1,13678,1,0.00024223,2.0706e-10,0,0.00026848,2.3667e-05,4.5448e+07,46.494,0,6.2999e+07,212.45,13677,1491.5,0,1491.5,0,0.00020573,3.2374e-08,0,0.00011177,3.8409e-05,5.5426e+07,7186.3,0,2.8461e+07,4839.1,1491.5,1
4990,1.3,12381,1,12381,1,6.239e-05,-2.8716e-09,0,0.00018489,-1.1315e-05,-1.8543e+06,20.544,0,4.796e+07,1597.8,12380,15000,1,15000,1,0.00042991,1.9809e-07,0,0.00042991,5.356e-05,7.1585e+07,67782,0,1.159e+08,32507,14999,12382,1,12382,1,5.8929e-05,1.3856e-10,0,0.00017915,-1.0656e-05,1.4656e+07,33.964,0,4.58e+07,-2.6687,12381,9753,1,9753,1,-0.00028497,-2.4002e-07,0,5.694e-06,-8.0003e-05,-1.159e+08,-36817,0,1.3794e+06,-5539.5,9752,11091,1,11091,1,-0.00012624,-2.6097e-10,0,8.5383e-05,-4.5223e-05,-5.1334e+07,-57.558,0,2.569e+07,-9.333,11090,13678,1,13678,1,0.0002441,5.8135e-10,0,0.00027056,2.3851e-05,4.58e+07,129.82,0,6.3486e+07,211.01,13677,1491.5,0,1491.5,0,0.00020733,3.2584e-08,0,0.00011263,3.8706e-05,5.5855e+07,7233.5,0,2.8681e+07,4883.1,1491.5,1
4990,1.31,12381,1,12381,1,6.2869e-05,-3.0518e-09,0,0.00018631,-1.1402e-05,-1.8685e+06,-12.65,0,4.8329e+07,1611.1,12380,15000,1,15000,1,0.00043322,2.0007e-07,0,0.00043322,5.3972e-05,7.2136e+07,68461,0,1.1679e+08,32715,14999,12382,1,12382,1,5.9382e-05,-2.0837e-10,0,0.00018053,-1.0738e-05,1.4768e+07,-48.256,0,4.6152e+07,-3.5111,12381,9753,1,9753,1,-0.00028716,-2.4121e-07,0,5.7379e-06,-8.0618e-05,-1.1679e+08,-36987,0,1.39e+06,-5547.7,9752,11091,1,11091,1,-0.00012721,-6.1271e-10,0,8.6039e-05,-4.5571e-05,-5.1729e+07,-121.28,0,2.5887e+07,-9.6537,11090,13678,1,13678,1,0.00024598,9.823e-11,0,0.00027263,2.4034e-05,4.6152e+07,28.425,0,6.3974e+07,211.25,13677,1491.5,0,1491.5,0,0.00020892,3.2739e-08,0,0.0001135,3.9004e-05,5.6285e+07,7289.8,0,2.8901e+07,4921,1491.5,1
4990,1.32,12381,1,12381,1,6.3348e-05,-3.146e-09,0,0.00018773,-1.1489e-05,-1.8827e+06,-28.954,0,4.8697e+07,1632.7,12380,15000,1,15000,1,0.00043653,2.0055e-07,0,0.00043653,5.4383e-05,7.2687e+07,68623,0,1.1768e+08,33041,14999,12382,1,12382,1,5.9834e-05,-2.9195e-11,0,0.0001819,-1.0819e-05,1.4881e+07,-6.8778,0,4.6503e+07,5.91,12381,9753,1,9753,1,-0.00028934,-2.4516e-07,0,5.7817e-06,-8.1234e-05,-1.1768e+08,-37643,0,1.4006e+06,-5562.2,9752,11091,1,11091,1,-0.00012818,-3.0433e-10,0,8.6694e-05,-4.5918e-05,-5.2123e+07,-78.467,0,2.6084e+07,-6.6574,11090,13678,1,13678,1,0.00024785,2.9003e-10,0,0.00027471,2.4217e-05,4.6503e+07,74.567,0,6.4461e+07,213.35,13677,1491.5,0,1491.5,0,0.00021051,3.3272e-08,0,0.00011436,3.9301e-05,5.6713e+07,7351.8,0,2.9121e+07,4970.4,1491.5,1
4990,1.33,12381,1,12381,1,6.383e-05,-2.9144e-09,0,0.00018916,-1.1576e-05,-1.8971e+06,25.813,0,4.9068e+07,1636.8,12380,15000,1,15000,1,0.00043984,2.0279e-07,0,0.00043984,5.4797e-05,7.3238e+07,69390,0,1.1857e+08,33230,14999,12382,1,12382,1,6.029e-05,3.1509e-10,0,0.00018329,-1.0902e-05,1.4994e+07,73.839,0,4.6857e+07,-0.04041,12381,9753,1,9753,1,-0.00029155,-2.4553e-07,0,5.8255e-06,-8.1849e-05,-1.1857e+08,-37667,0,1.4113e+06,-5626.3,9752,11091,1,11091,1,-0.00012916,-3.0301e-10,0,8.7354e-05,-4.6267e-05,-5.2519e+07,-67.515,0,2.6283e+07,-9.8943,11090,13678,1,13678,1,0.00024974,8.0177e-10,0,0.0002768,2.4401e-05,4.6857e+07,163.39,0,6.4952e+07,214.19,13677,1491.5,0,1491.5,0,0.00021211,3.3333e-08,0,0.00011523,3.96e-05,5.7145e+07,7404.1,0,2.9343e+07,4999.4,1491.5,1
4990,1.34,12381,1,12381,1,6.4309e-05,-2.9657e-09,0,0.00019058,-1.1663e-05,-1.9113e+06,20.406,0,4.9436e+07,1654.7,12380,15000,1,15000,1,0.00044314,2.0391e-07,0,0.00044314,5.5208e-05,7.3788e+07,69773,0,1.1946e+08,33507,14999,12382,1,12382,1,6.0742e-05,2.1871e-10,0,0.00018466,-1.0983e-05,1.5106e+07,51.945,0,4.7209e+07,2.2568,12381,9753,1,9753,1,-0.00029373,-2.481e-07,0,5.8694e-06,-8.2464e-05,-1.1946e+08,-38076,0,1.4219e+06,-5668.9,9752,11091,1,11091,1,-0.00013013,-3.1267e-11,0,8.8009e-05,-4.6614e-05,-5.2913e+07,-8.2817,0,2.648e+07,-7.9942,11090,13678,1,13678,1,0.00025161,5.0212e-10,0,0.00027888,2.4584e-05,4.7208e+07,101.08,0,6.5439e+07,222.9,13677,1491.5,0,1491.5,0,0.0002137,3.3682e-08,0,0.00011609,3.9897e-05,5.7573e+07,7460.6,0,2.9563e+07,5040,1491.5,1
4990,1.35,12381,1,12381,1,6.479e-05,-3.0413e-09,0,0.000192,-1.175e-05,-1.9256e+06,8.4106,0,4.9805e+07,1658.2,12380,15000,1,15000,1,0.00044645,2.0607e-07,0,0.00044645,5.562e-05,7.434e+07,70513,0,1.2036e+08,33736,14999,12382,1,12382,1,6.1196e-05,2.672e-11,0,0.00018604,-1.1066e-05,1.5219e+07,6.6641,0,4.7562e+07,-0.12713,12381,9753,1,9753,1,-0.00029593,-2.4906e-07,0,5.9134e-06,-8.3078e-05,-1.2036e+08,-38215,0,1.4326e+06,-5686.1,9752,11091,1,11091,1,-0.0001311,-3.3015e-10,0,8.8667e-05,-4.6963e-05,-5.3309e+07,-74.395,0,2.6678e+07,-9.2722,11090,13678,1,13678,1,0.00025349,3.2389e-10,0,0.00028096,2.4768e-05,4.7562e+07,73.552,0,6.5929e+07,225.36,13677,1491.5,0,1491.5,0,0.0002153,3.3781e-08,0,0.00011696,4.0195e-05,5.8004e+07,7518.2,0,2.9784e+07,5066.3,1491.5,1
4990,1.36,12381,1,12381,1,6.5269e-05,-3.0241e-09,0,0.00019342,-1.1837e-05,-1.9398e+06,17.916,0,5.0174e+07,1676.7,12380,15000,1,15000,1,0.00044976,2.0713e-07,0,0.00044976,5.6032e-05,7.489e+07,70875,0,1.2125e+08,34031,14999,12382,1,12382,1,6.1649e-05,1.017e-10,0,0.00018742,-1.1147e-05,1.5332e+07,24.701,0,4.7913e+07,1.5478,12381,9753,1,9753,1,-0.00029812,-2.5134e-07,0,5.9572e-06,-8.3695e-05,-1.2125e+08,-38565,0,1.4432e+06,-5775.3,9752,11091,1,11091,1,-0.00013207,-9.7851e-12,0,8.9323e-05,-4.731e-05,-5.3703e+07,-2.9402,0,2.6875e+07,-4.7482,11090,13678,1,13678,1,0.00025537,2.5385e-10,0,0.00028304,2.4951e-05,4.7913e+07,56.915,0,6.6416e+07,218.14,13677,1491.5,0,1491.5,0,0.00021689,3.4115e-08,0,0.00011783,4.0493e-05,5.8433e+07,7567.2,0,3.0004e+07,5111.3,1491.5,1
4990,1.37,12381,1,12381,1,6.5749e-05,-3.0271e-09,0,0.00019485,-1.1924e-05,-1.9541e+06,22.161,0,5.0543e+07,1688.5,12380,15000,1,15000,1,0.00045306,2.0873e-07,0,0.00045306,5.6444e-05,7.544e+07,71423,0,1.2214e+08,34237,14999,12382,1,12382,1,6.2102e-05,1.1191e-10,0,0.0001888,-1.1229e-05,1.5445e+07,27.04,0,4.8265e+07,1.0361,12381,9753,1,9753,1,-0.00030031,-2.5306e-07,0,6.0009e-06,-8.431e-05,-1.2214e+08,-38820,0,1.4537e+06,-5821.4,9752,11091,1,11091,1,-0.00013304,3.0571e-12,0,8.9979e-05,-4.7658e-05,-5.4098e+07,0.81428,0,2.7073e+07,-4.622,11090,13678,1,13678,1,0.00025724,2.7247e-10,0,0.00028512,2.5135e-05,4.8265e+07,56.686,0,6.6904e+07,220.81,13677,1491.5,0,1491.5,0,0.00021849,3.4351e-08,0,0.00011869,4.079e-05,5.8863e+07,7623.2,0,3.0225e+07,5146.2,1491.5,1
4990,1.38,12381,1,12381,1,6.623e-05,-3.0951e-09,0,0.00019627,-1.2011e-05,-1.9684e+06,13.652,0,5.0912e+07,1679.2,12380,15000,1,15000,1,0.00045638,2.1086e-07,0,0.00045638,5.6857e-05,7.5992e+07,72152,0,1.2303e+08,34580,14999,12382,1,12382,1,6.2556e-05,-6.0197e-11,0,0.00019018,-1.1312e-05,1.5558e+07,-14.646,0,4.8619e+07,1.8443,12381,9753,1,9753,1,-0.0003025,-2.5485e-07,0,6.045e-06,-8.4942e-05,-1.2303e+08,-38979,0,1.4645e+06,-6231.8,9752,11091,1,11091,1,-0.00013401,-3.0877e-10,0,9.0638e-05,-4.8007e-05,-5.4494e+07,-62.963,0,2.7271e+07,-7.9306,11090,13678,1,13678,1,0.00025913,2.3848e-10,0,0.00028721,2.5319e-05,4.8618e+07,54.11,0,6.7394e+07,231.12,13677,1491.5,0,1491.5,0,0.00022009,3.4501e-08,0,0.00011956,4.1089e-05,5.9293e+07,7684.6,0,3.0446e+07,5155.4,1491.5,1
4990,1.39,12381,1,12381,1,6.6709e-05,-3.1685e-09,0,0.00019769,-1.2098e-05,-1.9826e+06,0.27924,0,5.128e+07,1714.1,12380,15000,1,15000,1,0.00045968,2.116e-07,0,0.00045968,5.7268e-05,7.6542e+07,72405,0,1.2392e+08,34755,14999,12382,1,12382,1,6.3009e-05,1.0011e-10,0,0.00019155,-1.1393e-05,1.567e+07,24.899,0,4.897e+07,-0.69815,12381,9753,1,9753,1,-0.00030469,-2.5708e-07,0,6.0887e-06,-8.5541e-05,-1.2392e+08,-39448,0,1.475e+06,-5964.2,9752,11091,1,11091,1,-0.00013498,-8.6103e-11,0,9.1293e-05,-4.8354e-05,-5.4888e+07,-21.657,0,2.7468e+07,-8.778,11090,13678,1,13678,1,0.000261,2.8071e-10,0,0.00028928,2.5502e-05,4.897e+07,55.759,0,6.7881e+07,222.88,13677,1491.5,0,1491.5,0,0.00022168,3.489e-08,0,0.00012043,4.1386e-05,5.9722e+07,7734,0,3.0666e+07,5223.2,1491.5,1
4990,1.4,12381,1,12381,1,6.7189e-05,-3.2189e-09,0,0.00019911,-1.2185e-05,-1.9968e+06,-5.2271,0,5.165e+07,1729.2,12380,15000,1,15000,1,0.00046299,2.1348e-07,0,0.00046299,5.768e-05,7.7092e+07,73050,0,1.2481e+08,35007,14999,12382,1,12382,1,6.3462e-05,-7.153e-11,0,0.00019293,-1.1475e-05,1.5783e+07,-17.695,0,4.9322e+07,-1.2711,12381,9753,1,9753,1,-0.00030688,-2.5825e-07,0,6.1327e-06,-8.6157e-05,-1.2481e+08,-39613,0,1.4857e+06,-5854,9752,11091,1,11091,1,-0.00013595,-3.6006e-10,0,9.1951e-05,-4.8702e-05,-5.5283e+07,-76.551,0,2.7666e+07,-8.0141,11090,13678,1,13678,1,0.00026288,1.8779e-10,0,0.00029137,2.5685e-05,4.9322e+07,41.912,0,6.837e+07,228.3,13677,1491.5,0,1491.5,0,0.00022327,3.5041e-08,0,0.00012129,4.1684e-05,6.0152e+07,7789.1,0,3.0887e+07,5265.8,1491.5,1
4990,1.41,12381,1,12381,1,6.767e-05,-3.0722e-09,0,0.00020054,-1.2272e-05,-2.0112e+06,33.462,0,5.2019e+07,1726.7,12380,15000,1,15000,1,0.0004663,2.1496e-07,0,0.0004663,5.8093e-05,7.7644e+07,73556,0,1.2571e+08,35251,14999,12382,1,12382,1,6.3916e-05,1.7796e-10,0,0.00019431,-1.1557e-05,1.5896e+07,44.097,0,4.9675e+07,3.6435,12381,9753,1,9753,1,-0.00030908,-2.6056e-07,0,6.1769e-06,-8.6779e-05,-1.2571e+08,-39973,0,1.4965e+06,-6929.9,9752,11091,1,11091,1,-0.00013693,-1.9977e-10,0,9.2609e-05,-4.905e-05,-5.5678e+07,-44.082,0,2.7864e+07,-5.0964,11090,13678,1,13678,1,0.00026476,5.9752e-10,0,0.00029345,2.5869e-05,4.9675e+07,132.21,0,6.8859e+07,239.8,13677,1491.5,0,1491.5,0,0.00022487,3.5404e-08,0,0.00012216,4.1982e-05,6.0582e+07,7857.4,0,3.1108e+07,5275.7,1491.5,1
4990,1.42,12381,1,12381,1,6.815e-05,-3.2603e-09,0,0.00020196,-1.2359e-05,-2.0255e+06,-4.5766,0,5.2388e+07,1749.9,12380,15000,1,15000,1,0.0004696,2.1675e-07,0,0.0004696,5.8505e-05,7.8194e+07,74169,0,1.266e+08,35445,14999,12382,1,12382,1,6.437e-05,-8.6936e-11,0,0.00019569,-1.1639e-05,1.6009e+07,-20.968,0,5.0027e+07,4.3627,12381,9753,1,9753,1,-0.00031127,-2.6147e-07,0,6.2201e-06,-8.7388e-05,-1.266e+08,-40102,0,1.5069e+06,-5984.8,9752,11091,1,11091,1,-0.0001379,-3.3587e-10,0,9.3265e-05,-4.9398e-05,-5.6073e+07,-72.234,0,2.8061e+07,-6.1246,11090,13678,1,13678,1,0.00026664,1.9492e-10,0,0.00029553,2.6052e-05,5.0027e+07,45.532,0,6.9347e+07,227.94,13677,1491.5,0,1491.5,0,0.00022647,3.5481e-08,0,0.00012303,4.228e-05,6.1012e+07,7898.3,0,3.1329e+07,5330.7,1491.5,1
4990,1.43,12381,1,12381,1,6.8628e-05,-3.2448e-09,0,0.00020338,-1.2446e-05,-2.0397e+06,4.2523,0,5.2756e+07,1765.7,12380,15000,1,15000,1,0.00047291,2.1755e-07,0,0.00047291,5.8916e-05,7.8744e+07,74441,0,1.2749e+08,35765,14999,12382,1,12382,1,6.4821e-05,1.3079e-10,0,0.00019706,-1.1721e-05,1.6121e+07,33.19,0,5.0378e+07,0.76711,12381,9753,1,9753,1,-0.00031346,-2.649e-07,0,6.2639e-06,-8.8003e-05,-1.2749e+08,-40658,0,1.5175e+06,-6045.2,9752,11091,1,11091,1,-0.00013887,-2.9211e-11,0,9.392e-05,-4.9745e-05,-5.6467e+07,-8.4004,0,2.8258e+07,-5.6424,11090,13678,1,13678,1,0.00026851,3.0838e-10,0,0.00029761,2.6235e-05,5.0378e+07,61.049,0,6.9834e+07,232.08,13677,1491.5,0,1491.5,0,0.00022806,3.5957e-08,0,0.00012389,4.2577e-05,6.144e+07,7961.8,0,3.1548e+07,5379.9,1491.5,1
4990,1.44,12381,1,12381,1,6.9109e-05,-3.2936e-09,0,0.0002048,-1.2533e-05,-2.0539e+06,-1.5142,0,5.3125e+07,1771.9,12380,15000,1,15000,1,0.00047621,2.1928e-07,0,0.00047621,5.9327e-05,7.9295e+07,75035,0,1.2838e+08,35974,14999,12382,1,12382,1,6.5275e-05,9.3513e-12,0,0.00019844,-1.1803e-05,1.6234e+07,2.1628,0,5.0731e+07,0.16925,12381,9753,1,9753,1,-0.00031565,-2.6613e-07,0,6.3079e-06,-8.8618e-05,-1.2838e+08,-40832,0,1.5282e+06,-6115.2,9752,11091,1,11091,1,-0.00013984,-8.9931e-11,0,9.4577e-05,-5.0093e-05,-5.6862e+07,-19.728,0,2.8456e+07,-10.637,11090,13678,1,13678,1,0.00027039,1.8056e-10,0,0.00029969,2.6419e-05,5.0731e+07,38.77,0,7.0323e+07,225.82,13677,1491.5,0,1491.5,0,0.00022965,3.6112e-08,0,0.00012476,4.2874e-05,6.187e+07,8012.9,0,3.1769e+07,5414.6,1491.5,1
4990,1.45,12381,1,12381,1,6.9588e-05,-3.4516e-09,0,0.00020622,-1.262e-05,-2.0681e+06,-30.722,0,5.3493e+07,1791.3,12380,15000,1,15000,1,0.00047952,2.2051e-07,0,0.00047952,5.9739e-05,7.9846e+07,75455,0,1.2927e+08,36267,14999,12382,1,12382,1,6.5727e-05,-4.5911e-11,0,0.00019982,-1.1885e-05,1.6346e+07,-10.257,0,5.1082e+07,3.8074,12381,9753,1,9753,1,-0.00031784,-2.6882e-07,0,6.3517e-06,-8.9234e-05,-1.2927e+08,-41265,0,1.5388e+06,-6133.2,9752,11091,1,11091,1,-0.00014081,-2.8345e-10,0,9.5232e-05,-5.044e-05,-5.7256e+07,-71.995,0,2.8653e+07,-5.2766,11090,13678,1,13678,1,0.00027226,1.8042e-10,0,0.00030177,2.6602e-05,5.1082e+07,42.774,0,7.081e+07,235.49,13677,1491.5,0,1491.5,0,0.00023124,3.6487e-08,0,0.00012562,4.3172e-05,6.2299e+07,8074.3,0,3.1989e+07,5455.9,1491.5,1
4990,1.46,12381,1,12381,1,7.007e-05,-3.1738e-09,0,0.00020765,-1.2708e-05,-2.0825e+06,34.448,0,5.3864e+07,1794.8,12380,15000,1,15000,1,0.00048282,2.2315e-07,0,0.00048282,6.0154e-05,8.0395e+07,76359,0,1.3017e+08,36480,14999,12382,1,12382,1,6.6184e-05,-6.6467e-11,0,0.0002012,-1.1968e-05,1.646e+07,-18.528,0,5.1437e+07,-1.7896,12381,9753,1,9753,1,-0.00032005,-2.6811e-07,0,6.3951e-06,-8.9848e-05,-1.3017e+08,-41096,0,1.5493e+06,-6182.4,9752,11091,1,11091,1,-0.00014178,-1.3809e-09,0,9.5895e-05,-5.079e-05,-5.7652e+07,-281.18,0,2.8852e+07,-20.713,11090,13678,1,13678,1,0.00027415,1.0788e-09,0,0.00030386,2.6786e-05,5.1436e+07,239.99,0,7.1301e+07,221.29,13677,1491.5,0,1491.5,0,0.00023285,3.6388e-08,0,0.00012649,4.3471e-05,6.2731e+07,8126.6,0,3.2211e+07,5493.8,1491.5,1
4990,1.47,12381,1,12381,1,7.0548e-05,-3.4919e-09,0,0.00020907,-1.2794e-05,-2.0967e+06,-29.741,0,5.4231e+07,1816.1,12380,15000,1,15000,1,0.00048614,2.2367e-07,0,0.00048614,6.0563e-05,8.0947e+07,76535,0,1.3105e+08,36738,14999,12382,1,12382,1,6.6635e-05,-6.2474e-11,0,0.00020257,-1.2049e-05,1.6572e+07,-15.73,0,5.1787e+07,0.24271,12381,9753,1,9753,1,-0.00032222,-2.7224e-07,0,6.4393e-06,-9.0465e-05,-1.3105e+08,-41783,0,1.56e+06,-6223.3,9752,11091,1,11091,1,-0.00014275,-1.3516e-10,0,9.6547e-05,-5.1136e-05,-5.8046e+07,-29.256,0,2.9048e+07,-3.6476,11090,13678,1,13678,1,0.00027602,1.9134e-12,0,0.00030593,2.6969e-05,5.1787e+07,0.60459,0,7.1787e+07,242.5,13677,1491.5,0,1491.5,0,0.00023443,3.6946e-08,0,0.00012736,4.3767e-05,6.3158e+07,8183.2,0,3.2431e+07,5527.1,1491.5,1
4990,1.48,12381,1,12381,1,7.1028e-05,-3.4203e-09,0,0.00021049,-1.2881e-05,-2.111e+06,-8.7615,0,5.46e+07,1826.2,12380,15000,1,15000,1,0.00048944,2.2556e-07,0,0.00048944,6.0975e-05,8.1498e+07,77182,0,1.3194e+08,36999,14999,12382,1,12382,1,6.7088e-05,-4.2467e-11,0,0.00020395,-1.2131e-05,1.6685e+07,-9.6518,0,5.2139e+07,0.17318,12381,9753,1,9753,1,-0.00032442,-2.734e-07,0,6.4832e-06,-9.108e-05,-1.3194e+08,-41948,0,1.5706e+06,-6265.7,9752,11091,1,11091,1,-0.00014372,-1.4381e-10,0,9.7204e-05,-5.1484e-05,-5.8441e+07,-29.082,0,2.9246e+07,-5.9061,11090,13678,1,13678,1,0.0002779,4.2663e-11,0,0.00030801,2.7153e-05,5.2139e+07,11.964,0,7.2276e+07,241.32,13677,1491.5,0,1491.5,0,0.00023603,3.7114e-08,0,0.00012822,4.4065e-05,6.3588e+07,8239.2,0,3.2652e+07,5566.7,1491.5,1
4990,1.49,12381,1,12381,1,7.1509e-05,-3.3911e-09,0,0.00021191,-1.2969e-05,-2.1253e+06,1.263,0,5.497e+07,1836.3,12380,15000,1,15000,1,0.00049275,2.2685e-07,0,0.00049275,6.1388e-05,8.2048e+07,77625,0,1.3284e+08,37248,14999,12382,1,12382,1,6.7542e-05,1.4882e-10,0,0.00020533,-1.2213e-05,1.6798e+07,36.489,0,5.2492e+07,0.6345,12381,9753,1,9753,1,-0.00032661,-2.7552e-07,0,6.527e-06,-9.1695e-05,-1.3284e+08,-42275,0,1.5813e+06,-6309.1,9752,11091,1,11091,1,-0.00014469,-1.3285e-10,0,9.7862e-05,-5.1833e-05,-5.8836e+07,-33.604,0,2.9444e+07,-8.5915,11090,13678,1,13678,1,0.00027978,4.0344e-10,0,0.0003101,2.7336e-05,5.2492e+07,80.783,0,7.2765e+07,238.53,13677,1491.5,0,1491.5,0,0.00023763,3.7387e-08,0,0.00012909,4.4363e-05,6.4018e+07,8292.2,0,3.2872e+07,5603.9,1491.5,1
4990,1.5,12381,1,12381,1,7.1987e-05,-3.5072e-09,0,0.00021333,-1.3055e-05,-2.1395e+06,-18.178,0,5.5338e+07,1855.8,12380,15000,1,15000,1,0.00049606,2.2804e-07,0,0.00049606,6.1799e-05,8.2599e+07,78030,0,1.3372e+08,37519,14999,12382,1,12382,1,6.7994e-05,7.635e-11,0,0.00020671,-1.2295e-05,1.691e+07,17.874,0,5.2843e+07,0.59955,12381,9753,1,9753,1,-0.0003288,-2.7824e-07,0,6.5707e-06,-9.2311e-05,-1.3372e+08,-42715,0,1.5918e+06,-6338.3,9752,11091,1,11091,1,-0.00014566,-6.613e-11,0,9.8517e-05,-5.218e-05,-5.9231e+07,-15.664,0,2.9641e+07,-3.4947,11090,13678,1,13678,1,0.00028165,2.1672e-10,0,0.00031217,2.7519e-05,5.2843e+07,43.399,0,7.3252e+07,248.42,13677,1491.5,0,1491.5,0,0.00023922,3.7768e-08,0,0.00012996,4.466e-05,6.4447e+07,8353,0,3.3093e+07,5643.5,1491.5,1
4990,1.51,12381,1,12381,1,7.2468e-05,-3.5271e-09,0,0.00021476,-1.3143e-05,-2.1538e+06,-17.395,0,5.5707e+07,1863.5,12380,15000,1,15000,1,0.00049936,2.2992e-07,0,0.00049936,6.2211e-05,8.315e+07,78674,0,1.3462e+08,37758,14999,12382,1,12382,1,6.8448e-05,-2.2906e-11,0,0.00020809,-1.2377e-05,1.7023e+07,-5.4033,0,5.3196e+07,4.5823,12381,9753,1,9753,1,-0.00033099,-2.7931e-07,0,6.6146e-06,-9.2927e-05,-1.3462e+08,-42862,0,1.6025e+06,-6390.7,9752,11091,1,11091,1,-0.00014663,-2.6047e-10,0,9.9174e-05,-5.2528e-05,-5.9626e+07,-58.107,0,2.9839e+07,-6.575,11090,13678,1,13678,1,0.00028353,1.9131e-10,0,0.00031426,2.7703e-05,5.3196e+07,45.421,0,7.3741e+07,239.7,13677,1491.5,0,1491.5,0,0.00024081,3.7912e-08,0,0.00013082,4.4958e-05,6.4877e+07,8405.8,0,3.3313e+07,5680.4,1491.5,1
4990,1.52,12381,1,12381,1,7.2948e-05,-3.5015e-09,0,0.00021618,-1.323e-05,-2.168e+06,-7.1353,0,5.6076e+07,1874.1,12380,15000,1,15000,1,0.00050267,2.3154e-07,0,0.00050267,6.2623e-05,8.37e+07,79229,0,1.3551e+08,38030,14999,12382,1,12382,1,6.8902e-05,3.7844e-11,0,0.00020946,-1.2459e-05,1.7136e+07,8.4039,0,5.3548e+07,0.48454,12381,9753,1,9753,1,-0.00033319,-2.8105e-07,0,6.6585e-06,-9.3541e-05,-1.3551e+08,-43127,0,1.6131e+06,-6419.6,9752,11091,1,11091,1,-0.00014761,-1.2188e-10,0,9.9831e-05,-5.2876e-05,-6.0021e+07,-32.033,0,3.0036e+07,-10.696,11090,13678,1,13678,1,0.00028541,1.9765e-10,0,0.00031634,2.7886e-05,5.3548e+07,40.958,0,7.4229e+07,241.93,13677,1491.5,0,1491.5,0,0.00024241,3.8144e-08,0,0.00013169,4.5256e-05,6.5307e+07,8463.4,0,3.3534e+07,5721.3,1491.5,1
4990,1.53,12381,1,12381,1,7.343e-05,-3.2616e-09,0,0.00021761,-1.3317e-05,-2.1824e+06,48.445,0,5.6447e+07,1880.8,12380,15000,1,15000,1,0.00050596,2.3397e-07,0,0.00050596,6.3039e-05,8.4249e+07,80062,0,1.3641e+08,38186,14999,12382,1,12382,1,6.9358e-05,2.038e-10,0,0.00021085,-1.2542e-05,1.7249e+07,48.522,0,5.3903e+07,-7.3169,12381,9753,1,9753,1,-0.0003354,-2.8085e-07,0,6.7021e-06,-9.4155e-05,-1.3641e+08,-43052,0,1.6236e+06,-6480.4,9752,11091,1,11091,1,-0.00014858,-1.5057e-09,0,0.00010049,-5.3225e-05,-6.0416e+07,-326.32,0,3.0236e+07,-28.204,11090,13678,1,13678,1,0.00028729,1.7057e-09,0,0.00031843,2.8071e-05,5.3902e+07,385.81,0,7.472e+07,252.85,13677,1491.5,0,1491.5,0,0.00024401,3.8148e-08,0,0.00013256,4.5555e-05,6.5738e+07,8524.1,0,3.3756e+07,5754.1,1491.5,1
4990,1.54,12381,1,12381,1,7.3908e-05,-3.6593e-09,0,0.00021902,-1.3404e-05,-2.1966e+06,-31.642,0,5.6814e+07,1900,12380,15000,1,15000,1,0.00050929,2.3465e-07,0,0.00050929,6.3447e-05,8.4802e+07,80294,0,1.3729e+08,38505,14999,12382,1,12382,1,6.9808e-05,-9.9424e-11,0,0.00021222,-1.2623e-05,1.7361e+07,-25.312,0,5.4253e+07,1.2078,12381,9753,1,9753,1,-0.00033757,-2.8459e-07,0,6.7462e-06,-9.4773e-05,-1.3729e+08,-43666,0,1.6344e+06,-6516.8,9752,11091,1,11091,1,-0.00014955,-2.6757e-10,0,0.00010115,-5.3572e-05,-6.081e+07,-54.961,0,3.0432e+07,-7.1513,11090,13678,1,13678,1,0.00028916,-1.2839e-11,0,0.0003205,2.8253e-05,5.4253e+07,-3.2201,0,7.5206e+07,250.87,13677,1491.5,0,1491.5,0,0.0002456,3.8621e-08,0,0.00013342,4.5852e-05,6.6166e+07,8573.1,0,3.3975e+07,5793,1491.5,1
4990,1.55,12381,1,12381,1,7.4388e-05,-3.5652e-09,0,0.00022044,-1.3491e-05,-2.2108e+06,-5.6395,0,5.7183e+07,1910.3,12380,15000,1,15000,1,0.00051259,2.3596e-07,0,0.00051259,6.3859e-05,8.5352e+07,80743,0,1.3818e+08,38753,14999,12382,1,12382,1,7.0262e-05,-8.336e-12,0,0.0002136,-1.2705e-05,1.7474e+07,-1.9658,0,5.4605e+07,-0.35981,12381,9753,1,9753,1,-0.00033976,-2.867e-07,0,6.7901e-06,-9.5388e-05,-1.3818e+08,-43992,0,1.645e+06,-6562.6,9752,11091,1,11091,1,-0.00015052,-2.062e-10,0,0.0001018,-5.3919e-05,-6.1205e+07,-43.247,0,3.0629e+07,-8.5288,11090,13678,1,13678,1,0.00029104,1.746e-10,0,0.00032258,2.8437e-05,5.4605e+07,40.679,0,7.5694e+07,245.11,13677,1491.5,0,1491.5,0,0.00024719,3.89e-08,0,0.00013429,4.6149e-05,6.6596e+07,8626.5,0,3.4196e+07,5831.3,1491.5,1
4990,1.56,12381,1,12381,1,7.4868e-05,-3.5568e-09,0,0.00022187,-1.3578e-05,-2.2251e+06,0.53376,0,5.7552e+07,1923,12380,15000,1,15000,1,0.0005159,2.3789e-07,0,0.0005159,6.4271e-05,8.5903e+07,81401,0,1.3908e+08,38998,14999,12382,1,12382,1,7.0715e-05,-2.0864e-12,0,0.00021498,-1.2787e-05,1.7587e+07,-0.42099,0,5.4957e+07,0.83253,12381,9753,1,9753,1,-0.00034195,-2.8779e-07,0,6.834e-06,-9.6003e-05,-1.3908e+08,-44147,0,1.6557e+06,-6607.8,9752,11091,1,11091,1,-0.00015149,-1.8079e-10,0,0.00010246,-5.4268e-05,-6.16e+07,-41.025,0,3.0827e+07,-6.8666,11090,13678,1,13678,1,0.00029292,1.1178e-10,0,0.00032467,2.862e-05,5.4957e+07,25.871,0,7.6183e+07,248.16,13677,1491.5,0,1491.5,0,0.00024879,3.9063e-08,0,0.00013516,4.6447e-05,6.7026e+07,8682.8,0,3.4417e+07,5866.4,1491.5,1
4990,1.57,12381,1,12381,1,7.5348e-05,-3.6365e-09,0,0.00022329,-1.3665e-05,-2.2394e+06,-12.481,0,5.7921e+07,1937.6,12380,15000,1,15000,1,0.0005192,2.3911e-07,0,0.0005192,6.4683e-05,8.6453e+07,81819,0,1.3997e+08,39267,14999,12382,1,12382,1,7.1168e-05,4.4448e-11,0,0.00021636,-1.2869e-05,1.7699e+07,10.967,0,5.5309e+07,1.6556,12381,9753,1,9753,1,-0.00034415,-2.9027e-07,0,6.8778e-06,-9.6618e-05,-1.3997e+08,-44541,0,1.6663e+06,-6638.9,9752,11091,1,11091,1,-0.00015246,-2.1106e-10,0,0.00010312,-5.4616e-05,-6.1995e+07,-48.983,0,3.1024e+07,-7.5316,11090,13678,1,13678,1,0.0002948,1.8542e-10,0,0.00032674,2.8804e-05,5.5309e+07,38.42,0,7.6671e+07,253.73,13677,1491.5,0,1491.5,0,0.00025038,3.9387e-08,0,0.00013602,4.6745e-05,6.7455e+07,8739.5,0,3.4637e+07,5907.7,1491.5,1
4990,1.58,12381,1,12381,1,7.5827e-05,-3.7058e-09,0,0.00022471,-1.3752e-05,-2.2536e+06,-21.231,0,5.8289e+07,1954.1,12380,15000,1,15000,1,0.00052251,2.4043e-07,0,0.00052251,6.5095e-05,8.7004e+07,82270,0,1.4086e+08,39520,14999,12382,1,12382,1,7.1621e-05,-4.8522e-11,0,0.00021773,-1.2951e-05,1.7812e+07,-11.519,0,5.5661e+07,0.55837,12381,9753,1,9753,1,-0.00034633,-2.9257e-07,0,6.9216e-06,-9.7234e-05,-1.4086e+08,-44904,0,1.6769e+06,-6681,9752,11091,1,11091,1,-0.00015343,-1.4198e-10,0,0.00010377,-5.4963e-05,-6.2389e+07,-29.486,0,3.1222e+07,-2.2344,11090,13678,1,13678,1,0.00029667,4.1099e-11,0,0.00032882,2.8987e-05,5.5661e+07,9.9008,0,7.7159e+07,261.4,13677,1491.5,0,1491.5,0,0.00025198,3.9718e-08,0,0.00013689,4.7042e-05,6.7884e+07,8796.4,0,3.4857e+07,5944.5,1491.5,1
4990,1.59,12381,1,12381,1,7.6308e-05,-3.6736e-09,0,0.00022613,-1.3839e-05,-2.2679e+06,-9.9608,0,5.8658e+07,1964.3,12380,15000,1,15000,1,0.00052582,2.4186e-07,0,0.00052582,6.5507e-05,8.7555e+07,82760,0,1.4175e+08,39760,14999,12382,1,12382,1,7.2075e-05,9.2217e-11,0,0.00021911,-1.3033e-05,1.7925e+07,22.288,0,5.6014e+07,0.9003,12381,9753,1,9753,1,-0.00034853,-2.9456e-07,0,6.9654e-06,-9.785e-05,-1.4175e+08,-45211,0,1.6875e+06,-6725.6,9752,11091,1,11091,1,-0.0001544,-1.0101e-10,0,0.00010443,-5.5311e-05,-6.2784e+07,-26.018,0,3.1419e+07,-7.3812,11090,13678,1,13678,1,0.00029855,2.7071e-10,0,0.00033091,2.9171e-05,5.6013e+07,53.962,0,7.7648e+07,260.94,13677,1491.5,0,1491.5,0,0.00025357,3.9976e-08,0,0.00013775,4.734e-05,6.8314e+07,8852.1,0,3.5078e+07,5981.5,1491.5,1
4990,1.6,12381,1,12381,1,7.6788e-05,-3.7526e-09,0,0.00022756,-1.3926e-05,-2.2821e+06,-21.867,0,5.9027e+07,1974,12380,15000,1,15000,1,0.00052913,2.4361e-07,0,0.00052913,6.5919e-05,8.8106e+07,83358,0,1.4264e+08,40012,14999,12382,1,12382,1,7.2528e-05,-4.048e-11,0,0.00022049,-1.3115e-05,1.8038e+07,-10.121,0,5.6366e+07,1.141,12381,9753,1,9753,1,-0.00035072,-2.9598e-07,0,7.0094e-06,-9.8465e-05,-1.4264e+08,-45421,0,1.6982e+06,-6774.2,9752,11091,1,11091,1,-0.00015537,-2.2251e-10,0,0.00010509,-5.5659e-05,-6.3179e+07,-45.977,0,3.1617e+07,-7.1645,11090,13678,1,13678,1,0.00030043,9.8606e-11,0,0.00033299,2.9354e-05,5.6366e+07,22.616,0,7.8136e+07,258.56,13677,1491.5,0,1491.5,0,0.00025517,4.0169e-08,0,0.00013862,4.7638e-05,6.8744e+07,8907,0,3.5299e+07,6019.8,1491.5,1
4990,1.61,12381,1,12381,1,7.7268e-05,-3.6887e-09,0,0.00022898,-1.4013e-05,-2.2964e+06,-3.0669,0,5.9396e+07,1987.7,12380,15000,1,15000,1,0.00053243,2.4506e-07,0,0.00053243,6.6331e-05,8.8656e+07,83854,0,1.4353e+08,40255,14999,12382,1,12382,1,7.2981e-05,8.3029e-11,0,0.00022187,-1.3197e-05,1.815e+07,19.391,0,5.6718e+07,1.1134,12381,9753,1,9753,1,-0.00035291,-2.9797e-07,0,7.0531e-06,-9.908e-05,-1.4353e+08,-45730,0,1.7088e+06,-6816.4,9752,11091,1,11091,1,-0.00015634,-5.7912e-11,0,0.00010574,-5.6007e-05,-6.3574e+07,-15.814,0,3.1815e+07,-7.9867,11090,13678,1,13678,1,0.00030231,2.5475e-10,0,0.00033507,2.9538e-05,5.6718e+07,52.001,0,7.8624e+07,261.43,13677,1491.5,0,1491.5,0,0.00025676,4.0446e-08,0,0.00013949,4.7936e-05,6.9173e+07,8963.3,0,3.552e+07,6056.8,1491.5,1
4990,1.62,12381,1,12381,1,7.7747e-05,-3.7629e-09,0,0.0002304,-1.41e-05,-2.3107e+06,-13.643,0,5.9765e+07,2002,12380,15000,1,15000,1,0.00053574,2.4667e-07,0,0.00053574,6.6743e-05,8.9207e+07,84406,0,1.4442e+08,40522,14999,12382,1,12382,1,7.3435e-05,-3.1994e-11,0,0.00022324,-1.3279e-05,1.8263e+07,-7.7917,0,5.707e+07,0.52892,12381,9753,1,9753,1,-0.0003551,-2.997e-07,0,7.097e-06,-9.9696e-05,-1.4442e+08,-45992,0,1.7194e+06,-6853.1,9752,11091,1,11091,1,-0.00015732,-1.2045e-10,0,0.0001064,-5.6355e-05,-6.3969e+07,-24.883,0,3.2012e+07,-3.5766,11090,13678,1,13678,1,0.00030418,6.7492e-11,0,0.00033715,2.9721e-05,5.707e+07,16.657,0,7.9113e+07,263.81,13677,1491.5,0,1491.5,0,0.00025836,4.0681e-08,0,0.00014035,4.8234e-05,6.9603e+07,9019.9,0,3.574e+07,6095.2,1491.5,1
4990,1.63,12381,1,12381,1,7.8228e-05,-3.7221e-09,0,0.00023182,-1.4187e-05,-2.3249e+06,-1.2958,0,6.0134e+07,2010.8,12380,15000,1,15000,1,0.00053905,2.4807e-07,0,0.00053905,6.7156e-05,8.9757e+07,84884,0,1.4532e+08,40770,14999,12382,1,12382,1,7.3888e-05,1.8461e-10,0,0.00022462,-1.3361e-05,1.8376e+07,45.391,0,5.7423e+07,2.9834,12381,9753,1,9753,1,-0.0003573,-3.0179e-07,0,7.1408e-06,-0.00010031,-1.4532e+08,-46318,0,1.73e+06,-6885.3,9752,11091,1,11091,1,-0.00015829,-1.133e-10,0,0.00010706,-5.6702e-05,-6.4364e+07,-30.485,0,3.221e+07,-10.044,11090,13678,1,13678,1,0.00030606,5.2828e-10,0,0.00033923,2.9904e-05,5.7422e+07,107.15,0,7.9601e+07,261.19,13677,1491.5,0,1491.5,0,0.00025995,4.0959e-08,0,0.00014122,4.8531e-05,7.0033e+07,9075.8,0,3.5961e+07,6132.6,1491.5,1
4990,1.64,12381,1,12381,1,7.8707e-05,-3.7981e-09,0,0.00023324,-1.4274e-05,-2.3392e+06,-11.223,0,6.0502e+07,2029.8,12380,15000,1,15000,1,0.00054236,2.4932e-07,0,0.00054236,6.7566e-05,9.0308e+07,85313,0,1.4621e+08,41027,14999,12382,1,12382,1,7.4341e-05,9.1516e-11,0,0.000226,-1.3442e-05,1.8488e+07,22.045,0,5.7774e+07,0.33916,12381,9753,1,9753,1,-0.00035949,-3.0424e-07,0,7.1846e-06,-0.00010093,-1.4621e+08,-46708,0,1.7406e+06,-6928.8,9752,11091,1,11091,1,-0.00015926,-7.4626e-12,0,0.00010771,-5.705e-05,-6.4758e+07,-2.2548,0,3.2407e+07,-2.4474,11090,13678,1,13678,1,0.00030794,1.6877e-10,0,0.00034131,3.0088e-05,5.7774e+07,34.991,0,8.0089e+07,272.44,13677,1491.5,0,1491.5,0,0.00026154,4.1303e-08,0,0.00014208,4.8829e-05,7.0462e+07,9133.4,0,3.6181e+07,6171,1491.5,1
4990,1.65,12381,1,12381,1,7.9187e-05,-3.8643e-09,0,0.00023467,-1.4361e-05,-2.3534e+06,-21.192,0,6.0871e+07,2040.3,12380,15000,1,15000,1,0.00054566,2.5115e-07,0,0.00054566,6.7979e-05,9.0859e+07,85939,0,1.471e+08,41257,14999,12382,1,12382,1,7.4794e-05,-6.9599e-12,0,0.00022738,-1.3524e-05,1.8601e+07,-1.6245,0,5.8126e+07,4.5159,12381,9753,1,9753,1,-0.00036168,-3.0545e-07,0,7.2287e-06,-0.00010154,-1.471e+08,-46879,0,1.7513e+06,-6967.5,9752,11091,1,11091,1,-0.00016023,-1.4459e-10,0,0.00010837,-5.7398e-05,-6.5154e+07,-34.309,0,3.2605e+07,-3.2916,11090,13678,1,13678,1,0.00030982,1.2324e-10,0,0.00034339,3.0271e-05,5.8126e+07,27.469,0,8.0577e+07,270.81,13677,1491.5,0,1491.5,0,0.00026314,4.1462e-08,0,0.00014295,4.9127e-05,7.0892e+07,9187.3,0,3.6402e+07,6206.1,1491.5,1
4990,1.66,12381,1,12381,1,7.9667e-05,-3.9324e-09,0,0.00023609,-1.4448e-05,-2.3677e+06,-30.638,0,6.124e+07,2052,12380,15000,1,15000,1,0.00054897,2.5256e-07,0,0.00054897,6.8391e-05,9.141e+07,86421,0,1.4799e+08,41516,14999,12382,1,12382,1,7.5248e-05,-1.212e-10,0,0.00022876,-1.3606e-05,1.8714e+07,-29.138,0,5.8479e+07,-0.56859,12381,9753,1,9753,1,-0.00036387,-3.0741e-07,0,7.2724e-06,-0.00010216,-1.4799e+08,-47181,0,1.7619e+06,-7021.7,9752,11091,1,11091,1,-0.0001612,-3.3002e-10,0,0.00010903,-5.7746e-05,-6.5548e+07,-65.302,0,3.2803e+07,-5.07,11090,13678,1,13678,1,0.00031169,4.881e-11,0,0.00034547,3.0455e-05,5.8478e+07,14.13,0,8.1066e+07,274.56,13677,1491.5,0,1491.5,0,0.00026473,4.1714e-08,0,0.00014382,4.9424e-05,7.1321e+07,9240.7,0,3.6622e+07,6245.3,1491.5,1
4990,1.67,12381,1,12381,1,8.0147e-05,-3.8757e-09,0,0.00023751,-1.4535e-05,-2.382e+06,-13.668,0,6.1609e+07,2062,12380,15000,1,15000,1,0.00055228,2.5426e-07,0,0.00055228,6.8803e-05,9.196e+07,87005,0,1.4888e+08,41757,14999,12382,1,12382,1,7.5701e-05,-1.9536e-11,0,0.00023013,-1.3688e-05,1.8827e+07,-4.7756,0,5.8831e+07,1.9922,12381,9753,1,9753,1,-0.00036606,-3.0893e-07,0,7.3163e-06,-0.00010277,-1.4888e+08,-47408,0,1.7726e+06,-7065.3,9752,11091,1,11091,1,-0.00016217,-1.8533e-10,0,0.00010968,-5.8094e-05,-6.5943e+07,-38.49,0,3.3e+07,-7.5588,11090,13678,1,13678,1,0.00031357,1.2558e-10,0,0.00034756,3.0638e-05,5.8831e+07,28.235,0,8.1554e+07,270.99,13677,1491.5,0,1491.5,0,0.00026633,4.1926e-08,0,0.00014468,4.9722e-05,7.1751e+07,9296.8,0,3.6843e+07,6283.7,1491.5,1
4990,1.68,12381,1,12381,1,8.0627e-05,-3.9475e-09,0,0.00023893,-1.4622e-05,-2.3962e+06,-24.761,0,6.1978e+07,2073.7,12380,15000,1,15000,1,0.00055558,2.5594e-07,0,0.00055558,6.9215e-05,9.2511e+07,87577,0,1.4977e+08,42006,14999,12382,1,12382,1,7.6155e-05,-8.2829e-11,0,0.00023151,-1.377e-05,1.894e+07,-20.362,0,5.9183e+07,0.89799,12381,9753,1,9753,1,-0.00036826,-3.1051e-07,0,7.3602e-06,-0.00010339,-1.4977e+08,-47645,0,1.7832e+06,-7110.1,9752,11091,1,11091,1,-0.00016314,-2.2716e-10,0,0.00011034,-5.8442e-05,-6.6338e+07,-51.061,0,3.3198e+07,-7.4409,11090,13678,1,13678,1,0.00031545,2.3165e-11,0,0.00034964,3.0822e-05,5.9183e+07,5.8477,0,8.2043e+07,273.02,13677,1491.5,0,1491.5,0,0.00026792,4.2141e-08,0,0.00014555,5.002e-05,7.2181e+07,9352.4,0,3.7064e+07,6320.2,1491.5,1
4990,1.69,12381,1,12381,1,8.1107e-05,-3.8611e-09,0,0.00024036,-1.4709e-05,-2.4105e+06,-1.5329,0,6.2347e+07,2087.9,12380,15000,1,15000,1,0.00055889,2.5693e-07,0,0.00055889,6.9627e-05,9.3061e+07,87917,0,1.5066e+08,42273,14999,12382,1,12382,1,7.6608e-05,1.5691e-10,0,0.00023289,-1.3852e-05,1.9052e+07,38.791,0,5.9535e+07,2.2498,12381,9753,1,9753,1,-0.00037045,-3.1329e-07,0,7.404e-06,-0.000104,-1.5066e+08,-48091,0,1.7938e+06,-7149.5,9752,11091,1,11091,1,-0.00016411,-6.7605e-11,0,0.000111,-5.879e-05,-6.6733e+07,-18.575,0,3.3396e+07,-9.5325,11090,13678,1,13678,1,0.00031733,4.248e-10,0,0.00035172,3.1005e-05,5.9535e+07,86.39,0,8.2531e+07,274.58,13677,1491.5,0,1491.5,0,0.00026952,4.2515e-08,0,0.00014642,5.0318e-05,7.261e+07,9407.9,0,3.7284e+07,6360.2,1491.5,1
4990,1.7,12381,1,12381,1,8.1587e-05,-3.9768e-09,0,0.00024178,-1.4796e-05,-2.4248e+06,-21.079,0,6.2716e+07,2103,12380,15000,1,15000,1,0.0005622,2.5844e-07,0,0.0005622,7.0039e-05,9.3612e+07,88433,0,1.5155e+08,42529,14999,12382,1,12382,1,7.7061e-05,8.0511e-11,0,0.00023427,-1.3934e-05,1.9165e+07,19.228,0,5.9887e+07,0.64357,12381,9753,1,9753,1,-0.00037264,-3.1534e-07,0,7.4478e-06,-0.00010462,-1.5155e+08,-48412,0,1.8044e+06,-7180.8,9752,11091,1,11091,1,-0.00016508,-8.5717e-11,0,0.00011165,-5.9137e-05,-6.7128e+07,-20.602,0,3.3593e+07,-4.8924,11090,13678,1,13678,1,0.0003192,2.2999e-10,0,0.0003538,3.1188e-05,5.9887e+07,47.224,0,8.3019e+07,279.82,13677,1491.5,0,1491.5,0,0.00027111,4.2803e-08,0,0.00014728,5.0615e-05,7.304e+07,9466.9,0,3.7505e+07,6397.3,1491.5,1
4990,1.71,12381,1,12381,1,8.2067e-05,-3.8826e-09,0,0.0002432,-1.4883e-05,-2.439e+06,4.7399,0,6.3085e+07,2111.9,12380,15000,1,15000,1,0.0005655,2.602e-07,0,0.0005655,7.0451e-05,9.4163e+07,89034,0,1.5245e+08,42758,14999,12382,1,12382,1,7.7515e-05,1.2477e-10,0,0.00023565,-1.4016e-05,1.9278e+07,32.07,0,6.0239e+07,0.13201,12381,9753,1,9753,1,-0.00037483,-3.1665e-07,0,7.4918e-06,-0.00010523,-1.5245e+08,-48600,0,1.8151e+06,-7238,9752,11091,1,11091,1,-0.00016605,-3.3945e-11,0,0.00011231,-5.9485e-05,-6.7523e+07,-9.0506,0,3.3791e+07,-8.0535,11090,13678,1,13678,1,0.00032108,2.8917e-10,0,0.00035588,3.1372e-05,6.0239e+07,59.203,0,8.3508e+07,278.3,13677,1491.5,0,1491.5,0,0.00027271,4.2981e-08,0,0.00014815,5.0913e-05,7.347e+07,9520.3,0,3.7726e+07,6433.8,1491.5,1
4990,1.72,12381,1,12381,1,8.2547e-05,-3.939e-09,0,0.00024462,-1.497e-05,-2.4533e+06,-3.1896,0,6.3454e+07,2126.2,12380,15000,1,15000,1,0.00056881,2.616e-07,0,0.00056881,7.0863e-05,9.4713e+07,89516,0,1.5334e+08,43031,14999,12382,1,12382,1,7.7968e-05,1.3486e-10,0,0.00023702,-1.4098e-05,1.939e+07,32.331,0,6.0592e+07,1.1344,12381,9753,1,9753,1,-0.00037702,-3.1875e-07,0,7.5356e-06,-0.00010585,-1.5334e+08,-48928,0,1.8257e+06,-7274.4,9752,11091,1,11091,1,-0.00016703,-1.0208e-10,0,0.00011297,-5.9833e-05,-6.7917e+07,-25.677,0,3.3988e+07,-8.6123,11090,13678,1,13678,1,0.00032296,4.1111e-10,0,0.00035796,3.1555e-05,6.0592e+07,82.057,0,8.3996e+07,280.64,13677,1491.5,0,1491.5,0,0.0002743,4.3261e-08,0,0.00014902,5.1211e-05,7.3899e+07,9576.8,0,3.7946e+07,6473.7,1491.5,1
4990,1.73,12381,1,12381,1,8.303e-05,-3.5395e-09,0,0.00024605,-1.5058e-05,-2.4676e+06,89.588,0,6.3825e+07,2118.8,12380,15000,1,15000,1,0.00057211,2.6472e-07,0,0.00057211,7.1278e-05,9.5263e+07,90581,0,1.5424e+08,43194,14999,12382,1,12382,1,7.8426e-05,9.6254e-11,0,0.00023841,-1.4181e-05,1.9504e+07,24.926,0,6.0947e+07,-6.1767,12381,9753,1,9753,1,-0.00037923,-3.1662e-07,0,7.58e-06,-0.00010646,-1.5424e+08,-48508,0,1.8365e+06,-7367.8,9752,11091,1,11091,1,-0.000168,-6.3501e-10,0,0.00011363,-6.0184e-05,-6.8314e+07,-138.11,0,3.4188e+07,-23.567,11090,13678,1,13678,1,0.00032485,9.6528e-10,0,0.00036006,3.174e-05,6.0946e+07,217.13,0,8.4489e+07,249.13,13677,1491.5,0,1491.5,0,0.00027591,4.2982e-08,0,0.00014989,5.1511e-05,7.4332e+07,9619.4,0,3.8168e+07,6503.6,1491.5,1
4990,1.74,12381,1,12381,1,8.3507e-05,-4.0475e-09,0,0.00024747,-1.5145e-05,-2.4818e+06,-16.808,0,6.4191e+07,2149.9,12380,15000,1,15000,1,0.00057543,2.6463e-07,0,0.00057543,7.1686e-05,9.5815e+07,90552,0,1.5512e+08,43537,14999,12382,1,12382,1,7.8875e-05,8.1647e-11,0,0.00023978,-1.4262e-05,1.9616e+07,20.271,0,6.1296e+07,0.77609,12381,9753,1,9753,1,-0.00038141,-3.2252e-07,0,7.6232e-06,-0.00010708,-1.5512e+08,-49507,0,1.8469e+06,-7347.7,9752,11091,1,11091,1,-0.00016897,-1.0605e-10,0,0.00011428,-6.0529e-05,-6.8707e+07,-27.696,0,3.4383e+07,-9.5414,11090,13678,1,13678,1,0.00032672,2.5508e-10,0,0.00036212,3.1922e-05,6.1296e+07,51.02,0,8.4973e+07,284.64,13677,1491.5,0,1491.5,0,0.00027749,4.377e-08,0,0.00015075,5.1806e-05,7.4758e+07,9688.7,0,3.8387e+07,6550.1,1491.5,1
4990,1.75,12381,1,12381,1,8.3986e-05,-4.1077e-09,0,0.00024889,-1.5231e-05,-2.4961e+06,-25.237,0,6.456e+07,2167.1,12380,15000,1,15000,1,0.00057873,2.6574e-07,0,0.00057873,7.2098e-05,9.6365e+07,90930,0,1.5601e+08,43795,14999,12382,1,12382,1,7.9328e-05,9.8458e-11,0,0.00024116,-1.4344e-05,1.9729e+07,24.902,0,6.1648e+07,-0.3972,12381,9753,1,9753,1,-0.0003836,-3.2526e-07,0,7.667e-06,-0.0001077,-1.5601e+08,-49949,0,1.8575e+06,-7388.4,9752,11091,1,11091,1,-0.00016994,-2.2148e-10,0,0.00011494,-6.0876e-05,-6.9101e+07,-52.296,0,3.4581e+07,-9.7434,11090,13678,1,13678,1,0.00032859,5.3545e-10,0,0.0003642,3.2105e-05,6.1647e+07,110.89,0,8.5461e+07,296.22,13677,1491.5,0,1491.5,0,0.00027909,4.4146e-08,0,0.00015161,5.2104e-05,7.5187e+07,9748,0,3.8608e+07,6587.9,1491.5,1
4990,1.76,12381,1,12381,1,8.4467e-05,-4.0572e-09,0,0.00025031,-1.5319e-05,-2.5103e+06,-9.4141,0,6.4929e+07,2172.5,12380,15000,1,15000,1,0.00058204,2.6757e-07,0,0.00058204,7.2511e-05,9.6916e+07,91557,0,1.569e+08,44037,14999,12382,1,12382,1,7.9782e-05,1.4548e-10,0,0.00024254,-1.4426e-05,1.9841e+07,37.027,0,6.2e+07,-0.32327,12381,9753,1,9753,1,-0.00038579,-3.2632e-07,0,7.7111e-06,-0.00010831,-1.569e+08,-50093,0,1.8682e+06,-7444,9752,11091,1,11091,1,-0.00017091,-9.2249e-11,0,0.0001156,-6.1225e-05,-6.9497e+07,-26.421,0,3.4779e+07,-13.441,11090,13678,1,13678,1,0.00033047,4.0526e-10,0,0.00036629,3.2289e-05,6.2e+07,80.7,0,8.595e+07,288.96,13677,1491.5,0,1491.5,0,0.00028068,4.428e-08,0,0.00015248,5.2402e-05,7.5618e+07,9798.8,0,3.8829e+07,6625.9,1491.5,1
4990,1.77,12381,1,12381,1,8.4947e-05,-4.0317e-09,0,0.00025173,-1.5406e-05,-2.5246e+06,1.7191,0,6.5298e+07,2189,12380,15000,1,15000,1,0.00058534,2.6918e-07,0,0.00058534,7.2923e-05,9.7466e+07,92110,0,1.578e+08,44293,14999,12382,1,12382,1,8.0235e-05,1.6837e-10,0,0.00024391,-1.4508e-05,1.9954e+07,42.405,0,6.2352e+07,1.9734,12381,9753,1,9753,1,-0.00038798,-3.2809e-07,0,7.7548e-06,-0.00010893,-1.578e+08,-50362,0,1.8788e+06,-7455.2,9752,11091,1,11091,1,-0.00017188,-9.1952e-11,0,0.00011625,-6.1573e-05,-6.9892e+07,-25.494,0,3.4976e+07,-10.009,11090,13678,1,13678,1,0.00033235,4.4728e-10,0,0.00036837,3.2473e-05,6.2352e+07,90.158,0,8.6438e+07,289.42,13677,1491.5,0,1491.5,0,0.00028228,4.4524e-08,0,0.00015335,5.2699e-05,7.6047e+07,9856.4,0,3.9049e+07,6665,1491.5,1
4990,1.78,12381,1,12381,1,8.5427e-05,-4.1367e-09,0,0.00025315,-1.5493e-05,-2.5389e+06,-15.613,0,6.5667e+07,2201.6,12380,15000,1,15000,1,0.00058866,2.706e-07,0,0.00058866,7.3334e-05,9.8018e+07,92593,0,1.5869e+08,44533,14999,12382,1,12382,1,8.0688e-05,9.9221e-11,0,0.00024529,-1.459e-05,2.0067e+07,24.153,0,6.2704e+07,0.70064,12381,9753,1,9753,1,-0.00039017,-3.3016e-07,0,7.7988e-06,-0.00010954,-1.5869e+08,-50685,0,1.8895e+06,-7514.2,9752,11091,1,11091,1,-0.00017285,-4.3772e-11,0,0.00011691,-6.192e-05,-7.0286e+07,-12.492,0,3.5174e+07,-5.2678,11090,13678,1,13678,1,0.00033423,2.332e-10,0,0.00037045,3.2656e-05,6.2704e+07,47.977,0,8.6926e+07,294.34,13677,1491.5,0,1491.5,0,0.00028387,4.4817e-08,0,0.00015421,5.2997e-05,7.6477e+07,9912.4,0,3.927e+07,6698.2,1491.5,1
4990,1.79,12381,1,12381,1,8.5908e-05,-4.0436e-09,0,0.00025458,-1.558e-05,-2.5532e+06,8.3979,0,6.6037e+07,2202.6,12380,15000,1,15000,1,0.00059197,2.724e-07,0,0.00059197,7.3748e-05,9.8569e+07,93209,0,1.5958e+08,44736,14999,12382,1,12382,1,8.1143e-05,1.7758e-10,0,0.00024667,-1.4672e-05,2.018e+07,44.15,0,6.3058e+07,3.0502,12381,9753,1,9753,1,-0.00039237,-3.3169e-07,0,7.8427e-06,-0.00011016,-1.5958e+08,-50891,0,1.9001e+06,-7557.3,9752,11091,1,11091,1,-0.00017382,-1.4472e-10,0,0.00011757,-6.2269e-05,-7.0682e+07,-38.215,0,3.5372e+07,-8.9074,11090,13678,1,13678,1,0.00033611,5.7185e-10,0,0.00037253,3.284e-05,6.3057e+07,111.72,0,8.7416e+07,282.12,13677,1491.5,0,1491.5,0,0.00028547,4.4977e-08,0,0.00015508,5.3296e-05,7.6908e+07,9964.2,0,3.9491e+07,6722.1,1491.5,1
4990,1.8,12381,1,12381,1,8.6388e-05,-4.1188e-09,0,0.000256,-1.5667e-05,-2.5674e+06,-1.7611,0,6.6405e+07,2217.7,12380,15000,1,15000,1,0.00059527,2.7394e-07,0,0.00059527,7.4159e-05,9.9119e+07,93736,0,1.6047e+08,45018,14999,12382,1,12382,1,8.1596e-05,7.8674e-11,0,0.00024805,-1.4754e-05,2.0293e+07,19.675,0,6.3409e+07,3.797,12381,9753,1,9753,1,-0.00039456,-3.3357e-07,0,7.8867e-06,-0.00011077,-1.6047e+08,-51129,0,1.9108e+06,-7526.7,9752,11091,1,11091,1,-0.0001748,-1.2216e-10,0,0.00011822,-6.2617e-05,-7.1077e+07,-28.659,0,3.5569e+07,-8.9558,11090,13678,1,13678,1,0.00033799,2.2987e-10,0,0.00037461,3.3023e-05,6.3409e+07,49.127,0,8.7904e+07,287.56,13677,1491.5,0,1491.5,0,0.00028706,4.5214e-08,0,0.00015595,5.3593e-05,7.7337e+07,10021,0,3.9711e+07,6764.6,1491.5,1
4990,1.81,12381,1,12381,1,8.6868e-05,-4.1672e-09,0,0.00025742,-1.5754e-05,-2.5817e+06,-8.1936,0,6.6775e+07,2232,12380,15000,1,15000,1,0.00059858,2.7544e-07,0,0.00059858,7.4571e-05,9.967e+07,94249,0,1.6136e+08,45263,14999,12382,1,12382,1,8.2049e-05,1.0161e-10,0,0.00024943,-1.4836e-05,2.0405e+07,24.678,0,6.3762e+07,0.51569,12381,9753,1,9753,1,-0.00039675,-3.3507e-07,0,7.9305e-06,-0.00011139,-1.6136e+08,-51424,0,1.9214e+06,-7568,9752,11091,1,11091,1,-0.00017577,-2.495e-10,0,0.00011888,-6.2965e-05,-7.1472e+07,-55.119,0,3.5767e+07,-10.971,11090,13678,1,13678,1,0.00033986,3.8345e-10,0,0.0003767,3.3207e-05,6.3761e+07,76.082,0,8.8392e+07,290.36,13677,1491.5,0,1491.5,0,0.00028866,4.5451e-08,0,0.00015682,5.3891e-05,7.7767e+07,10076,0,3.9932e+07,6806.6,1491.5,1
4990,1.82,12381,1,12381,1,8.7348e-05,-4.2712e-09,0,0.00025885,-1.5841e-05,-2.596e+06,-26.089,0,6.7143e+07,2241.3,12380,15000,1,15000,1,0.00060189,2.7693e-07,0,0.00060189,7.4983e-05,1.0022e+08,94759,0,1.6225e+08,45554,14999,12382,1,12382,1,8.2503e-05,2.3689e-12,0,0.00025081,-1.4918e-05,2.0518e+07,0.63502,0,6.4114e+07,3.3693,12381,9753,1,9753,1,-0.00039894,-3.3724e-07,0,7.9744e-06,-0.000112,-1.6225e+08,-51722,0,1.932e+06,-7637.2,9752,11091,1,11091,1,-0.00017674,-3.2447e-10,0,0.00011954,-6.3313e-05,-7.1866e+07,-68.719,0,3.5964e+07,-7.4049,11090,13678,1,13678,1,0.00034174,1.6661e-10,0,0.00037878,3.339e-05,6.4114e+07,38.531,0,8.8881e+07,299.42,13677,1491.5,0,1491.5,0,0.00029025,4.5702e-08,0,0.00015768,5.4189e-05,7.8196e+07,10130,0,4.0153e+07,6833.9,1491.5,1
4990,1.83,12381,1,12381,1,8.7828e-05,-4.3682e-09,0,0.00026027,-1.5928e-05,-2.6102e+06,-42.358,0,6.7512e+07,2258,12380,15000,1,15000,1,0.0006052,2.7855e-07,0,0.0006052,7.5395e-05,1.0077e+08,95314,0,1.6315e+08,45755,14999,12382,1,12382,1,8.2956e-05,-9.8377e-11,0,0.00025219,-1.5e-05,2.0631e+07,-23.411,0,6.4466e+07,-0.70887,12381,9753,1,9753,1,-0.00040114,-3.3873e-07,0,8.0183e-06,-0.00011262,-1.6315e+08,-51947,0,1.9427e+06,-7682.4,9752,11091,1,11091,1,-0.00017771,-4.5365e-10,0,0.00012019,-6.3661e-05,-7.2261e+07,-96.779,0,3.6162e+07,-10.045,11090,13678,1,13678,1,0.00034362,8.0558e-11,0,0.00038086,3.3574e-05,6.4466e+07,19.109,0,8.9369e+07,297.78,13677,1491.5,0,1491.5,0,0.00029185,4.5929e-08,0,0.00015855,5.4487e-05,7.8626e+07,10186,0,4.0373e+07,6880.6,1491.5,1
4990,1.84,12381,1,12381,1,8.8307e-05,-4.1991e-09,0,0.00026169,-1.6015e-05,-2.6245e+06,0.18947,0,6.7881e+07,2276.5,12380,15000,1,15000,1,0.0006085,2.7991e-07,0,0.0006085,7.5807e-05,1.0132e+08,95781,0,1.6404e+08,46010,14999,12382,1,12382,1,8.3409e-05,1.2076e-10,0,0.00025356,-1.5082e-05,2.0744e+07,29.026,0,6.4818e+07,4.4504,12381,9753,1,9753,1,-0.00040333,-3.407e-07,0,8.062e-06,-0.00011323,-1.6404e+08,-52283,0,1.9533e+06,-7735.5,9752,11091,1,11091,1,-0.00017868,-1.3948e-10,0,0.00012085,-6.4008e-05,-7.2656e+07,-33.039,0,3.636e+07,-6.121,11090,13678,1,13678,1,0.0003455,3.3163e-10,0,0.00038294,3.3757e-05,6.4817e+07,66.788,0,8.9857e+07,298.96,13677,1491.5,0,1491.5,0,0.00029344,4.6225e-08,0,0.00015941,5.4784e-05,7.9055e+07,10241,0,4.0594e+07,6922.1,1491.5,1
4990,1.85,12381,1,12381,1,8.8787e-05,-4.3005e-09,0,0.00026311,-1.6102e-05,-2.6387e+06,-16.839,0,6.825e+07,2282.6,12380,15000,1,15000,1,0.00061181,2.8157e-07,0,0.00061181,7.6219e-05,1.0187e+08,96347,0,1.6493e+08,46247,14999,12382,1,12382,1,8.3862e-05,-5.111e-11,0,0.00025494,-1.5164e-05,2.0856e+07,-10.821,0,6.517e+07,-0.3082,12381,9753,1,9753,1,-0.00040552,-3.4228e-07,0,8.1061e-06,-0.00011385,-1.6493e+08,-52519,0,1.964e+06,-7782.3,9752,11091,1,11091,1,-0.00017965,-2.0138e-10,0,0.00012151,-6.4356e-05,-7.3051e+07,-40.051,0,3.6557e+07,-8.1135,11090,13678,1,13678,1,0.00034737,8.8769e-11,0,0.00038502,3.394e-05,6.517e+07,22,0,9.0345e+07,295.89,13677,1491.5,0,1491.5,0,0.00029504,4.644e-08,0,0.00016028,5.5082e-05,7.9485e+07,10296,0,4.0814e+07,6958.5,1491.5,1
4990,1.86,12381,1,12381,1,8.9268e-05,-4.1602e-09,0,0.00026453,-1.6189e-05,-2.653e+06,18.142,0,6.8619e+07,2297.5,12380,15000,1,15000,1,0.00061511,2.8294e-07,0,0.00061511,7.6631e-05,1.0242e+08,96816,0,1.6582e+08,46508,14999,12382,1,12382,1,8.4316e-05,2.3073e-10,0,0.00025632,-1.5246e-05,2.0969e+07,58.192,0,6.5522e+07,2.8009,12381,9753,1,9753,1,-0.00040772,-3.4448e-07,0,8.1499e-06,-0.00011447,-1.6582e+08,-52865,0,1.9746e+06,-7828.6,9752,11091,1,11091,1,-0.00018062,-5.9879e-11,0,0.00012216,-6.4704e-05,-7.3445e+07,-16.352,0,3.6755e+07,-8.9505,11090,13678,1,13678,1,0.00034925,6.0123e-10,0,0.0003871,3.4124e-05,6.5522e+07,122.04,0,9.0834e+07,296.02,13677,1491.5,0,1491.5,0,0.00029663,4.6759e-08,0,0.00016115,5.5379e-05,7.9914e+07,10355,0,4.1035e+07,6996.7,1491.5,1
4990,1.87,12381,1,12381,1,8.9748e-05,-4.2236e-09,0,0.00026596,-1.6276e-05,-2.6673e+06,9.842,0,6.8988e+07,2305.1,12380,15000,1,15000,1,0.00061842,2.8457e-07,0,0.00061842,7.7043e-05,1.0297e+08,97374,0,1.6671e+08,46772,14999,12382,1,12382,1,8.4769e-05,1.4167e-10,0,0.0002577,-1.5328e-05,2.1082e+07,34.341,0,6.5874e+07,0.76103,12381,9753,1,9753,1,-0.00040991,-3.463e-07,0,8.1937e-06,-0.00011508,-1.6671e+08,-53140,0,1.9852e+06,-7846.7,9752,11091,1,11091,1,-0.00018159,-1.1276e-10,0,0.00012282,-6.5052e-05,-7.3841e+07,-26.42,0,3.6952e+07,-9.894,11090,13678,1,13678,1,0.00035113,3.9596e-10,0,0.00038918,3.4307e-05,6.5874e+07,81.343,0,9.1322e+07,299.05,13677,1491.5,0,1491.5,0,0.00029823,4.6956e-08,0,0.00016201,5.5677e-05,8.0344e+07,10408,0,4.1256e+07,7030.1,1491.5,1
4990,1.88,12381,1,12381,1,9.0228e-05,-4.3741e-09,0,0.00026738,-1.6363e-05,-2.6815e+06,-18.355,0,6.9357e+07,2320.2,12380,15000,1,15000,1,0.00062173,2.8638e-07,0,0.00062173,7.7455e-05,1.0352e+08,97994,0,1.676e+08,46986,14999,12382,1,12382,1,8.5223e-05,-6.9866e-11,0,0.00025907,-1.541e-05,2.1195e+07,-16.799,0,6.6226e+07,1.7042,12381,9753,1,9753,1,-0.0004121,-3.4739e-07,0,8.2377e-06,-0.0001157,-1.676e+08,-53286,0,1.9959e+06,-7952.4,9752,11091,1,11091,1,-0.00018256,-2.6047e-10,0,0.00012348,-6.54e-05,-7.4236e+07,-55.602,0,3.715e+07,-8.0613,11090,13678,1,13678,1,0.00035301,1.5118e-10,0,0.00039127,3.4491e-05,6.6226e+07,36.036,0,9.1811e+07,298.33,13677,1491.5,0,1491.5,0,0.00029982,4.714e-08,0,0.00016288,5.5975e-05,8.0774e+07,10464,0,4.1476e+07,7068.3,1491.5,1
4990,1.89,12381,1,12381,1,9.0708e-05,-4.2639e-09,0,0.0002688,-1.645e-05,-2.6958e+06,10.442,0,6.9726e+07,2332.3,12380,15000,1,15000,1,0.00062503,2.8771e-07,0,0.00062503,7.7867e-05,1.0407e+08,98450,0,1.6849e+08,47253,14999,12382,1,12382,1,8.5676e-05,1.8399e-10,0,0.00026045,-1.5492e-05,2.1307e+07,44.593,0,6.6579e+07,-0.22587,12381,9753,1,9753,1,-0.00041429,-3.4967e-07,0,8.2816e-06,-0.00011631,-1.6849e+08,-53657,0,2.0065e+06,-8007.2,9752,11091,1,11091,1,-0.00018353,-1.7693e-10,0,0.00012414,-6.5748e-05,-7.463e+07,-45.028,0,3.7348e+07,-10.998,11090,13678,1,13678,1,0.00035489,5.7292e-10,0,0.00039335,3.4674e-05,6.6578e+07,112.9,0,9.2299e+07,304.98,13677,1491.5,0,1491.5,0,0.00030142,4.7461e-08,0,0.00016375,5.6273e-05,8.1203e+07,10521,0,4.1697e+07,7108.6,1491.5,1
4990,1.9,12381,1,12381,1,9.1188e-05,-4.339e-09,0,0.00027022,-1.6538e-05,-2.7101e+06,-0.13975,0,7.0095e+07,2338.3,12380,15000,1,15000,1,0.00062834,2.8936e-07,0,0.00062834,7.8279e-05,1.0463e+08,99013,0,1.6939e+08,47509,14999,12382,1,12382,1,8.613e-05,6.2591e-11,0,0.00026183,-1.5574e-05,2.142e+07,15.398,0,6.6931e+07,0.16573,12381,9753,1,9753,1,-0.00041648,-3.5158e-07,0,8.3254e-06,-0.00011693,-1.6939e+08,-53910,0,2.0171e+06,-7967.8,9752,11091,1,11091,1,-0.00018451,-1.643e-10,0,0.00012479,-6.6096e-05,-7.5025e+07,-38.3,0,3.7545e+07,-9.3325,11090,13678,1,13678,1,0.00035677,2.4752e-10,0,0.00039543,3.4858e-05,6.6931e+07,53.976,0,9.2788e+07,298.99,13677,1491.5,0,1491.5,0,0.00030301,4.7675e-08,0,0.00016461,5.6571e-05,8.1633e+07,10578,0,4.1918e+07,7138.6,1491.5,1
4990,1.91,12381,1,12381,1,9.1668e-05,-4.4353e-09,0,0.00027165,-1.6625e-05,-2.7243e+06,-17.404,0,7.0463e+07,2350.8,12380,15000,1,15000,1,0.00063165,2.9069e-07,0,0.00063165,7.8691e-05,1.0518e+08,99469,0,1.7028e+08,47767,14999,12382,1,12382,1,8.6583e-05,3.3718e-11,0,0.00026321,-1.5656e-05,2.1533e+07,7.2633,0,6.7283e+07,0.0085719,12381,9753,1,9753,1,-0.00041867,-3.5365e-07,0,8.3694e-06,-0.00011754,-1.7028e+08,-54240,0,2.0277e+06,-8068.6,9752,11091,1,11091,1,-0.00018548,-1.4393e-10,0,0.00012545,-6.6444e-05,-7.542e+07,-36.192,0,3.7743e+07,-11.838,11090,13678,1,13678,1,0.00035864,2.0417e-10,0,0.00039751,3.5041e-05,6.7283e+07,42.468,0,9.3276e+07,305.77,13677,1491.5,0,1491.5,0,0.00030461,4.7952e-08,0,0.00016548,5.6868e-05,8.2063e+07,10630,0,4.2138e+07,7176.4,1491.5,1
4990,1.92,12381,1,12381,1,9.2148e-05,-4.4603e-09,0,0.00027307,-1.6712e-05,-2.7386e+06,-16.313,0,7.0832e+07,2368.8,12380,15000,1,15000,1,0.00063496,2.9259e-07,0,0.00063496,7.9103e-05,1.0573e+08,1.0012e+05,0,1.7117e+08,47995,14999,12382,1,12382,1,8.7036e-05,-1.4849e-10,0,0.00026459,-1.5738e-05,2.1646e+07,-36.783,0,6.7635e+07,-0.91987,12381,9753,1,9753,1,-0.00042086,-3.5452e-07,0,8.4131e-06,-0.00011816,-1.7117e+08,-54385,0,2.0384e+06,-8075.8,9752,11091,1,11091,1,-0.00018645,-4.0569e-10,0,0.00012611,-6.6791e-05,-7.5815e+07,-81.055,0,3.794e+07,-9.9816,11090,13678,1,13678,1,0.00036052,1.03e-10,0,0.00039959,3.5225e-05,6.7635e+07,25.868,0,9.3764e+07,307.69,13677,1491.5,0,1491.5,0,0.0003062,4.811e-08,0,0.00016635,5.7166e-05,8.2492e+07,10687,0,4.2359e+07,7223.9,1491.5,1
4990,1.93,12381,1,12381,1,9.2627e-05,-4.4497e-09,0,0.00027449,-1.6799e-05,-2.7528e+06,-8.863,0,7.1201e+07,2382.5,12380,15000,1,15000,1,0.00063826,2.9396e-07,0,0.00063826,7.9515e-05,1.0628e+08,1.0059e+05,0,1.7206e+08,48234,14999,12382,1,12382,1,8.7489e-05,-4.982e-11,0,0.00026596,-1.582e-05,2.1758e+07,-11.375,0,6.7987e+07,1.8121,12381,9753,1,9753,1,-0.00042305,-3.567e-07,0,8.457e-06,-0.00011877,-1.7206e+08,-54727,0,2.049e+06,-8126.7,9752,11091,1,11091,1,-0.00018742,-2.5953e-10,0,0.00012676,-6.7139e-05,-7.6209e+07,-52.189,0,3.8138e+07,-6.6708,11090,13678,1,13678,1,0.0003624,7.7308e-11,0,0.00040167,3.5408e-05,6.7986e+07,22.661,0,9.4252e+07,307.39,13677,1491.5,0,1491.5,0,0.0003078,4.8412e-08,0,0.00016721,5.7464e-05,8.2922e+07,10743,0,4.2579e+07,7257.9,1491.5,1
4990,1.94,12381,1,12381,1,9.3108e-05,-4.5143e-09,0,0.00027591,-1.6886e-05,-2.7671e+06,-19.152,0,7.157e+07,2391.3,12380,15000,1,15000,1,0.00064157,2.955e-07,0,0.00064157,7.9927e-05,1.0683e+08,1.0111e+05,0,1.7295e+08,48527,14999,12382,1,12382,1,8.7943e-05,4.9233e-12,0,0.00026734,-1.5902e-05,2.1871e+07,1.3505,0,6.8339e+07,3.1493,12381,9753,1,9753,1,-0.00042525,-3.5873e-07,0,8.5008e-06,-0.00011939,-1.7295e+08,-55029,0,2.0596e+06,-8175.4,9752,11091,1,11091,1,-0.00018839,-3.2651e-10,0,0.00012742,-6.7487e-05,-7.6604e+07,-73.259,0,3.8336e+07,-9.1296,11090,13678,1,13678,1,0.00036428,1.3985e-10,0,0.00040375,3.5592e-05,6.8339e+07,31.03,0,9.4741e+07,304.72,13677,1491.5,0,1491.5,0,0.00030939,4.8652e-08,0,0.00016808,5.7762e-05,8.3352e+07,10799,0,4.28e+07,7292.8,1491.5,1
4990,1.95,12381,1,12381,1,9.3588e-05,-4.5357e-09,0,0.00027734,-1.6973e-05,-2.7814e+06,-18.309,0,7.1939e+07,2395.3,12380,15000,1,15000,1,0.00064488,2.9708e-07,0,0.00064488,8.0339e-05,1.0738e+08,1.0166e+05,0,1.7384e+08,48768,14999,12382,1,12382,1,8.8397e-05,-9.5586e-11,0,0.00026872,-1.5984e-05,2.1984e+07,-22.533,0,6.8691e+07,1.648,12381,9753,1,9753,1,-0.00042744,-3.6018e-07,0,8.5448e-06,-0.00012,-1.7384e+08,-55256,0,2.0703e+06,-8137.4,9752,11091,1,11091,1,-0.00018936,-2.755e-10,0,0.00012808,-6.7835e-05,-7.6999e+07,-55.746,0,3.8533e+07,-9.3428,11090,13678,1,13678,1,0.00036615,5.4327e-11,0,0.00040583,3.5775e-05,6.8691e+07,14.331,0,9.5229e+07,306.17,13677,1491.5,0,1491.5,0,0.00031099,4.8898e-08,0,0.00016895,5.8059e-05,8.3781e+07,10855,0,4.3021e+07,7324.3,1491.5,1
4990,1.96,12381,1,12381,1,9.4068e-05,-4.4596e-09,0,0.00027876,-1.706e-05,-2.7956e+06,2.8404,0,7.2308e+07,2416.4,12380,15000,1,15000,1,0.00064818,2.9845e-07,0,0.00064818,8.0751e-05,1.0793e+08,1.0212e+05,0,1.7474e+08,49025,14999,12382,1,12382,1,8.885e-05,1.3765e-10,0,0.0002701,-1.6066e-05,2.2097e+07,34.183,0,6.9043e+07,2.2169,12381,9753,1,9753,1,-0.00042963,-3.629e-07,0,8.5887e-06,-0.00012062,-1.7474e+08,-55644,0,2.0809e+06,-8206.9,9752,11091,1,11091,1,-0.00019033,-1.6234e-10,0,0.00012873,-6.8183e-05,-7.7394e+07,-39.892,0,3.8731e+07,-11.58,11090,13678,1,13678,1,0.00036803,4.0554e-10,0,0.00040792,3.5959e-05,6.9043e+07,79.703,0,9.5718e+07,310.68,13677,1491.5,0,1491.5,0,0.00031258,4.9202e-08,0,0.00016981,5.8357e-05,8.4211e+07,10913,0,4.3241e+07,7370.2,1491.5,1
4990,1.97,12381,1,12381,1,9.4548e-05,-4.6637e-09,0,0.00028018,-1.7147e-05,-2.8099e+06,-37.223,0,7.2677e+07,2429.4,12380,15000,1,15000,1,0.00065149,3.0007e-07,0,0.00065149,8.1163e-05,1.0848e+08,1.0268e+05,0,1.7563e+08,49256,14999,12382,1,12382,1,8.9304e-05,-1.1775e-10,0,0.00027148,-1.6148e-05,2.2209e+07,-28.632,0,6.9395e+07,1.2319,12381,9753,1,9753,1,-0.00043182,-3.6406e-07,0,8.6326e-06,-0.00012124,-1.7563e+08,-55856,0,2.0916e+06,-8285,9752,11091,1,11091,1,-0.0001913,-3.5233e-10,0,0.00012939,-6.8531e-05,-7.7789e+07,-84.138,0,3.8928e+07,-12.602,11090,13678,1,13678,1,0.00036991,1.5751e-11,0,0.00041,3.6142e-05,6.9395e+07,3.9875,0,9.6206e+07,318.63,13677,1491.5,0,1491.5,0,0.00031418,4.9393e-08,0,0.00017068,5.8655e-05,8.4641e+07,10966,0,4.3462e+07,7410.5,1491.5,1
4990,1.98,12381,1,12381,1,9.5028e-05,-4.6507e-09,0,0.0002816,-1.7234e-05,-2.8242e+06,-28.154,0,7.3046e+07,2441,12380,15000,1,15000,1,0.0006548,3.0172e-07,0,0.0006548,8.1575e-05,1.0903e+08,1.0324e+05,0,1.7652e+08,49493,14999,12382,1,12382,1,8.9757e-05,-1.9748e-10,0,0.00027285,-1.623e-05,2.2322e+07,-49.767,0,6.9747e+07,0.17575,12381,9753,1,9753,1,-0.00043402,-3.6556e-07,0,8.6766e-06,-0.00012185,-1.7652e+08,-56080,0,2.1023e+06,-8363.4,9752,11091,1,11091,1,-0.00019227,-5.0023e-10,0,0.00013005,-6.8879e-05,-7.8184e+07,-102.01,0,3.9126e+07,-9.6281,11090,13678,1,13678,1,0.00037179,3.813e-11,0,0.00041208,3.6325e-05,6.9747e+07,11.314,0,9.6694e+07,310.7,13677,1491.5,0,1491.5,0,0.00031577,4.9608e-08,0,0.00017154,5.8952e-05,8.507e+07,11020,0,4.3683e+07,7446.5,1491.5,1
4990,1.99,12381,1,12381,1,9.5508e-05,-4.3865e-09,0,0.00028302,-1.7321e-05,-2.8384e+06,34.789,0,7.3414e+07,2459.3,12380,15000,1,15000,1,0.0006581,3.0284e-07,0,0.0006581,8.1987e-05,1.0958e+08,1.0362e+05,0,1.7741e+08,49769,14999,12382,1,12382,1,9.021e-05,2.5587e-10,0,0.00027423,-1.6312e-05,2.2435e+07,61.822,0,7.01e+07,2.6072,12381,9753,1,9753,1,-0.00043621,-3.6826e-07,0,8.7203e-06,-0.00012247,-1.7741e+08,-56515,0,2.1128e+06,-8363.1,9752,11091,1,11091,1,-0.00019324,-4.0529e-11,0,0.0001307,-6.9226e-05,-7.8579e+07,-11.798,0,3.9324e+07,-8.0125,11090,13678,1,13678,1,0.00037366,6.1753e-10,0,0.00041416,3.6509e-05,7.0099e+07,123.73,0,9.7183e+07,316.01,13677,1491.5,0,1491.5,0,0.00031736,4.9991e-08,0,0.00017241,5.925e-05,8.55e+07,11078,0,4.3903e+07,7488.3,1491.5,1
4990,2,12381,1,12381,1,9.5988e-05,-4.6274e-09,0,0.00028445,-1.7408e-05,-2.8527e+06,-14.419,0,7.3784e+07,2467.5,12380,15000,1,15000,1,0.00066141,3.0433e-07,0,0.00066141,8.2399e-05,1.1013e+08,1.0414e+05,0,1.783e+08,50055,14999,12382,1,12382,1,9.0664e-05,1.2327e-10,0,0.00027561,-1.6394e-05,2.2548e+07,30.213,0,7.0452e+07,1.4762,12381,9753,1,9753,1,-0.0004384,-3.7027e-07,0,8.7643e-06,-0.00012308,-1.783e+08,-56820,0,2.1235e+06,-8379.8,9752,11091,1,11091,1,-0.00019422,-3.582e-10,0,0.00013136,-6.9575e-05,-7.8974e+07,-82.72,0,3.9521e+07,-13.901,11090,13678,1,13678,1,0.00037554,4.5035e-10,0,0.00041624,3.6692e-05,7.0452e+07,86.826,0,9.7672e+07,316.74,13677,1491.5,0,1491.5,0,0.00031896,5.0248e-08,0,0.00017328,5.9548e-05,8.593e+07,11137,0,4.4124e+07,7524.5,1491.5,1
4990,2.01,12381,1,12381,1,9.6468e-05,-4.5786e-09,0,0.00028587,-1.7495e-05,-2.867e+06,2.0967,0,7.4152e+07,2480.7,12380,15000,1,15000,1,0.00066472,3.0595e-07,0,0.00066472,8.2811e-05,1.1068e+08,1.0469e+05,0,1.7919e+08,50267,14999,12382,1,12382,1,9.1117e-05,8.0387e-11,0,0.00027699,-1.6476e-05,2.266e+07,20.241,0,7.0804e+07,0.52542,12381,9753,1,9753,1,-0.00044059,-3.7183e-07,0,8.8083e-06,-0.0001237,-1.7919e+08,-57057,0,2.1342e+06,-8494.9,9752,11091,1,11091,1,-0.00019519,-1.0447e-10,0,0.00013202,-6.9922e-05,-7.9368e+07,-25.364,0,3.9719e+07,-9.5631,11090,13678,1,13678,1,0.00037742,2.5103e-10,0,0.00041832,3.6876e-05,7.0804e+07,53.685,0,9.816e+07,318.55,13677,1491.5,0,1491.5,0,0.00032055,5.0459e-08,0,0.00017414,5.9846e-05,8.6359e+07,11188,0,4.4344e+07,7560.7,1491.5,1
4990,2.02,12381,1,12381,1,9.6947e-05,-4.6773e-09,0,0.00028729,-1.7582e-05,-2.8812e+06,-14.919,0,7.4521e+07,2496,12380,15000,1,15000,1,0.00066803,3.0726e-07,0,0.00066803,8.3222e-05,1.1123e+08,1.0514e+05,0,1.8008e+08,50549,14999,12382,1,12382,1,9.157e-05,8.7802e-11,0,0.00027836,-1.6558e-05,2.2773e+07,21.361,0,7.1155e+07,0.8636,12381,9753,1,9753,1,-0.00044278,-3.742e-07,0,8.852e-06,-0.00012431,-1.8008e+08,-57432,0,2.1448e+06,-8502.2,9752,11091,1,11091,1,-0.00019616,-1.8283e-10,0,0.00013267,-7.027e-05,-7.9763e+07,-44.042,0,3.9916e+07,-10.823,11090,13678,1,13678,1,0.0003793,3.4516e-10,0,0.0004204,3.7059e-05,7.1155e+07,66.364,0,9.8648e+07,325.14,13677,1491.5,0,1491.5,0,0.00032215,5.0779e-08,0,0.00017501,6.0143e-05,8.6788e+07,11247,0,4.4565e+07,7601.2,1491.5,1
4990,2.03,12381,1,12381,1,9.7428e-05,-4.6627e-09,0,0.00028871,-1.7669e-05,-2.8955e+06,-6.5673,0,7.489e+07,2506.9,12380,15000,1,15000,1,0.00067133,3.0887e-07,0,0.00067133,8.3635e-05,1.1178e+08,1.0569e+05,0,1.8097e+08,50763,14999,12382,1,12382,1,9.2023e-05,8.1342e-11,0,0.00027974,-1.664e-05,2.2886e+07,20.099,0,7.1508e+07,1.5888,12381,9753,1,9753,1,-0.00044498,-3.7581e-07,0,8.896e-06,-0.00012493,-1.8097e+08,-57674,0,2.1554e+06,-8571.6,9752,11091,1,11091,1,-0.00019713,-1.02e-10,0,0.00013333,-7.0618e-05,-8.0158e+07,-24.535,0,4.0114e+07,-8.4184,11090,13678,1,13678,1,0.00038117,2.3331e-10,0,0.00042248,3.7243e-05,7.1508e+07,48.732,0,9.9136e+07,321.01,13677,1491.5,0,1491.5,0,0.00032374,5.0999e-08,0,0.00017588,6.0441e-05,8.7218e+07,11300,0,4.4785e+07,7636.4,1491.5,1
4990,2.04,12381,1,12381,1,9.7908e-05,-4.6238e-09,0,0.00029013,-1.7756e-05,-2.9097e+06,6.7794,0,7.5259e+07,2518.3,12380,15000,1,15000,1,0.00067464,3.1034e-07,0,0.00067464,8.4047e-05,1.1234e+08,1.0619e+05,0,1.8187e+08,51033,14999,12382,1,12382,1,9.2477e-05,1.7859e-10,0,0.00028112,-1.6722e-05,2.2999e+07,46.883,0,7.186e+07,2.7191,12381,9753,1,9753,1,-0.00044717,-3.7779e-07,0,8.9399e-06,-0.00012554,-1.8187e+08,-57983,0,2.1661e+06,-8625.9,9752,11091,1,11091,1,-0.0001981,-6.9232e-11,0,0.00013399,-7.0966e-05,-8.0553e+07,-19.809,0,4.0311e+07,-11.014,11090,13678,1,13678,1,0.00038305,5.0076e-10,0,0.00042456,3.7426e-05,7.186e+07,101.24,0,9.9624e+07,326.13,13677,1491.5,0,1491.5,0,0.00032534,5.1277e-08,0,0.00017674,6.0739e-05,8.7648e+07,11357,0,4.5006e+07,7673.2,1491.5,1
4990,2.05,12381,1,12381,1,9.8388e-05,-4.6678e-09,0,0.00029156,-1.7843e-05,-2.924e+06,2.1671,0,7.5628e+07,2532.3,12380,15000,1,15000,1,0.00067795,3.1188e-07,0,0.00067795,8.4459e-05,1.1289e+08,1.0672e+05,0,1.8276e+08,51297,14999,12382,1,12382,1,9.293e-05,1.4091e-10,0,0.0002825,-1.6804e-05,2.3111e+07,36.043,0,7.2212e+07,0.35298,12381,9753,1,9753,1,-0.00044936,-3.796e-07,0,8.9838e-06,-0.00012616,-1.8276e+08,-58259,0,2.1768e+06,-8656.2,9752,11091,1,11091,1,-0.00019907,-9.272e-11,0,0.00013464,-7.1314e-05,-8.0947e+07,-23.443,0,4.0509e+07,-11.936,11090,13678,1,13678,1,0.00038493,3.7784e-10,0,0.00042664,3.7609e-05,7.2212e+07,76.902,0,1.0011e+08,327.32,13677,1491.5,0,1491.5,0,0.00032693,5.1511e-08,0,0.00017761,6.1036e-05,8.8077e+07,11412,0,4.5227e+07,7715.6,1491.5,1
4990,2.06,12381,1,12381,1,9.8868e-05,-4.7527e-09,0,0.00029298,-1.793e-05,-2.9383e+06,-10.813,0,7.5997e+07,2545.5,12380,15000,1,15000,1,0.00068126,3.1348e-07,0,0.00068126,8.487e-05,1.1344e+08,1.0727e+05,0,1.8365e+08,51552,14999,12382,1,12382,1,9.3384e-05,2.7151e-12,0,0.00028388,-1.6886e-05,2.3224e+07,0.7451,0,7.2564e+07,2.592,12381,9753,1,9753,1,-0.00045155,-3.8127e-07,0,9.0277e-06,-0.00012677,-1.8365e+08,-58514,0,2.1874e+06,-8692.5,9752,11091,1,11091,1,-0.00020004,-1.0379e-10,0,0.0001353,-7.1662e-05,-8.1342e+07,-22.763,0,4.0707e+07,-8.0951,11090,13678,1,13678,1,0.00038681,1.6853e-10,0,0.00042873,3.7793e-05,7.2564e+07,35.751,0,1.006e+08,324.79,13677,1491.5,0,1491.5,0,0.00032853,5.1739e-08,0,0.00017848,6.1334e-05,8.8507e+07,11468,0,4.5447e+07,7753.2,1491.5,1
4990,2.07,12381,1,12381,1,9.9348e-05,-4.6906e-09,0,0.0002944,-1.8017e-05,-2.9526e+06,6.6925,0,7.6366e+07,2556.3,12380,15000,1,15000,1,0.00068456,3.1487e-07,0,0.00068456,8.5283e-05,1.1399e+08,1.0774e+05,0,1.8454e+08,51828,14999,12382,1,12382,1,9.3838e-05,1.9948e-10,0,0.00028526,-1.6968e-05,2.3337e+07,48.357,0,7.2916e+07,2.7912,12381,9753,1,9753,1,-0.00045375,-3.8336e-07,0,9.0713e-06,-0.00012739,-1.8454e+08,-58835,0,2.1979e+06,-8641.7,9752,11091,1,11091,1,-0.00020101,-2.8744e-10,0,0.00013596,-7.201e-05,-8.1737e+07,-66.545,0,4.0905e+07,-16.516,11090,13678,1,13678,1,0.00038869,6.8966e-10,0,0.00043081,3.7977e-05,7.2916e+07,134.1,0,1.0109e+08,328.29,13677,1491.5,0,1491.5,0,0.00033012,5.2017e-08,0,0.00017934,6.1632e-05,8.8937e+07,11524,0,4.5668e+07,7794.9,1491.5,1
4990,2.08,12381,1,12381,1,9.9827e-05,-4.8437e-09,0,0.00029582,-1.8104e-05,-2.9668e+06,-20.997,0,7.6734e+07,2569.2,12380,15000,1,15000,1,0.00068787,3.1638e-07,0,0.00068787,8.5694e-05,1.1454e+08,1.0826e+05,0,1.8543e+08,52034,14999,12382,1,12382,1,9.429e-05,2.9392e-11,0,0.00028663,-1.705e-05,2.345e+07,7.2574,0,7.3268e+07,1.1159,12381,9753,1,9753,1,-0.00045593,-3.8528e-07,0,9.1155e-06,-0.00012801,-1.8543e+08,-59137,0,2.2087e+06,-8773.3,9752,11091,1,11091,1,-0.00020198,-1.4388e-10,0,0.00013661,-7.2357e-05,-8.2132e+07,-35.218,0,4.1102e+07,-10.139,11090,13678,1,13678,1,0.00039056,1.7107e-10,0,0.00043289,3.816e-05,7.3268e+07,36.883,0,1.0158e+08,342.96,13677,1491.5,0,1491.5,0,0.00033172,5.2285e-08,0,0.00018021,6.1929e-05,8.9366e+07,11580,0,4.5888e+07,7825.7,1491.5,1
4990,2.09,12381,1,12381,1,0.00010031,-4.8358e-09,0,0.00029724,-1.8191e-05,-2.9811e+06,-14.181,0,7.7103e+07,2582.3,12380,15000,1,15000,1,0.00069118,3.179e-07,0,0.00069118,8.6106e-05,1.1509e+08,1.0878e+05,0,1.8632e+08,52268,14999,12382,1,12382,1,9.4743e-05,6.7904e-11,0,0.00028801,-1.7132e-05,2.3562e+07,15.799,0,7.362e+07,2.4244,12381,9753,1,9753,1,-0.00045812,-3.8712e-07,0,9.1595e-06,-0.00012862,-1.8632e+08,-59416,0,2.2194e+06,-8829.6,9752,11091,1,11091,1,-0.00020295,-7.9537e-11,0,0.00013727,-7.2705e-05,-8.2527e+07,-21.21,0,4.1299e+07,-6.8069,11090,13678,1,13678,1,0.00039244,2.1914e-10,0,0.00043497,3.8343e-05,7.362e+07,46.499,0,1.0207e+08,338.5,13677,1491.5,0,1491.5,0,0.00033331,5.2538e-08,0,0.00018107,6.2227e-05,8.9795e+07,11635,0,4.6109e+07,7861.8,1491.5,1
4990,2.1,12381,1,12381,1,0.00010079,-4.8018e-09,0,0.00029867,-1.8278e-05,-2.9953e+06,-2.3321,0,7.7472e+07,2595.6,12380,15000,1,15000,1,0.00069448,3.194e-07,0,0.00069448,8.6518e-05,1.1564e+08,1.0929e+05,0,1.8721e+08,52543,14999,12382,1,12382,1,9.5197e-05,1.5205e-10,0,0.00028939,-1.7214e-05,2.3675e+07,39.013,0,7.3972e+07,3.6609,12381,9753,1,9753,1,-0.00046032,-3.8902e-07,0,9.2033e-06,-0.00012924,-1.8721e+08,-59707,0,2.23e+06,-8875.8,9752,11091,1,11091,1,-0.00020392,-8.7443e-11,0,0.00013793,-7.3053e-05,-8.2921e+07,-24.28,0,4.1497e+07,-10.034,11090,13678,1,13678,1,0.00039432,4.289e-10,0,0.00043705,3.8527e-05,7.3972e+07,86.307,0,1.0255e+08,334.04,13677,1491.5,0,1491.5,0,0.00033491,5.2793e-08,0,0.00018194,6.2525e-05,9.0225e+07,11690,0,4.633e+07,7903.4,1491.5,1
4990,2.11,12381,1,12381,1,0.00010127,-4.7873e-09,0,0.00030009,-1.8365e-05,-3.0096e+06,6.035,0,7.7841e+07,2608.4,12380,15000,1,15000,1,0.00069779,3.2088e-07,0,0.00069779,8.6931e-05,1.1619e+08,1.098e+05,0,1.8811e+08,52800,14999,12382,1,12382,1,9.565e-05,2.3759e-10,0,0.00029077,-1.7296e-05,2.3788e+07,57.281,0,7.4324e+07,4.4361,12381,9753,1,9753,1,-0.00046251,-3.9101e-07,0,9.2472e-06,-0.00012985,-1.8811e+08,-60020,0,2.2406e+06,-8914.4,9752,11091,1,11091,1,-0.00020489,-4.7775e-11,0,0.00013859,-7.3401e-05,-8.3316e+07,-13.204,0,4.1694e+07,-8.1218,11090,13678,1,13678,1,0.00039619,5.5462e-10,0,0.00043913,3.871e-05,7.4324e+07,112.12,0,1.0304e+08,343.86,13677,1491.5,0,1491.5,0,0.0003365,5.3086e-08,0,0.00018281,6.2823e-05,9.0655e+07,11748,0,4.655e+07,7938.6,1491.5,1
4990,2.12,12381,1,12381,1,0.00010175,-4.8958e-09,0,0.00030151,-1.8453e-05,-3.0238e+06,-12.426,0,7.821e+07,2618.1,12380,15000,1,15000,1,0.0007011,3.2241e-07,0,0.0007011,8.7342e-05,1.1674e+08,1.1032e+05,0,1.89e+08,53024,14999,12382,1,12382,1,9.6103e-05,9.1888e-11,0,0.00029214,-1.7378e-05,2.3901e+07,22.622,0,7.4676e+07,0.66618,12381,9753,1,9753,1,-0.0004647,-3.9273e-07,0,9.2912e-06,-0.00013047,-1.89e+08,-60278,0,2.2513e+06,-8976.7,9752,11091,1,11091,1,-0.00020587,-8.6527e-11,0,0.00013924,-7.3749e-05,-8.3711e+07,-21.599,0,4.1892e+07,-9.8386,11090,13678,1,13678,1,0.00039807,2.6915e-10,0,0.00044121,3.8893e-05,7.4676e+07,55.821,0,1.0353e+08,336.24,13677,1491.5,0,1491.5,0,0.0003381,5.3297e-08,0,0.00018367,6.312e-05,9.1084e+07,11801,0,4.6771e+07,7975.5,1491.5,1
4990,2.13,12381,1,12381,1,0.00010223,-4.9542e-09,0,0.00030293,-1.854e-05,-3.0381e+06,-19.923,0,7.8579e+07,2630.3,12380,15000,1,15000,1,0.00070441,3.2402e-07,0,0.00070441,8.7754e-05,1.1729e+08,1.1087e+05,0,1.8989e+08,53252,14999,12382,1,12382,1,9.6557e-05,1.9447e-11,0,0.00029352,-1.746e-05,2.4013e+07,4.4658,0,7.5028e+07,1.9022,12381,9753,1,9753,1,-0.00046689,-3.9432e-07,0,9.3351e-06,-0.00013108,-1.8989e+08,-60520,0,2.2619e+06,-9018.5,9752,11091,1,11091,1,-0.00020684,-1.3396e-10,0,0.0001399,-7.4097e-05,-8.4106e+07,-30.678,0,4.2089e+07,-8.2092,11090,13678,1,13678,1,0.00039995,1.3154e-10,0,0.00044329,3.9077e-05,7.5028e+07,28.065,0,1.0402e+08,339.4,13677,1491.5,0,1491.5,0,0.00033969,5.3521e-08,0,0.00018454,6.3418e-05,9.1514e+07,11857,0,4.6991e+07,8010.7,1491.5,1
4990,2.14,12381,1,12381,1,0.00010271,-4.8329e-09,0,0.00030436,-1.8627e-05,-3.0524e+06,11.831,0,7.8948e+07,2645.4,12380,15000,1,15000,1,0.00070771,3.256e-07,0,0.00070771,8.8166e-05,1.1784e+08,1.1141e+05,0,1.9078e+08,53516,14999,12382,1,12382,1,9.7011e-05,1.8099e-10,0,0.0002949,-1.7542e-05,2.4126e+07,45.003,0,7.538e+07,2.4692,12381,9753,1,9753,1,-0.00046909,-3.962e-07,0,9.3789e-06,-0.0001317,-1.9078e+08,-60807,0,2.2725e+06,-9047.4,9752,11091,1,11091,1,-0.00020781,-6.6607e-11,0,0.00014056,-7.4445e-05,-8.4501e+07,-16.226,0,4.2287e+07,-8.0084,11090,13678,1,13678,1,0.00040183,4.465e-10,0,0.00044538,3.926e-05,7.538e+07,89.606,0,1.0451e+08,342.72,13677,1491.5,0,1491.5,0,0.00034129,5.377e-08,0,0.00018541,6.3716e-05,9.1944e+07,11912,0,4.7212e+07,8049.3,1491.5,1
4990,2.15,12381,1,12381,1,0.00010319,-4.8875e-09,0,0.00030578,-1.8714e-05,-3.0666e+06,4.5555,0,7.9316e+07,2655.6,12380,15000,1,15000,1,0.00071102,3.2704e-07,0,0.00071102,8.8578e-05,1.1839e+08,1.1191e+05,0,1.9167e+08,53778,14999,12382,1,12382,1,9.7464e-05,1.5826e-10,0,0.00029628,-1.7624e-05,2.4239e+07,39.19,0,7.5732e+07,2.613,12381,9753,1,9753,1,-0.00047128,-3.982e-07,0,9.4229e-06,-0.00013231,-1.9167e+08,-61116,0,2.2832e+06,-9074.9,9752,11091,1,11091,1,-0.00020878,-2.9521e-11,0,0.00014121,-7.4792e-05,-8.4896e+07,-8.6914,0,4.2485e+07,-8.513,11090,13678,1,13678,1,0.00040371,3.7749e-10,0,0.00044746,3.9444e-05,7.5732e+07,78.52,0,1.05e+08,337.35,13677,1491.5,0,1491.5,0,0.00034288,5.4048e-08,0,0.00018627,6.4014e-05,9.2373e+07,11969,0,4.7433e+07,8088.8,1491.5,1
4990,2.16,12381,1,12381,1,0.00010367,-5.0095e-09,0,0.0003072,-1.8801e-05,-3.0809e+06,-17.456,0,7.9685e+07,2665.5,12380,15000,1,15000,1,0.00071433,3.2865e-07,0,0.00071433,8.899e-05,1.1894e+08,1.1246e+05,0,1.9256e+08,54015,14999,12382,1,12382,1,9.7917e-05,6.9552e-12,0,0.00029766,-1.7706e-05,2.4352e+07,1.652,0,7.6084e+07,0.48733,12381,9753,1,9753,1,-0.00047347,-3.9984e-07,0,9.4668e-06,-0.00013293,-1.9256e+08,-61357,0,2.2938e+06,-9121.4,9752,11091,1,11091,1,-0.00020975,-1.2852e-10,0,0.00014187,-7.514e-05,-8.5291e+07,-30.165,0,4.2682e+07,-10.45,11090,13678,1,13678,1,0.00040559,1.3181e-10,0,0.00044954,3.9627e-05,7.6084e+07,28.064,0,1.0548e+08,343.39,13677,1491.5,0,1491.5,0,0.00034448,5.4259e-08,0,0.00018714,6.4312e-05,9.2803e+07,12023,0,4.7653e+07,8124.7,1491.5,1
4990,2.17,12381,1,12381,1,0.00010415,-4.9904e-09,0,0.00030862,-1.8888e-05,-3.0952e+06,-7.8898,0,8.0054e+07,2680.4,12380,15000,1,15000,1,0.00071763,3.3014e-07,0,0.00071763,8.9402e-05,1.1949e+08,1.1297e+05,0,1.9345e+08,54263,14999,12382,1,12382,1,9.8371e-05,6.7461e-11,0,0.00029903,-1.7788e-05,2.4464e+07,15.923,0,7.6436e+07,4.8611,12381,9753,1,9753,1,-0.00047566,-4.018e-07,0,9.5106e-06,-0.00013354,-1.9345e+08,-61671,0,2.3045e+06,-9199.7,9752,11091,1,11091,1,-0.00021072,-6.9772e-11,0,0.00014253,-7.5488e-05,-8.5685e+07,-20.076,0,4.288e+07,-7.9903,11090,13678,1,13678,1,0.00040746,2.8548e-10,0,0.00045162,3.9811e-05,7.6436e+07,61.746,0,1.0597e+08,352.43,13677,1491.5,0,1491.5,0,0.00034607,5.4536e-08,0,0.000188,6.4609e-05,9.3232e+07,12080,0,4.7874e+07,8161.4,1491.5,1
4990,2.18,12381,1,12381,1,0.00010463,-5.0019e-09,0,0.00031005,-1.8975e-05,-3.1094e+06,-5.4611,0,8.0423e+07,2692.9,12380,15000,1,15000,1,0.00072094,3.3168e-07,0,0.00072094,8.9814e-05,1.2004e+08,1.1349e+05,0,1.9435e+08,54532,14999,12382,1,12382,1,9.8824e-05,9.6766e-11,0,0.00030041,-1.787e-05,2.4577e+07,24.374,0,7.6788e+07,1.1607,12381,9753,1,9753,1,-0.00047785,-4.0359e-07,0,9.5545e-06,-0.00013416,-1.9435e+08,-61942,0,2.3151e+06,-9218.4,9752,11091,1,11091,1,-0.00021169,-8.0695e-11,0,0.00014318,-7.5836e-05,-8.608e+07,-19.733,0,4.3078e+07,-9.7505,11090,13678,1,13678,1,0.00040934,2.7632e-10,0,0.0004537,3.9994e-05,7.6788e+07,57.844,0,1.0646e+08,353.57,13677,1491.5,0,1491.5,0,0.00034766,5.4778e-08,0,0.00018887,6.4907e-05,9.3662e+07,12136,0,4.8095e+07,8202.4,1491.5,1
4990,2.19,12381,1,12381,1,0.00010511,-5.1151e-09,0,0.00031147,-1.9062e-05,-3.1237e+06,-25.291,0,8.0792e+07,2705.6,12380,15000,1,15000,1,0.00072425,3.3314e-07,0,0.00072425,9.0225e-05,1.206e+08,1.1399e+05,0,1.9524e+08,54767,14999,12382,1,12382,1,9.9277e-05,-1.4463e-11,0,0.00030179,-1.7951e-05,2.469e+07,-3.8531,0,7.714e+07,1.7295,12381,9753,1,9753,1,-0.00048004,-4.0553e-07,0,9.5986e-06,-0.00013477,-1.9524e+08,-62240,0,2.3258e+06,-9250.2,9752,11091,1,11091,1,-0.00021266,-1.3342e-10,0,0.00014384,-7.6184e-05,-8.6475e+07,-29.697,0,4.3275e+07,-7.7929,11090,13678,1,13678,1,0.00041122,1.1317e-10,0,0.00045578,4.0177e-05,7.714e+07,24.223,0,1.0695e+08,356.93,13677,1491.5,0,1491.5,0,0.00034926,5.5037e-08,0,0.00018974,6.5204e-05,9.4091e+07,12191,0,4.8315e+07,8238.7,1491.5,1
4990,2.2,12381,1,12381,1,0.00010559,-5.0461e-09,0,0.00031289,-1.9149e-05,-3.138e+06,-5.4171,0,8.1161e+07,2718.9,12380,15000,1,15000,1,0.00072755,3.3461e-07,0,0.00072755,9.0638e-05,1.2115e+08,1.145e+05,0,1.9613e+08,55042,14999,12382,1,12382,1,9.9731e-05,1.2951e-10,0,0.00030317,-1.8034e-05,2.4803e+07,33.256,0,7.7492e+07,1.6822,12381,9753,1,9753,1,-0.00048224,-4.0754e-07,0,9.6424e-06,-0.00013539,-1.9613e+08,-62554,0,2.3364e+06,-9305.5,9752,11091,1,11091,1,-0.00021363,-9.0114e-11,0,0.0001445,-7.6532e-05,-8.687e+07,-22.76,0,4.3473e+07,-9.3109,11090,13678,1,13678,1,0.0004131,3.617e-10,0,0.00045786,4.0361e-05,7.7492e+07,73.068,0,1.0744e+08,357.35,13677,1491.5,0,1491.5,0,0.00035085,5.5309e-08,0,0.0001906,6.5502e-05,9.4521e+07,12247,0,4.8536e+07,8278.5,1491.5,1
4990,2.21,12381,1,12381,1,0.00010607,-5.1222e-09,0,0.00031431,-1.9236e-05,-3.1522e+06,-16.931,0,8.153e+07,2730.1,12380,15000,1,15000,1,0.00073086,3.3622e-07,0,0.00073086,9.105e-05,1.217e+08,1.1505e+05,0,1.9702e+08,55287,14999,12382,1,12382,1,0.00010018,7.1453e-11,0,0.00030455,-1.8116e-05,2.4915e+07,17.201,0,7.7844e+07,0.94271,12381,9753,1,9753,1,-0.00048443,-4.0917e-07,0,9.6864e-06,-0.00013601,-1.9702e+08,-62799,0,2.3471e+06,-9381.4,9752,11091,1,11091,1,-0.0002146,-1.7588e-10,0,0.00014515,-7.688e-05,-8.7265e+07,-42.611,0,4.367e+07,-9.5989,11090,13678,1,13678,1,0.00041497,2.2546e-10,0,0.00045994,4.0544e-05,7.7844e+07,48.338,0,1.0793e+08,355.59,13677,1491.5,0,1491.5,0,0.00035245,5.5525e-08,0,0.00019147,6.58e-05,9.4951e+07,12302,0,4.8756e+07,8312.8,1491.5,1
4990,2.22,12381,1,12381,1,0.00010655,-5.1156e-09,0,0.00031573,-1.9323e-05,-3.1665e+06,-10.198,0,8.1899e+07,2743.4,12380,15000,1,15000,1,0.00073417,3.3777e-07,0,0.00073417,9.1462e-05,1.2225e+08,1.1558e+05,0,1.9791e+08,55522,14999,12382,1,12382,1,0.00010064,5.671e-11,0,0.00030592,-1.8198e-05,2.5028e+07,13.363,0,7.8196e+07,1.6482,12381,9753,1,9753,1,-0.00048662,-4.1096e-07,0,9.7303e-06,-0.00013662,-1.9791e+08,-63074,0,2.3577e+06,-9366.6,9752,11091,1,11091,1,-0.00021558,-6.2872e-11,0,0.00014581,-7.7228e-05,-8.766e+07,-15.06,0,4.3868e+07,-6.7629,11090,13678,1,13678,1,0.00041685,1.8344e-10,0,0.00046203,4.0728e-05,7.8196e+07,39.487,0,1.0841e+08,355.38,13677,1491.5,0,1491.5,0,0.00035404,5.5782e-08,0,0.00019234,6.6098e-05,9.538e+07,12358,0,4.8977e+07,8353.2,1491.5,1
4990,2.23,12381,1,12381,1,0.00010703,-5.1704e-09,0,0.00031716,-1.941e-05,-3.1807e+06,-17.33,0,8.2267e+07,2754.5,12380,15000,1,15000,1,0.00073748,3.3924e-07,0,0.00073748,9.1874e-05,1.228e+08,1.1608e+05,0,1.988e+08,55771,14999,12382,1,12382,1,0.00010109,1.4285e-11,0,0.0003073,-1.828e-05,2.5141e+07,3.0993,0,7.8548e+07,1.7898,12381,9753,1,9753,1,-0.00048881,-4.1281e-07,0,9.7743e-06,-0.00013724,-1.988e+08,-63356,0,2.3684e+06,-9403.2,9752,11091,1,11091,1,-0.00021655,-1.0631e-10,0,0.00014647,-7.7575e-05,-8.8054e+07,-24.742,0,4.4065e+07,-9.2946,11090,13678,1,13678,1,0.00041873,2.0505e-10,0,0.00046411,4.0911e-05,7.8548e+07,45.335,0,1.089e+08,361.91,13677,1491.5,0,1491.5,0,0.00035564,5.6025e-08,0,0.0001932,6.6396e-05,9.581e+07,12413,0,4.9198e+07,8390.1,1491.5,1
4990,2.24,12381,1,12381,1,0.00010751,-5.1513e-09,0,0.00031858,-1.9497e-05,-3.195e+06,-7.7016,0,8.2636e+07,2769.2,12380,15000,1,15000,1,0.00074078,3.4075e-07,0,0.00074078,9.2286e-05,1.2335e+08,1.166e+05,0,1.9969e+08,56027,14999,12382,1,12382,1,0.00010154,7.5317e-11,0,0.00030868,-1.8361e-05,2.5254e+07,16.869,0,7.89e+07,1.4872,12381,9753,1,9753,1,-0.000491,-4.1481e-07,0,9.8182e-06,-0.00013785,-1.9969e+08,-63665,0,2.379e+06,-9469.2,9752,11091,1,11091,1,-0.00021752,-3.3137e-11,0,0.00014712,-7.7923e-05,-8.8449e+07,-8.4484,0,4.4263e+07,-6.2712,11090,13678,1,13678,1,0.00042061,2.3622e-10,0,0.00046619,4.1095e-05,7.89e+07,51.674,0,1.0939e+08,365.39,13677,1491.5,0,1491.5,0,0.00035723,5.6306e-08,0,0.00019407,6.6693e-05,9.624e+07,12470,0,4.9418e+07,8427.5,1491.5,1
4990,2.25,12381,1,12381,1,0.00010799,-5.1682e-09,0,0.00032,-1.9584e-05,-3.2093e+06,-7.4314,0,8.3005e+07,2779.3,12380,15000,1,15000,1,0.00074409,3.4231e-07,0,0.00074409,9.2698e-05,1.239e+08,1.1713e+05,0,2.0059e+08,56280,14999,12382,1,12382,1,0.000102,1.5189e-10,0,0.00031006,-1.8444e-05,2.5367e+07,36.581,0,7.9253e+07,1.1895,12381,9753,1,9753,1,-0.0004932,-4.1654e-07,0,9.8621e-06,-0.00013847,-2.0059e+08,-63926,0,2.3897e+06,-9536.5,9752,11091,1,11091,1,-0.00021849,-1.5827e-10,0,0.00014778,-7.8271e-05,-8.8844e+07,-38.509,0,4.4461e+07,-10.848,11090,13678,1,13678,1,0.00042249,4.1686e-10,0,0.00046827,4.1278e-05,7.9253e+07,83.24,0,1.0988e+08,360.63,13677,1491.5,0,1491.5,0,0.00035883,5.6523e-08,0,0.00019494,6.6991e-05,9.667e+07,12523,0,4.9639e+07,8464.6,1491.5,1
4990,2.26,12381,1,12381,1,0.00010847,-5.2941e-09,0,0.00032142,-1.9671e-05,-3.2235e+06,-29.655,0,8.3374e+07,2789.2,12380,15000,1,15000,1,0.0007474,3.4388e-07,0,0.0007474,9.311e-05,1.2445e+08,1.1767e+05,0,2.0148e+08,56510,14999,12382,1,12382,1,0.00010245,-1.9327e-11,0,0.00031144,-1.8526e-05,2.5479e+07,-4.7994,0,7.9605e+07,0.95585,12381,9753,1,9753,1,-0.00049539,-4.1835e-07,0,9.906e-06,-0.00013908,-2.0148e+08,-64193,0,2.4003e+06,-9526,9752,11091,1,11091,1,-0.00021946,-2.2173e-10,0,0.00014844,-7.8619e-05,-8.9239e+07,-53.547,0,4.4658e+07,-11.593,11090,13678,1,13678,1,0.00042436,9.7391e-11,0,0.00047035,4.1462e-05,7.9605e+07,21.32,0,1.1037e+08,362.41,13677,1491.5,0,1491.5,0,0.00036042,5.6763e-08,0,0.0001958,6.7289e-05,9.7099e+07,12580,0,4.986e+07,8498.6,1491.5,1
4990,2.27,12381,1,12381,1,0.00010895,-5.3036e-09,0,0.00032285,-1.9758e-05,-3.2378e+06,-26.794,0,8.3743e+07,2802.7,12380,15000,1,15000,1,0.00075071,3.4533e-07,0,0.00075071,9.3521e-05,1.25e+08,1.1816e+05,0,2.0237e+08,56764,14999,12382,1,12382,1,0.0001029,9.3906e-12,0,0.00031281,-1.8607e-05,2.5592e+07,2.1241,0,7.9957e+07,-0.61229,12381,9753,1,9753,1,-0.00049758,-4.2025e-07,0,9.9499e-06,-0.0001397,-2.0237e+08,-64499,0,2.411e+06,-9603.2,9752,11091,1,11091,1,-0.00022043,-1.8411e-10,0,0.0001491,-7.8967e-05,-8.9633e+07,-45.782,0,4.4856e+07,-11.356,11090,13678,1,13678,1,0.00042624,1.3789e-10,0,0.00047243,4.1645e-05,7.9957e+07,30.535,0,1.1086e+08,364.79,13677,1491.5,0,1491.5,0,0.00036202,5.7032e-08,0,0.00019667,6.7586e-05,9.7528e+07,12636,0,5.008e+07,8539.4,1491.5,1
4990,2.28,12381,1,12381,1,0.00010943,-5.2659e-09,0,0.00032427,-1.9845e-05,-3.2521e+06,-13.438,0,8.4112e+07,2818.7,12380,15000,1,15000,1,0.00075401,3.4682e-07,0,0.00075401,9.3934e-05,1.2555e+08,1.1868e+05,0,2.0326e+08,57010,14999,12382,1,12382,1,0.00010336,7.685e-11,0,0.00031419,-1.8689e-05,2.5705e+07,18.751,0,8.0309e+07,0.46759,12381,9753,1,9753,1,-0.00049977,-4.2223e-07,0,9.9938e-06,-0.00014031,-2.0326e+08,-64804,0,2.4216e+06,-9667.8,9752,11091,1,11091,1,-0.0002214,-8.7931e-11,0,0.00014975,-7.9315e-05,-9.0028e+07,-20.539,0,4.5053e+07,-5.15,11090,13678,1,13678,1,0.00042812,2.9743e-10,0,0.00047451,4.1829e-05,8.0308e+07,60.876,0,1.1134e+08,377.15,13677,1491.5,0,1491.5,0,0.00036361,5.7317e-08,0,0.00019754,6.7884e-05,9.7958e+07,12691,0,5.0301e+07,8573.1,1491.5,1
4990,2.29,12381,1,12381,1,0.00010991,-5.2505e-09,0,0.00032569,-1.9933e-05,-3.2664e+06,-5.2154,0,8.4481e+07,2829.2,12380,15000,1,15000,1,0.00075732,3.4827e-07,0,0.00075732,9.4346e-05,1.261e+08,1.1917e+05,0,2.0415e+08,57286,14999,12382,1,12382,1,0.00010381,1.8375e-10,0,0.00031557,-1.8772e-05,2.5818e+07,44.608,0,8.0661e+07,-1.1681,12381,9753,1,9753,1,-0.00050196,-4.2418e-07,0,1.0038e-05,-0.00014093,-2.0415e+08,-65108,0,2.4322e+06,-9675.7,9752,11091,1,11091,1,-0.00022237,-2.0718e-10,0,0.00015041,-7.9663e-05,-9.0423e+07,-51.089,0,4.5251e+07,-15.242,11090,13678,1,13678,1,0.00043,5.6725e-10,0,0.00047659,4.2012e-05,8.0661e+07,114.52,0,1.1183e+08,366.54,13677,1491.5,0,1491.5,0,0.00036521,5.757e-08,0,0.0001984,6.8182e-05,9.8388e+07,12749,0,5.0521e+07,8618.4,1491.5,1
4990,2.3,12381,1,12381,1,0.00011039,-5.3707e-09,0,0.00032711,-2.002e-05,-3.2806e+06,-26.669,0,8.4849e+07,2842.4,12380,15000,1,15000,1,0.00076063,3.4977e-07,0,0.00076063,9.4757e-05,1.2665e+08,1.1969e+05,0,2.0504e+08,57521,14999,12382,1,12382,1,0.00010426,6.6313e-11,0,0.00031695,-1.8853e-05,2.593e+07,14.955,0,8.1012e+07,2.4169,12381,9753,1,9753,1,-0.00050415,-4.261e-07,0,1.0082e-05,-0.00014154,-2.0504e+08,-65401,0,2.4429e+06,-9749.1,9752,11091,1,11091,1,-0.00022334,-1.1611e-10,0,0.00015107,-8.0011e-05,-9.0818e+07,-28.163,0,4.5448e+07,-7.3505,11090,13678,1,13678,1,0.00043187,2.079e-10,0,0.00047867,4.2195e-05,8.1012e+07,44.816,0,1.1232e+08,367.76,13677,1491.5,0,1491.5,0,0.0003668,5.7829e-08,0,0.00019927,6.848e-05,9.8817e+07,12803,0,5.0742e+07,8651.7,1491.5,1
4990,2.31,12381,1,12381,1,0.00011087,-5.4036e-09,0,0.00032853,-2.0107e-05,-3.2949e+06,-28.468,0,8.5218e+07,2855.1,12380,15000,1,15000,1,0.00076394,3.5137e-07,0,0.00076394,9.5169e-05,1.272e+08,1.2023e+05,0,2.0593e+08,57774,14999,12382,1,12382,1,0.00010472,-1.1782e-11,0,0.00031832,-1.8935e-05,2.6043e+07,-2.6668,0,8.1364e+07,2.8083,12381,9753,1,9753,1,-0.00050634,-4.2781e-07,0,1.0126e-05,-0.00014216,-2.0593e+08,-65659,0,2.4536e+06,-9782,9752,11091,1,11091,1,-0.00022431,-1.4672e-10,0,0.00015172,-8.0358e-05,-9.1213e+07,-31.792,0,4.5646e+07,-6.6739,11090,13678,1,13678,1,0.00043375,1.5501e-10,0,0.00048075,4.2379e-05,8.1364e+07,34.933,0,1.1281e+08,374.01,13677,1491.5,0,1491.5,0,0.0003684,5.8062e-08,0,0.00020013,6.8777e-05,9.9247e+07,12858,0,5.0962e+07,8690.2,1491.5,1
4990,2.32,12381,1,12381,1,0.00011135,-5.3753e-09,0,0.00032996,-2.0194e-05,-3.3091e+06,-16.652,0,8.5587e+07,2864.1,12380,15000,1,15000,1,0.00076724,3.5298e-07,0,0.00076724,9.5581e-05,1.2775e+08,1.2078e+05,0,2.0683e+08,57996,14999,12382,1,12382,1,0.00010517,7.864e-12,0,0.0003197,-1.9017e-05,2.6156e+07,2.0411,0,8.1716e+07,-0.181,12381,9753,1,9753,1,-0.00050854,-4.2942e-07,0,1.017e-05,-0.00014278,-2.0683e+08,-65906,0,2.4643e+06,-9828.8,9752,11091,1,11091,1,-0.00022529,-1.0178e-10,0,0.00015238,-8.0706e-05,-9.1608e+07,-21.256,0,4.5844e+07,-9.1279,11090,13678,1,13678,1,0.00043563,1.1494e-10,0,0.00048284,4.2562e-05,8.1716e+07,26.746,0,1.133e+08,373.11,13677,1491.5,0,1491.5,0,0.00036999,5.8285e-08,0,0.000201,6.9075e-05,9.9676e+07,12915,0,5.1183e+07,8724.7,1491.5,1
4990,2.33,12381,1,12381,1,0.00011183,-5.3787e-09,0,0.00033138,-2.0281e-05,-3.3234e+06,-12.746,0,8.5956e+07,2878.2,12380,15000,1,15000,1,0.00077055,3.5453e-07,0,0.00077055,9.5993e-05,1.283e+08,1.2131e+05,0,2.0772e+08,58280,14999,12382,1,12382,1,0.00010563,5.9856e-11,0,0.00032108,-1.9099e-05,2.6269e+07,15.5,0,8.2069e+07,-0.39379,12381,9753,1,9753,1,-0.00051073,-4.3125e-07,0,1.0214e-05,-0.00014339,-2.0772e+08,-66186,0,2.4749e+06,-9867.2,9752,11091,1,11091,1,-0.00022626,-1.4942e-10,0,0.00015304,-8.1054e-05,-9.2002e+07,-35.286,0,4.6041e+07,-11.509,11090,13678,1,13678,1,0.00043751,2.1036e-10,0,0.00048492,4.2746e-05,8.2069e+07,49.225,0,1.1379e+08,373.83,13677,1491.5,0,1491.5,0,0.00037159,5.8534e-08,0,0.00020187,6.9373e-05,1.0011e+08,12971,0,5.1404e+07,8767.9,1491.5,1
4990,2.34,12381,1,12381,1,0.00011231,-5.4073e-09,0,0.0003328,-2.0368e-05,-3.3376e+06,-14.655,0,8.6325e+07,2890.5,12380,15000,1,15000,1,0.00077386,3.5612e-07,0,0.00077386,9.6406e-05,1.2886e+08,1.2186e+05,0,2.0861e+08,58548,14999,12382,1,12382,1,0.00010608,9.0461e-11,0,0.00032246,-1.9181e-05,2.6381e+07,22.428,0,8.2421e+07,0.32621,12381,9753,1,9753,1,-0.00051292,-4.3304e-07,0,1.0258e-05,-0.00014401,-2.0861e+08,-66459,0,2.4856e+06,-9902.1,9752,11091,1,11091,1,-0.00022723,-1.7388e-10,0,0.00015369,-8.1402e-05,-9.2397e+07,-43.652,0,4.6239e+07,-12.1,11090,13678,1,13678,1,0.00043939,2.9396e-10,0,0.000487,4.2929e-05,8.2421e+07,58.048,0,1.1428e+08,376.11,13677,1491.5,0,1491.5,0,0.00037318,5.8777e-08,0,0.00020273,6.9671e-05,1.0054e+08,13027,0,5.1624e+07,8804.6,1491.5,1
4990,2.35,12381,1,12381,1,0.00011279,-5.3777e-09,0,0.00033422,-2.0455e-05,-3.3519e+06,-2.3017,0,8.6694e+07,2904.1,12380,15000,1,15000,1,0.00077716,3.5756e-07,0,0.00077716,9.6817e-05,1.2941e+08,1.2235e+05,0,2.095e+08,58783,14999,12382,1,12382,1,0.00010653,1.0554e-10,0,0.00032384,-1.9263e-05,2.6494e+07,26.778,0,8.2773e+07,1.4704,12381,9753,1,9753,1,-0.00051511,-4.3499e-07,0,1.0301e-05,-0.00014462,-2.095e+08,-66760,0,2.4962e+06,-9931.7,9752,11091,1,11091,1,-0.0002282,-3.2294e-11,0,0.00015435,-8.175e-05,-9.2792e+07,-8.6635,0,4.6436e+07,-8.1581,11090,13678,1,13678,1,0.00044126,2.4021e-10,0,0.00048908,4.3113e-05,8.2773e+07,52.266,0,1.1476e+08,376.7,13677,1491.5,0,1491.5,0,0.00037478,5.9045e-08,0,0.0002036,6.9968e-05,1.0097e+08,13081,0,5.1845e+07,8841,1491.5,1
4990,2.36,12381,1,12381,1,0.00011327,-5.5119e-09,0,0.00033565,-2.0542e-05,-3.3662e+06,-26.95,0,8.7063e+07,2916.3,12380,15000,1,15000,1,0.00078047,3.5902e-07,0,0.00078047,9.7229e-05,1.2996e+08,1.2285e+05,0,2.1039e+08,59004,14999,12382,1,12382,1,0.00010699,-2.3035e-11,0,0.00032521,-1.9345e-05,2.6607e+07,-5.8416,0,8.3124e+07,0.73071,12381,9753,1,9753,1,-0.0005173,-4.3691e-07,0,1.0345e-05,-0.00014524,-2.1039e+08,-67054,0,2.5069e+06,-9966,9752,11091,1,11091,1,-0.00022917,-1.683e-10,0,0.00015501,-8.2098e-05,-9.3187e+07,-35.157,0,4.6634e+07,-7.8277,11090,13678,1,13678,1,0.00044314,6.8005e-11,0,0.00049116,4.3296e-05,8.3124e+07,18.62,0,1.1525e+08,385.3,13677,1491.5,0,1491.5,0,0.00037637,5.9293e-08,0,0.00020447,7.0266e-05,1.0139e+08,13136,0,5.2065e+07,8879.4,1491.5,1
4990,2.37,12381,1,12381,1,0.00011375,-5.4794e-09,0,0.00033707,-2.0629e-05,-3.3804e+06,-15.132,0,8.7431e+07,2930.2,12380,15000,1,15000,1,0.00078378,3.6045e-07,0,0.00078378,9.7641e-05,1.3051e+08,1.2334e+05,0,2.1128e+08,59276,14999,12382,1,12382,1,0.00010744,9.8907e-11,0,0.00032659,-1.9427e-05,2.6719e+07,22.423,0,8.3476e+07,2.7873,12381,9753,1,9753,1,-0.0005195,-4.3899e-07,0,1.0389e-05,-0.00014585,-2.1128e+08,-67378,0,2.5175e+06,-10017,9752,11091,1,11091,1,-0.00023014,-7.3481e-11,0,0.00015566,-8.2446e-05,-9.3581e+07,-19.177,0,4.6831e+07,-8.8615,11090,13678,1,13678,1,0.00044502,3.294e-10,0,0.00049324,4.3479e-05,8.3476e+07,70.689,0,1.1574e+08,391.64,13677,1491.5,0,1491.5,0,0.00037796,5.9583e-08,0,0.00020533,7.0564e-05,1.0182e+08,13193,0,5.2286e+07,8917.4,1491.5,1
4990,2.38,12381,1,12381,1,0.00011423,-5.5258e-09,0,0.00033849,-2.0716e-05,-3.3947e+06,-20.611,0,8.7801e+07,2938.3,12380,15000,1,15000,1,0.00078708,3.6198e-07,0,0.00078708,9.8053e-05,1.3106e+08,1.2386e+05,0,2.1217e+08,59516,14999,12382,1,12382,1,0.00010789,1.319e-10,0,0.00032797,-1.9509e-05,2.6832e+07,29.694,0,8.3829e+07,1.9609,12381,9753,1,9753,1,-0.00052169,-4.4083e-07,0,1.0433e-05,-0.00014647,-2.1217e+08,-67661,0,2.5282e+06,-10084,9752,11091,1,11091,1,-0.00023111,-1.0456e-10,0,0.00015632,-8.2794e-05,-9.3977e+07,-27.901,0,4.7029e+07,-12.295,11090,13678,1,13678,1,0.0004469,3.8912e-10,0,0.00049532,4.3663e-05,8.3828e+07,79.352,0,1.1623e+08,383.9,13677,1491.5,0,1491.5,0,0.00037956,5.9824e-08,0,0.0002062,7.0862e-05,1.0225e+08,13249,0,5.2507e+07,8952.8,1491.5,1
4990,2.39,12381,1,12381,1,0.00011471,-5.5186e-09,0,0.00033991,-2.0803e-05,-3.409e+06,-14.157,0,8.8169e+07,2954.1,12380,15000,1,15000,1,0.00079039,3.6332e-07,0,0.00079039,9.8465e-05,1.3161e+08,1.2432e+05,0,2.1307e+08,59799,14999,12382,1,12382,1,0.00010835,1.8344e-10,0,0.00032935,-1.9591e-05,2.6945e+07,46.662,0,8.418e+07,1.0088,12381,9753,1,9753,1,-0.00052388,-4.4307e-07,0,1.0477e-05,-0.00014708,-2.1307e+08,-68015,0,2.5388e+06,-10100,9752,11091,1,11091,1,-0.00023208,-1.1241e-10,0,0.00015698,-8.3141e-05,-9.4371e+07,-28.908,0,4.7227e+07,-13.556,11090,13678,1,13678,1,0.00044877,4.9559e-10,0,0.0004974,4.3846e-05,8.418e+07,100.18,0,1.1672e+08,397.27,13677,1491.5,0,1491.5,0,0.00038115,6.0139e-08,0,0.00020707,7.1159e-05,1.0268e+08,13307,0,5.2727e+07,8995.6,1491.5,1
4990,2.4,12381,1,12381,1,0.00011519,-5.5857e-09,0,0.00034133,-2.089e-05,-3.4232e+06,-23.503,0,8.8538e+07,2965.7,12380,15000,1,15000,1,0.0007937,3.6498e-07,0,0.0007937,9.8877e-05,1.3216e+08,1.2489e+05,0,2.1396e+08,60013,14999,12382,1,12382,1,0.0001088,6.1396e-11,0,0.00033072,-1.9673e-05,2.7058e+07,13.574,0,8.4532e+07,1.015,12381,9753,1,9753,1,-0.00052607,-4.446e-07,0,1.0521e-05,-0.0001477,-2.1396e+08,-68242,0,2.5495e+06,-10177,9752,11091,1,11091,1,-0.00023305,-7.5797e-11,0,0.00015764,-8.3489e-05,-9.4766e+07,-19.26,0,4.7424e+07,-7.6333,11090,13678,1,13678,1,0.00045065,2.1634e-10,0,0.00049949,4.403e-05,8.4532e+07,47.292,0,1.172e+08,395.72,13677,1491.5,0,1491.5,0,0.00038275,6.0347e-08,0,0.00020793,7.1457e-05,1.0311e+08,13360,0,5.2948e+07,9027.3,1491.5,1
4990,2.41,12381,1,12381,1,0.00011567,-5.4944e-09,0,0.00034276,-2.0977e-05,-3.4375e+06,2.657,0,8.8907e+07,2979.2,12380,15000,1,15000,1,0.00079701,3.6674e-07,0,0.00079701,9.9289e-05,1.3271e+08,1.2549e+05,0,2.1485e+08,60277,14999,12382,1,12382,1,0.00010925,1.6823e-11,0,0.0003321,-1.9755e-05,2.7171e+07,4.1827,0,8.4884e+07,2.4037,12381,9753,1,9753,1,-0.00052826,-4.4603e-07,0,1.0565e-05,-0.00014831,-2.1485e+08,-68451,0,2.5601e+06,-10194,9752,11091,1,11091,1,-0.00023402,-1.1697e-10,0,0.00015829,-8.3837e-05,-9.5161e+07,-26.663,0,4.7622e+07,-4.8638,11090,13678,1,13678,1,0.00045253,2.4081e-10,0,0.00050157,4.4213e-05,8.4884e+07,58.027,0,1.1769e+08,395.77,13677,1491.5,0,1491.5,0,0.00038434,6.0553e-08,0,0.0002088,7.1755e-05,1.0354e+08,13415,0,5.3168e+07,9066.6,1491.5,1
4990,2.42,12381,1,12381,1,0.00011615,-5.646e-09,0,0.00034418,-2.1064e-05,-3.4518e+06,-26.102,0,8.9276e+07,2992.1,12380,15000,1,15000,1,0.00080031,3.6809e-07,0,0.00080031,9.9701e-05,1.3326e+08,1.2595e+05,0,2.1574e+08,60518,14999,12382,1,12382,1,0.00010971,6.0538e-11,0,0.00033348,-1.9837e-05,2.7283e+07,14.111,0,8.5236e+07,3.7359,12381,9753,1,9753,1,-0.00053046,-4.482e-07,0,1.0609e-05,-0.00014893,-2.1574e+08,-68791,0,2.5708e+06,-10245,9752,11091,1,11091,1,-0.00023499,-7.8774e-11,0,0.00015895,-8.4185e-05,-9.5556e+07,-19.793,0,4.7819e+07,-4.0647,11090,13678,1,13678,1,0.00045441,1.8206e-10,0,0.00050365,4.4397e-05,8.5236e+07,39.071,0,1.1818e+08,398.76,13677,1491.5,0,1491.5,0,0.00038594,6.0839e-08,0,0.00020966,7.2052e-05,1.0397e+08,13471,0,5.3389e+07,9103.1,1491.5,1
4990,2.43,12381,1,12381,1,0.00011663,-5.5404e-09,0,0.0003456,-2.1151e-05,-3.4661e+06,1.8938,0,8.9645e+07,3003.3,12380,15000,1,15000,1,0.00080362,3.6967e-07,0,0.00080362,0.00010011,1.3381e+08,1.265e+05,0,2.1663e+08,60777,14999,12382,1,12382,1,0.00011016,1.8064e-10,0,0.00033486,-1.9919e-05,2.7396e+07,45.996,0,8.5589e+07,1.7644,12381,9753,1,9753,1,-0.00053265,-4.4992e-07,0,1.0653e-05,-0.00014955,-2.1663e+08,-69054,0,2.5815e+06,-10292,9752,11091,1,11091,1,-0.00023597,-3.4422e-11,0,0.00015961,-8.4533e-05,-9.5951e+07,-9.4625,0,4.8017e+07,-7.0686,11090,13678,1,13678,1,0.00045628,4.0072e-10,0,0.00050573,4.458e-05,8.5588e+07,82.163,0,1.1867e+08,391.37,13677,1491.5,0,1491.5,0,0.00038753,6.108e-08,0,0.00021053,7.235e-05,1.044e+08,13527,0,5.361e+07,9141,1491.5,1
4990,2.44,12381,1,12381,1,0.00011711,-5.6885e-09,0,0.00034702,-2.1238e-05,-3.4803e+06,-25.57,0,9.0014e+07,3015.6,12380,15000,1,15000,1,0.00080693,3.7108e-07,0,0.00080693,0.00010052,1.3436e+08,1.2698e+05,0,2.1752e+08,61042,14999,12382,1,12382,1,0.00011061,4.4698e-12,0,0.00033624,-2.0001e-05,2.7509e+07,1.132,0,8.594e+07,2.5388,12381,9753,1,9753,1,-0.00053484,-4.5197e-07,0,1.0697e-05,-0.00015016,-2.1752e+08,-69369,0,2.5922e+06,-10345,9752,11091,1,11091,1,-0.00023694,-1.188e-10,0,0.00016026,-8.4881e-05,-9.6345e+07,-25.332,0,4.8214e+07,-7.6716,11090,13678,1,13678,1,0.00045816,1.9e-10,0,0.00050781,4.4763e-05,8.594e+07,40.815,0,1.1916e+08,397.61,13677,1491.5,0,1491.5,0,0.00038913,6.1345e-08,0,0.0002114,7.2648e-05,1.0483e+08,13582,0,5.383e+07,9180.6,1491.5,1
4990,2.45,12381,1,12381,1,0.00011759,-5.6778e-09,0,0.00034845,-2.1325e-05,-3.4946e+06,-18.77,0,9.0383e+07,3025.6,12380,15000,1,15000,1,0.00081023,3.727e-07,0,0.00081023,0.00010094,1.3491e+08,1.2753e+05,0,2.1841e+08,61269,14999,12382,1,12382,1,0.00011107,5.234e-11,0,0.00033762,-2.0083e-05,2.7622e+07,13.468,0,8.6292e+07,0.59876,12381,9753,1,9753,1,-0.00053703,-4.5357e-07,0,1.0741e-05,-0.00015078,-2.1841e+08,-69615,0,2.6027e+06,-10414,9752,11091,1,11091,1,-0.00023791,-2.3113e-10,0,0.00016092,-8.5229e-05,-9.674e+07,-53.309,0,4.8412e+07,-10.276,11090,13678,1,13678,1,0.00046004,3.331e-10,0,0.00050989,4.4947e-05,8.6292e+07,66.608,0,1.1965e+08,388.42,13677,1491.5,0,1491.5,0,0.00039072,6.1556e-08,0,0.00021226,7.2946e-05,1.0526e+08,13638,0,5.4051e+07,9215.6,1491.5,1
4990,2.46,12381,1,12381,1,0.00011807,-5.5718e-09,0,0.00034987,-2.1413e-05,-3.5088e+06,9.8114,0,9.0751e+07,3039.1,12380,15000,1,15000,1,0.00081354,3.741e-07,0,0.00081354,0.00010135,1.3546e+08,1.2801e+05,0,2.1931e+08,61513,14999,12382,1,12382,1,0.00011152,2.0181e-10,0,0.00033899,-2.0165e-05,2.7734e+07,52.703,0,8.6644e+07,2.3683,12381,9753,1,9753,1,-0.00053923,-4.5568e-07,0,1.0785e-05,-0.00015139,-2.1931e+08,-69942,0,2.6134e+06,-10401,9752,11091,1,11091,1,-0.00023888,-2.6655e-11,0,0.00016158,-8.5577e-05,-9.7135e+07,-7.1602,0,4.861e+07,-8.9701,11090,13678,1,13678,1,0.00046192,4.6282e-10,0,0.00051197,4.513e-05,8.6644e+07,95.053,0,1.2014e+08,391.5,13677,1491.5,0,1491.5,0,0.00039232,6.1856e-08,0,0.00021313,7.3243e-05,1.0569e+08,13693,0,5.4272e+07,9253.2,1491.5,1
4990,2.47,12381,1,12381,1,0.00011855,-5.5808e-09,0,0.00035129,-2.15e-05,-3.5231e+06,12.655,0,9.112e+07,3054.5,12380,15000,1,15000,1,0.00081685,3.7555e-07,0,0.00081685,0.00010176,1.3601e+08,1.2851e+05,0,2.202e+08,61797,14999,12382,1,12382,1,0.00011197,2.6139e-10,0,0.00034037,-2.0247e-05,2.7847e+07,66.437,0,8.6996e+07,3.1989,12381,9753,1,9753,1,-0.00054142,-4.5777e-07,0,1.0829e-05,-0.00015201,-2.202e+08,-70266,0,2.6241e+06,-10458,9752,11091,1,11091,1,-0.00023985,-2.5431e-11,0,0.00016223,-8.5924e-05,-9.753e+07,-7.1009,0,4.8807e+07,-7.9738,11090,13678,1,13678,1,0.00046379,5.7971e-10,0,0.00051406,4.5314e-05,8.6996e+07,116.13,0,1.2062e+08,399.67,13677,1491.5,0,1491.5,0,0.00039391,6.214e-08,0,0.000214,7.3541e-05,1.0612e+08,13751,0,5.4492e+07,9294.6,1491.5,1
4990,2.48,12381,1,12381,1,0.00011903,-5.708e-09,0,0.00035271,-2.1587e-05,-3.5374e+06,-10.13,0,9.1489e+07,3066.5,12380,15000,1,15000,1,0.00082015,3.7707e-07,0,0.00082015,0.00010217,1.3656e+08,1.2903e+05,0,2.2109e+08,62033,14999,12382,1,12382,1,0.00011243,1.5663e-10,0,0.00034175,-2.0329e-05,2.796e+07,37.279,0,8.7348e+07,4.7181,12381,9753,1,9753,1,-0.00054361,-4.5956e-07,0,1.0873e-05,-0.00015262,-2.2109e+08,-70542,0,2.6348e+06,-10523,9752,11091,1,11091,1,-0.00024082,-5.854e-11,0,0.00016289,-8.6272e-05,-9.7924e+07,-15.761,0,4.9005e+07,-7.5907,11090,13678,1,13678,1,0.00046567,3.8449e-10,0,0.00051614,4.5497e-05,8.7348e+07,80.038,0,1.2111e+08,408.35,13677,1491.5,0,1491.5,0,0.00039551,6.2382e-08,0,0.00021486,7.3839e-05,1.0655e+08,13806,0,5.4713e+07,9330.2,1491.5,1
4990,2.49,12381,1,12381,1,0.00011951,-5.7295e-09,0,0.00035413,-2.1674e-05,-3.5516e+06,-9.4966,0,9.1858e+07,3077.1,12380,15000,1,15000,1,0.00082346,3.7875e-07,0,0.00082346,0.00010258,1.3712e+08,1.296e+05,0,2.2198e+08,62265,14999,12382,1,12382,1,0.00011288,1.0656e-10,0,0.00034313,-2.0411e-05,2.8073e+07,23.601,0,8.77e+07,1.8942,12381,9753,1,9753,1,-0.0005458,-4.6114e-07,0,1.0917e-05,-0.00015324,-2.2198e+08,-70778,0,2.6454e+06,-10571,9752,11091,1,11091,1,-0.00024179,-3.2289e-11,0,0.00016355,-8.662e-05,-9.8319e+07,-9.249,0,4.9202e+07,-6.0816,11090,13678,1,13678,1,0.00046755,2.7642e-10,0,0.00051822,4.5681e-05,8.77e+07,59.778,0,1.216e+08,410.16,13677,1491.5,0,1491.5,0,0.0003971,6.2602e-08,0,0.00021573,7.4136e-05,1.0698e+08,13861,0,5.4933e+07,9365.1,1491.5,1
4990,2.5,12381,1,12381,1,0.00011999,-5.7554e-09,0,0.00035556,-2.1761e-05,-3.5659e+06,-9.4253,0,9.2227e+07,3089.3,12380,15000,1,15000,1,0.00082677,3.8038e-07,0,0.00082677,0.000103,1.3767e+08,1.3016e+05,0,2.2287e+08,62512,14999,12382,1,12382,1,0.00011333,3.3979e-11,0,0.0003445,-2.0493e-05,2.8185e+07,8.3048,0,8.8052e+07,0.79963,12381,9753,1,9753,1,-0.00054799,-4.6278e-07,0,1.0961e-05,-0.00015385,-2.2287e+08,-71026,0,2.6561e+06,-10577,9752,11091,1,11091,1,-0.00024276,-5.4754e-11,0,0.0001642,-8.6968e-05,-9.8714e+07,-12.228,0,4.94e+07,-4.9148,11090,13678,1,13678,1,0.00046943,1.5427e-10,0,0.0005203,4.5864e-05,8.8052e+07,36.651,0,1.2209e+08,398.31,13677,1491.5,0,1491.5,0,0.0003987,6.2827e-08,0,0.0002166,7.4434e-05,1.0741e+08,13917,0,5.5154e+07,9402.7,1491.5,1
4990,2.51,12381,1,12381,1,0.00012047,-5.8223e-09,0,0.00035698,-2.1848e-05,-3.5801e+06,-19.611,0,9.2596e+07,3100,12380,15000,1,15000,1,0.00083008,3.8208e-07,0,0.00083008,0.00010341,1.3822e+08,1.3074e+05,0,2.2376e+08,62785,14999,12382,1,12382,1,0.00011379,-3.0149e-11,0,0.00034588,-2.0575e-05,2.8298e+07,-7.6563,0,8.8404e+07,1.3175,12381,9753,1,9753,1,-0.00055018,-4.6428e-07,0,1.1005e-05,-0.00015447,-2.2376e+08,-71249,0,2.6667e+06,-10645,9752,11091,1,11091,1,-0.00024373,-1.7731e-10,0,0.00016486,-8.7316e-05,-9.9109e+07,-36.664,0,4.9598e+07,-9.1925,11090,13678,1,13678,1,0.00047131,7.0076e-11,0,0.00052238,4.6048e-05,8.8404e+07,19.062,0,1.2258e+08,398.58,13677,1491.5,0,1491.5,0,0.00040029,6.3024e-08,0,0.00021746,7.4732e-05,1.0784e+08,13973,0,5.5375e+07,9443.4,1491.5,1
4990,2.52,12381,1,12381,1,0.00012095,-5.8742e-09,0,0.0003584,-2.1935e-05,-3.5944e+06,-26.046,0,9.2965e+07,3112.4,12380,15000,1,15000,1,0.00083339,3.8345e-07,0,0.00083339,0.00010382,1.3877e+08,1.3121e+05,0,2.2465e+08,63012,14999,12382,1,12382,1,0.00011424,-5.0044e-11,0,0.00034726,-2.0657e-05,2.8411e+07,-11.733,0,8.8756e+07,0.94877,12381,9753,1,9753,1,-0.00055237,-4.6634e-07,0,1.1049e-05,-0.00015509,-2.2465e+08,-71568,0,2.6774e+06,-10693,9752,11091,1,11091,1,-0.0002447,-2.0246e-10,0,0.00016552,-8.7664e-05,-9.9504e+07,-41.37,0,4.9795e+07,-7.6144,11090,13678,1,13678,1,0.00047319,6.8448e-11,0,0.00052446,4.6231e-05,8.8756e+07,17.11,0,1.2307e+08,403.05,13677,1491.5,0,1491.5,0,0.00040189,6.3297e-08,0,0.00021833,7.503e-05,1.0827e+08,14027,0,5.5595e+07,9478.3,1491.5,1
4990,2.53,12381,1,12381,1,0.00012143,-5.884e-09,0,0.00035982,-2.2022e-05,-3.6087e+06,-23.383,0,9.3333e+07,3126.2,12380,15000,1,15000,1,0.00083669,3.8484e-07,0,0.00083669,0.00010423,1.3932e+08,1.3168e+05,0,2.2555e+08,63264,14999,12382,1,12382,1,0.00011469,6.6517e-12,0,0.00034864,-2.0739e-05,2.8524e+07,1.5339,0,8.9108e+07,1.6682,12381,9753,1,9753,1,-0.00055457,-4.6849e-07,0,1.1093e-05,-0.0001557,-2.2555e+08,-71906,0,2.6881e+06,-10727,9752,11091,1,11091,1,-0.00024567,-9.4501e-11,0,0.00016618,-8.8012e-05,-9.9899e+07,-22.656,0,4.9993e+07,-7.8977,11090,13678,1,13678,1,0.00047506,1.4056e-10,0,0.00052654,4.6414e-05,8.9108e+07,29.713,0,1.2355e+08,414.66,13677,1491.5,0,1491.5,0,0.00040348,6.3596e-08,0,0.0002192,7.5328e-05,1.087e+08,14084,0,5.5816e+07,9518.4,1491.5,1
4990,2.54,12381,1,12381,1,0.00012191,-5.9273e-09,0,0.00036124,-2.2109e-05,-3.623e+06,-28.007,0,9.3702e+07,3141.3,12380,15000,1,15000,1,0.00084,3.8623e-07,0,0.00084,0.00010464,1.3987e+08,1.3216e+05,0,2.2644e+08,63522,14999,12382,1,12382,1,0.00011515,2.901e-11,0,0.00035001,-2.0821e-05,2.8636e+07,6.746,0,8.9459e+07,4.0854,12381,9753,1,9753,1,-0.00055676,-4.7067e-07,0,1.1136e-05,-0.00015631,-2.2644e+08,-72246,0,2.6987e+06,-10733,9752,11091,1,11091,1,-0.00024665,-9.0395e-11,0,0.00016683,-8.836e-05,-1.0029e+08,-23.132,0,5.019e+07,-6.69,11090,13678,1,13678,1,0.00047694,2.2591e-10,0,0.00052862,4.6598e-05,8.9459e+07,49.044,0,1.2404e+08,414.81,13677,1491.5,0,1491.5,0,0.00040508,6.3885e-08,0,0.00022006,7.5625e-05,1.0913e+08,14142,0,5.6036e+07,9558.3,1491.5,1
4990,2.55,12381,1,12381,1,0.00012239,-5.9482e-09,0,0.00036267,-2.2196e-05,-3.6372e+06,-27.37,0,9.4071e+07,3151.6,12380,15000,1,15000,1,0.00084331,3.8793e-07,0,0.00084331,0.00010506,1.4042e+08,1.3274e+05,0,2.2733e+08,63758,14999,12382,1,12382,1,0.0001156,6.584e-12,0,0.00035139,-2.0903e-05,2.8749e+07,1.5253,0,8.9812e+07,1.9131,12381,9753,1,9753,1,-0.00055895,-4.7212e-07,0,1.118e-05,-0.00015693,-2.2733e+08,-72461,0,2.7094e+06,-10811,9752,11091,1,11091,1,-0.00024762,-1.1838e-10,0,0.00016749,-8.8708e-05,-1.0069e+08,-27.962,0,5.0388e+07,-6.0474,11090,13678,1,13678,1,0.00047882,9.1154e-11,0,0.00053071,4.6781e-05,8.9812e+07,21.591,0,1.2453e+08,419.85,13677,1491.5,0,1491.5,0,0.00040667,6.4091e-08,0,0.00022093,7.5923e-05,1.0956e+08,14196,0,5.6257e+07,9592.1,1491.5,1
4990,2.56,12381,1,12381,1,0.00012287,-6.0144e-09,0,0.00036409,-2.2283e-05,-3.6515e+06,-37.097,0,9.444e+07,3164,12380,15000,1,15000,1,0.00084661,3.8942e-07,0,0.00084661,0.00010547,1.4097e+08,1.3325e+05,0,2.2822e+08,64034,14999,12382,1,12382,1,0.00011605,-2.3982e-12,0,0.00035277,-2.0985e-05,2.8862e+07,-0.63267,0,9.0164e+07,2.17,12381,9753,1,9753,1,-0.00056114,-4.7405e-07,0,1.1224e-05,-0.00015755,-2.2822e+08,-72758,0,2.7201e+06,-10831,9752,11091,1,11091,1,-0.00024859,-1.9119e-10,0,0.00016815,-8.9056e-05,-1.0108e+08,-45.07,0,5.0585e+07,-7.6363,11090,13678,1,13678,1,0.0004807,7.7755e-11,0,0.00053279,4.6965e-05,9.0164e+07,16.241,0,1.2502e+08,419.4,13677,1491.5,0,1491.5,0,0.00040827,6.4343e-08,0,0.00022179,7.6221e-05,1.0999e+08,14251,0,5.6478e+07,9631.4,1491.5,1
4990,2.57,12381,1,12381,1,0.00012335,-6.0048e-09,0,0.00036551,-2.237e-05,-3.6658e+06,-29.667,0,9.4809e+07,3177,12380,15000,1,15000,1,0.00084992,3.9093e-07,0,0.00084992,0.00010588,1.4152e+08,1.3377e+05,0,2.2911e+08,64258,14999,12382,1,12382,1,0.00011651,-5.067e-12,0,0.00035415,-2.1067e-05,2.8975e+07,-1.205,0,9.0515e+07,2.0121,12381,9753,1,9753,1,-0.00056333,-4.7589e-07,0,1.1268e-05,-0.00015816,-2.2911e+08,-73041,0,2.7307e+06,-10901,9752,11091,1,11091,1,-0.00024956,-1.0892e-10,0,0.0001688,-8.9403e-05,-1.0148e+08,-26.084,0,5.0783e+07,-4.4916,11090,13678,1,13678,1,0.00048257,7.5489e-11,0,0.00053487,4.7148e-05,9.0515e+07,17.375,0,1.2551e+08,422.13,13677,1491.5,0,1491.5,0,0.00040986,6.4603e-08,0,0.00022266,7.6518e-05,1.1042e+08,14307,0,5.6698e+07,9665.8,1491.5,1
4990,2.58,12381,1,12381,1,0.00012383,-6.0407e-09,0,0.00036693,-2.2457e-05,-3.68e+06,-32.388,0,9.5178e+07,3188.5,12380,15000,1,15000,1,0.00085323,3.9264e-07,0,0.00085323,0.00010629,1.4207e+08,1.3435e+05,0,2.3e+08,64514,14999,12382,1,12382,1,0.00011696,-8.5376e-11,0,0.00035553,-2.1149e-05,2.9088e+07,-19.608,0,9.0867e+07,2.324,12381,9753,1,9753,1,-0.00056553,-4.7738e-07,0,1.1312e-05,-0.00015878,-2.3e+08,-73261,0,2.7414e+06,-10924,9752,11091,1,11091,1,-0.00025053,-2.4867e-10,0,0.00016946,-8.9751e-05,-1.0187e+08,-51.261,0,5.0981e+07,-5.2838,11090,13678,1,13678,1,0.00048445,4.5e-11,0,0.00053695,4.7332e-05,9.0867e+07,13.036,0,1.26e+08,420.75,13677,1491.5,0,1491.5,0,0.00041146,6.4806e-08,0,0.00022353,7.6816e-05,1.1085e+08,14362,0,5.6919e+07,9704.8,1491.5,1
4990,2.59,12381,1,12381,1,0.00012431,-6.0967e-09,0,0.00036836,-2.2544e-05,-3.6943e+06,-40.254,0,9.5547e+07,3199.9,12380,15000,1,15000,1,0.00085654,3.9399e-07,0,0.00085654,0.0001067,1.4262e+08,1.3482e+05,0,2.3089e+08,64768,14999,12382,1,12382,1,0.00011741,-3.1087e-11,0,0.00035691,-2.1231e-05,2.92e+07,-8.5421,0,9.1219e+07,1.9109,12381,9753,1,9753,1,-0.00056772,-4.7956e-07,0,1.1356e-05,-0.00015939,-2.3089e+08,-73604,0,2.7521e+06,-10986,9752,11091,1,11091,1,-0.0002515,-1.7883e-10,0,0.00017012,-9.0099e-05,-1.0227e+08,-43.957,0,5.1178e+07,-7.1494,11090,13678,1,13678,1,0.00048633,4.0228e-11,0,0.00053903,4.7515e-05,9.1219e+07,8.4782,0,1.2648e+08,411.84,13677,1491.5,0,1491.5,0,0.00041305,6.5089e-08,0,0.00022439,7.7114e-05,1.1128e+08,14417,0,5.7139e+07,9742.1,1491.5,1
4990,2.6,12381,1,12381,1,0.00012479,-6.1446e-09,0,0.00036978,-2.2631e-05,-3.7085e+06,-46.128,0,9.5916e+07,3210.8,12380,15000,1,15000,1,0.00085985,3.9557e-07,0,0.00085985,0.00010712,1.4317e+08,1.3536e+05,0,2.3179e+08,65021,14999,12382,1,12382,1,0.00011787,-2.8199e-11,0,0.00035828,-2.1313e-05,2.9313e+07,-6.7697,0,9.1571e+07,1.8677,12381,9753,1,9753,1,-0.00056991,-4.8129e-07,0,1.14e-05,-0.00016001,-2.3179e+08,-73866,0,2.7627e+06,-11040,9752,11091,1,11091,1,-0.00025247,-2.3434e-10,0,0.00017077,-9.0447e-05,-1.0266e+08,-54.795,0,5.1376e+07,-7.5519,11090,13678,1,13678,1,0.00048821,2.761e-11,0,0.00054111,4.7698e-05,9.1571e+07,5.2349,0,1.2697e+08,409.93,13677,1491.5,0,1491.5,0,0.00041465,6.5329e-08,0,0.00022526,7.7412e-05,1.1171e+08,14473,0,5.736e+07,9777.4,1491.5,1
4990,2.61,12381,1,12381,1,0.00012527,-6.1146e-09,0,0.0003712,-2.2718e-05,-3.7228e+06,-33.486,0,9.6284e+07,3224.6,12380,15000,1,15000,1,0.00086315,3.9704e-07,0,0.00086315,0.00010753,1.4372e+08,1.3586e+05,0,2.3268e+08,65250,14999,12382,1,12382,1,0.00011832,-3.0956e-11,0,0.00035966,-2.1395e-05,2.9426e+07,-7.1781,0,9.1923e+07,3.0944,12381,9753,1,9753,1,-0.0005721,-4.8323e-07,0,1.1444e-05,-0.00016062,-2.3268e+08,-74166,0,2.7734e+06,-11058,9752,11091,1,11091,1,-0.00025344,-1.9741e-10,0,0.00017143,-9.0795e-05,-1.0306e+08,-41.841,0,5.1573e+07,-5.8691,11090,13678,1,13678,1,0.00049008,8.582e-11,0,0.00054319,4.7882e-05,9.1923e+07,19.72,0,1.2746e+08,428.28,13677,1491.5,0,1491.5,0,0.00041624,6.5603e-08,0,0.00022613,7.7709e-05,1.1213e+08,14530,0,5.7581e+07,9816.6,1491.5,1
4990,2.62,12381,1,12381,1,0.00012575,-6.1421e-09,0,0.00037262,-2.2806e-05,-3.7371e+06,-34.82,0,9.6653e+07,3237.9,12380,15000,1,15000,1,0.00086646,3.9865e-07,0,0.00086646,0.00010794,1.4427e+08,1.3641e+05,0,2.3357e+08,65493,14999,12382,1,12382,1,0.00011877,-1.0292e-10,0,0.00036104,-2.1477e-05,2.9539e+07,-24.864,0,9.2275e+07,1.6341,12381,9753,1,9753,1,-0.00057429,-4.849e-07,0,1.1488e-05,-0.00016124,-2.3357e+08,-74418,0,2.784e+06,-11121,9752,11091,1,11091,1,-0.00025441,-2.4665e-10,0,0.00017209,-9.1143e-05,-1.0345e+08,-50.563,0,5.1771e+07,-3.9911,11090,13678,1,13678,1,0.00049196,6.0076e-11,0,0.00054528,4.8065e-05,9.2275e+07,13.9,0,1.2795e+08,430.89,13677,1491.5,0,1491.5,0,0.00041783,6.5824e-08,0,0.00022699,7.8007e-05,1.1256e+08,14584,0,5.7801e+07,9852.5,1491.5,1
4990,2.63,12381,1,12381,1,0.00012623,-6.2021e-09,0,0.00037405,-2.2893e-05,-3.7513e+06,-43.24,0,9.7022e+07,3250.5,12380,15000,1,15000,1,0.00086977,4.0017e-07,0,0.00086977,0.00010835,1.4483e+08,1.3693e+05,0,2.3446e+08,65756,14999,12382,1,12382,1,0.00011923,-8.1445e-11,0,0.00036242,-2.1559e-05,2.9651e+07,-20.026,0,9.2627e+07,2.0456,12381,9753,1,9753,1,-0.00057648,-4.8677e-07,0,1.1532e-05,-0.00016185,-2.3446e+08,-74704,0,2.7947e+06,-11159,9752,11091,1,11091,1,-0.00025538,-2.0403e-10,0,0.00017274,-9.1491e-05,-1.0385e+08,-47.17,0,5.1968e+07,-5.7064,11090,13678,1,13678,1,0.00049384,1.1972e-11,0,0.00054736,4.8249e-05,9.2627e+07,3.6568,0,1.2844e+08,431.54,13677,1491.5,0,1491.5,0,0.00041943,6.6076e-08,0,0.00022786,7.8305e-05,1.1299e+08,14640,0,5.8022e+07,9891.3,1491.5,1
4990,2.64,12381,1,12381,1,0.00012671,-6.1678e-09,0,0.00037547,-2.298e-05,-3.7656e+06,-30.877,0,9.7391e+07,3259.9,12380,15000,1,15000,1,0.00087307,4.0167e-07,0,0.00087307,0.00010876,1.4538e+08,1.3744e+05,0,2.3535e+08,66008,14999,12382,1,12382,1,0.00011968,-1.3459e-11,0,0.00036379,-2.1641e-05,2.9764e+07,-3.1494,0,9.2979e+07,0.91166,12381,9753,1,9753,1,-0.00057868,-4.8862e-07,0,1.1576e-05,-0.00016247,-2.3535e+08,-74989,0,2.8054e+06,-11207,9752,11091,1,11091,1,-0.00025636,-1.5956e-10,0,0.0001734,-9.1839e-05,-1.0424e+08,-37.942,0,5.2166e+07,-9.2408,11090,13678,1,13678,1,0.00049572,9.4856e-11,0,0.00054944,4.8432e-05,9.2979e+07,20.336,0,1.2893e+08,427.24,13677,1491.5,0,1491.5,0,0.00042102,6.6324e-08,0,0.00022873,7.8603e-05,1.1342e+08,14695,0,5.8243e+07,9929.4,1491.5,1
4990,2.65,12381,1,12381,1,0.00012719,-6.1448e-09,0,0.00037689,-2.3067e-05,-3.7799e+06,-20.743,0,9.776e+07,3275.1,12380,15000,1,15000,1,0.00087638,4.0303e-07,0,0.00087638,0.00010918,1.4593e+08,1.3791e+05,0,2.3624e+08,66290,14999,12382,1,12382,1,0.00012014,6.9511e-11,0,0.00036517,-2.1723e-05,2.9877e+07,15.894,0,9.3331e+07,3.4859,12381,9753,1,9753,1,-0.00058087,-4.9085e-07,0,1.162e-05,-0.00016308,-2.3624e+08,-75339,0,2.8161e+06,-11261,9752,11091,1,11091,1,-0.00025733,-7.7056e-11,0,0.00017406,-9.2187e-05,-1.0464e+08,-20.561,0,5.2364e+07,-8.5771,11090,13678,1,13678,1,0.0004976,2.7861e-10,0,0.00055152,4.8616e-05,9.3331e+07,61.729,0,1.2941e+08,426.5,13677,1491.5,0,1491.5,0,0.00042262,6.6625e-08,0,0.00022959,7.89e-05,1.1385e+08,14752,0,5.8463e+07,9970.3,1491.5,1
4990,2.66,12381,1,12381,1,0.00012767,-6.2088e-09,0,0.00037831,-2.3154e-05,-3.7941e+06,-29.283,0,9.8128e+07,3288.7,12380,15000,1,15000,1,0.00087969,4.0457e-07,0,0.00087969,0.00010959,1.4648e+08,1.3844e+05,0,2.3713e+08,66521,14999,12382,1,12382,1,0.00012059,-1.7044e-11,0,0.00036655,-2.1805e-05,2.999e+07,-4.1109,0,9.3682e+07,2.459,12381,9753,1,9753,1,-0.00058306,-4.9267e-07,0,1.1664e-05,-0.0001637,-2.3713e+08,-75617,0,2.8267e+06,-11264,9752,11091,1,11091,1,-0.0002583,-1.4818e-10,0,0.00017472,-9.2534e-05,-1.0503e+08,-31.137,0,5.2561e+07,-5.5483,11090,13678,1,13678,1,0.00049947,1.1137e-10,0,0.0005536,4.8799e-05,9.3682e+07,26.608,0,1.299e+08,441.01,13677,1491.5,0,1491.5,0,0.00042421,6.6881e-08,0,0.00023046,7.9198e-05,1.1428e+08,14808,0,5.8684e+07,10007,1491.5,1
4990,2.67,12381,1,12381,1,0.00012815,-6.2555e-09,0,0.00037973,-2.3241e-05,-3.8084e+06,-34.939,0,9.8498e+07,3298.3,12380,15000,1,15000,1,0.00088299,4.0611e-07,0,0.00088299,0.00011,1.4703e+08,1.3896e+05,0,2.3803e+08,66760,14999,12382,1,12382,1,0.00012104,-7.5688e-12,0,0.00036793,-2.1887e-05,3.0103e+07,-1.6455,0,9.4035e+07,1.5015,12381,9753,1,9753,1,-0.00058525,-4.9445e-07,0,1.1708e-05,-0.00016432,-2.3803e+08,-75888,0,2.8374e+06,-11325,9752,11091,1,11091,1,-0.00025927,-1.5797e-10,0,0.00017537,-9.2883e-05,-1.0543e+08,-37.668,0,5.2759e+07,-9.0028,11090,13678,1,13678,1,0.00050135,1.0659e-10,0,0.00055568,4.8982e-05,9.4035e+07,22.276,0,1.3039e+08,429.48,13677,1491.5,0,1491.5,0,0.00042581,6.711e-08,0,0.00023132,7.9496e-05,1.1471e+08,14863,0,5.8904e+07,10044,1491.5,1
4990,2.68,12381,1,12381,1,0.00012863,-6.2288e-09,0,0.00038116,-2.3328e-05,-3.8227e+06,-23.974,0,9.8866e+07,3311.9,12380,15000,1,15000,1,0.0008863,4.077e-07,0,0.0008863,0.00011041,1.4758e+08,1.3951e+05,0,2.3892e+08,67017,14999,12382,1,12382,1,0.0001215,4.7411e-11,0,0.00036931,-2.1969e-05,3.0215e+07,11.427,0,9.4386e+07,1.0295,12381,9753,1,9753,1,-0.00058744,-4.9617e-07,0,1.1752e-05,-0.00016493,-2.3892e+08,-76150,0,2.8481e+06,-11393,9752,11091,1,11091,1,-0.00026024,-1.3625e-10,0,0.00017603,-9.323e-05,-1.0582e+08,-31.595,0,5.2956e+07,-5.8822,11090,13678,1,13678,1,0.00050323,2.0766e-10,0,0.00055776,4.9166e-05,9.4386e+07,43.075,0,1.3088e+08,439.95,13677,1491.5,0,1491.5,0,0.0004274,6.7358e-08,0,0.00023219,7.9794e-05,1.1514e+08,14918,0,5.9125e+07,10079,1491.5,1
4990,2.69,12381,1,12381,1,0.00012911,-6.2661e-09,0,0.00038258,-2.3415e-05,-3.8369e+06,-26.694,0,9.9235e+07,3325.6,12380,15000,1,15000,1,0.00088961,4.0917e-07,0,0.00088961,0.00011082,1.4813e+08,1.4001e+05,0,2.3981e+08,67257,14999,12382,1,12382,1,0.00012195,-8.7234e-12,0,0.00037068,-2.2051e-05,3.0328e+07,-2.1081,0,9.4738e+07,1.2459,12381,9753,1,9753,1,-0.00058963,-4.981e-07,0,1.1796e-05,-0.00016555,-2.3981e+08,-76449,0,2.8587e+06,-11411,9752,11091,1,11091,1,-0.00026121,-1.1511e-10,0,0.00017669,-9.3578e-05,-1.0622e+08,-24.649,0,5.3154e+07,-4.5508,11090,13678,1,13678,1,0.00050511,1.233e-10,0,0.00055984,4.9349e-05,9.4738e+07,28.146,0,1.3137e+08,446.86,13677,1491.5,0,1491.5,0,0.000429,6.7621e-08,0,0.00023306,8.0091e-05,1.1557e+08,14974,0,5.9346e+07,10117,1491.5,1
4990,2.7,12381,1,12381,1,0.00012959,-6.3254e-09,0,0.000384,-2.3502e-05,-3.8512e+06,-35.04,0,9.9604e+07,3338.2,12380,15000,1,15000,1,0.00089292,4.1062e-07,0,0.00089292,0.00011124,1.4868e+08,1.4051e+05,0,2.407e+08,67520,14999,12382,1,12382,1,0.0001224,-1.0152e-11,0,0.00037206,-2.2133e-05,3.0441e+07,-2.5226,0,9.509e+07,0.31916,12381,9753,1,9753,1,-0.00059182,-5.0012e-07,0,1.184e-05,-0.00016616,-2.407e+08,-76762,0,2.8694e+06,-11439,9752,11091,1,11091,1,-0.00026218,-1.438e-10,0,0.00017734,-9.3926e-05,-1.0661e+08,-33.38,0,5.3351e+07,-6.2927,11090,13678,1,13678,1,0.00050698,9.8428e-11,0,0.00056193,4.9533e-05,9.509e+07,22.119,0,1.3186e+08,446.86,13677,1491.5,0,1491.5,0,0.00043059,6.789e-08,0,0.00023392,8.0389e-05,1.16e+08,15031,0,5.9566e+07,10157,1491.5,1
4990,2.71,12381,1,12381,1,0.00013007,-6.3814e-09,0,0.00038542,-2.3589e-05,-3.8655e+06,-42.398,0,9.9973e+07,3348,12380,15000,1,15000,1,0.00089622,4.122e-07,0,0.00089622,0.00011165,1.4923e+08,1.4105e+05,0,2.4159e+08,67749,14999,12382,1,12382,1,0.00012286,-2.732e-11,0,0.00037344,-2.2215e-05,3.0554e+07,-6.2472,0,9.5442e+07,1.6688,12381,9753,1,9753,1,-0.00059402,-5.018e-07,0,1.1884e-05,-0.00016678,-2.4159e+08,-77018,0,2.8801e+06,-11505,9752,11091,1,11091,1,-0.00026315,-1.9925e-10,0,0.000178,-9.4274e-05,-1.0701e+08,-45.706,0,5.3549e+07,-6.9816,11090,13678,1,13678,1,0.00050886,4.9574e-11,0,0.00056401,4.9716e-05,9.5442e+07,10.329,0,1.3234e+08,435.1,13677,1491.5,0,1491.5,0,0.00043219,6.8118e-08,0,0.00023479,8.0687e-05,1.1643e+08,15086,0,5.9787e+07,10191,1491.5,1
4990,2.72,12381,1,12381,1,0.00013055,-6.4287e-09,0,0.00038685,-2.3676e-05,-3.8797e+06,-47.302,0,1.0034e+08,3361.6,12380,15000,1,15000,1,0.00089953,4.1391e-07,0,0.00089953,0.00011206,1.4978e+08,1.4163e+05,0,2.4248e+08,68007,14999,12382,1,12382,1,0.00012331,-1.6531e-10,0,0.00037482,-2.2297e-05,3.0666e+07,-41.757,0,9.5794e+07,1.6689,12381,9753,1,9753,1,-0.00059621,-5.033e-07,0,1.1928e-05,-0.00016739,-2.4248e+08,-77240,0,2.8908e+06,-11542,9752,11091,1,11091,1,-0.00026412,-3.2964e-10,0,0.00017866,-9.4622e-05,-1.074e+08,-68.288,0,5.3747e+07,-3.9904,11090,13678,1,13678,1,0.00051074,2.025e-11,0,0.00056609,4.99e-05,9.5794e+07,5.9659,0,1.3283e+08,440.54,13677,1491.5,0,1491.5,0,0.00043378,6.8326e-08,0,0.00023566,8.0985e-05,1.1686e+08,15141,0,6.0007e+07,10229,1491.5,1
4990,2.73,12381,1,12381,1,0.00013103,-6.3447e-09,0,0.00038827,-2.3763e-05,-3.894e+06,-24.14,0,1.0071e+08,3374.9,12380,15000,1,15000,1,0.00090284,4.1519e-07,0,0.00090284,0.00011247,1.5033e+08,1.4207e+05,0,2.4337e+08,68271,14999,12382,1,12382,1,0.00012376,2.6295e-11,0,0.00037619,-2.2379e-05,3.0779e+07,6.19,0,9.6146e+07,4.1469,12381,9753,1,9753,1,-0.0005984,-5.0564e-07,0,1.1972e-05,-0.00016801,-2.4337e+08,-77609,0,2.9015e+06,-11580,9752,11091,1,11091,1,-0.00026509,-6.3613e-11,0,0.00017931,-9.497e-05,-1.0779e+08,-17.479,0,5.3944e+07,-5.5587,11090,13678,1,13678,1,0.00051262,2.0988e-10,0,0.00056817,5.0083e-05,9.6146e+07,43.793,0,1.3332e+08,448.46,13677,1491.5,0,1491.5,0,0.00043538,6.8639e-08,0,0.00023652,8.1282e-05,1.1729e+08,15197,0,6.0228e+07,10270,1491.5,1
4990,2.74,12381,1,12381,1,0.00013151,-6.4439e-09,0,0.00038969,-2.385e-05,-3.9082e+06,-41.437,0,1.0108e+08,3385.8,12380,15000,1,15000,1,0.00090615,4.168e-07,0,0.00090615,0.00011288,1.5088e+08,1.4262e+05,0,2.4427e+08,68506,14999,12382,1,12382,1,0.00012422,-3.5643e-11,0,0.00037757,-2.2461e-05,3.0892e+07,-9.5624,0,9.6498e+07,1.4849,12381,9753,1,9753,1,-0.00060059,-5.0731e-07,0,1.2016e-05,-0.00016862,-2.4427e+08,-77860,0,2.9121e+06,-11615,9752,11091,1,11091,1,-0.00026606,-1.5477e-10,0,0.00017997,-9.5318e-05,-1.0819e+08,-38.871,0,5.4142e+07,-6.4251,11090,13678,1,13678,1,0.0005145,2.8228e-11,0,0.00057025,5.0266e-05,9.6498e+07,5.6681,0,1.3381e+08,449.92,13677,1491.5,0,1491.5,0,0.00043697,6.8868e-08,0,0.00023739,8.158e-05,1.1772e+08,15252,0,6.0449e+07,10306,1491.5,1
4990,2.75,12381,1,12381,1,0.00013199,-6.4698e-09,0,0.00039111,-2.3937e-05,-3.9225e+06,-41.88,0,1.0145e+08,3399.4,12380,15000,1,15000,1,0.00090945,4.1835e-07,0,0.00090945,0.0001133,1.5143e+08,1.4315e+05,0,2.4516e+08,68768,14999,12382,1,12382,1,0.00012467,-5.5499e-11,0,0.00037895,-2.2543e-05,3.1005e+07,-13.416,0,9.6849e+07,3.4826,12381,9753,1,9753,1,-0.00060279,-5.0913e-07,0,1.206e-05,-0.00016924,-2.4516e+08,-78140,0,2.9228e+06,-11659,9752,11091,1,11091,1,-0.00026703,-2.2638e-10,0,0.00018063,-9.5666e-05,-1.0858e+08,-48.328,0,5.4339e+07,-5.3903,11090,13678,1,13678,1,0.00051637,5.0207e-11,0,0.00057233,5.045e-05,9.6849e+07,10.825,0,1.343e+08,449.77,13677,1491.5,0,1491.5,0,0.00043857,6.911e-08,0,0.00023826,8.1878e-05,1.1815e+08,15308,0,6.0669e+07,10344,1491.5,1
4990,2.76,12381,1,12381,1,0.00013247,-6.4978e-09,0,0.00039253,-2.4024e-05,-3.9368e+06,-42.562,0,1.0182e+08,3411.7,12380,15000,1,15000,1,0.00091276,4.1976e-07,0,0.00091276,0.00011371,1.5198e+08,1.4363e+05,0,2.4605e+08,69020,14999,12382,1,12382,1,0.00012512,-8.6165e-11,0,0.00038033,-2.2625e-05,3.1117e+07,-19.606,0,9.7201e+07,1.4733,12381,9753,1,9753,1,-0.00060498,-5.1116e-07,0,1.2104e-05,-0.00016985,-2.4605e+08,-78454,0,2.9335e+06,-11711,9752,11091,1,11091,1,-0.00026801,-2.2329e-10,0,0.00018128,-9.6013e-05,-1.0898e+08,-45.558,0,5.4537e+07,-6.5293,11090,13678,1,13678,1,0.00051825,4.8087e-11,0,0.00057441,5.0633e-05,9.7201e+07,13.854,0,1.3479e+08,454.59,13677,1491.5,0,1491.5,0,0.00044016,6.9384e-08,0,0.00023912,8.2175e-05,1.1858e+08,15364,0,6.089e+07,10383,1491.5,1
4990,2.77,12381,1,12381,1,0.00013295,-6.4792e-09,0,0.00039396,-2.4112e-05,-3.9511e+06,-33.847,0,1.0219e+08,3423.8,12380,15000,1,15000,1,0.00091607,4.2139e-07,0,0.00091607,0.00011412,1.5254e+08,1.4419e+05,0,2.4694e+08,69254,14999,12382,1,12382,1,0.00012558,-3.9487e-11,0,0.00038171,-2.2707e-05,3.123e+07,-9.3538,0,9.7553e+07,1.7052,12381,9753,1,9753,1,-0.00060717,-5.1278e-07,0,1.2148e-05,-0.00017047,-2.4694e+08,-78698,0,2.9441e+06,-11774,9752,11091,1,11091,1,-0.00026898,-1.7257e-10,0,0.00018194,-9.6362e-05,-1.0937e+08,-38.085,0,5.4734e+07,-4.0098,11090,13678,1,13678,1,0.00052013,9.2397e-11,0,0.0005765,5.0817e-05,9.7553e+07,21.328,0,1.3528e+08,458.26,13677,1491.5,0,1491.5,0,0.00044176,6.9612e-08,0,0.00023999,8.2473e-05,1.1901e+08,15418,0,6.111e+07,10417,1491.5,1
4990,2.78,12381,1,12381,1,0.00013343,-6.5759e-09,0,0.00039538,-2.4199e-05,-3.9653e+06,-49.831,0,1.0256e+08,3435.4,12380,15000,1,15000,1,0.00091938,4.2298e-07,0,0.00091938,0.00011453,1.5309e+08,1.4473e+05,0,2.4783e+08,69484,14999,12382,1,12382,1,0.00012603,-1.2562e-10,0,0.00038308,-2.2789e-05,3.1343e+07,-32.296,0,9.7905e+07,0.32646,12381,9753,1,9753,1,-0.00060936,-5.1449e-07,0,1.2192e-05,-0.00017109,-2.4783e+08,-78957,0,2.9548e+06,-11793,9752,11091,1,11091,1,-0.00026995,-3.0016e-10,0,0.0001826,-9.6709e-05,-1.0977e+08,-62.953,0,5.4932e+07,-5.2119,11090,13678,1,13678,1,0.00052201,1.2078e-11,0,0.00057858,5.1e-05,9.7905e+07,3.383,0,1.3576e+08,458.19,13677,1491.5,0,1491.5,0,0.00044335,6.9843e-08,0,0.00024086,8.2771e-05,1.1944e+08,15474,0,6.1331e+07,10454,1491.5,1
4990,2.79,12381,1,12381,1,0.00013391,-6.5873e-09,0,0.0003968,-2.4286e-05,-3.9796e+06,-47.501,0,1.0292e+08,3448.8,12380,15000,1,15000,1,0.00092268,4.2436e-07,0,0.00092268,0.00011494,1.5364e+08,1.4521e+05,0,2.4872e+08,69761,14999,12382,1,12382,1,0.00012648,-4.0772e-11,0,0.00038446,-2.2871e-05,3.1456e+07,-11.531,0,9.8257e+07,2.9479,12381,9753,1,9753,1,-0.00061155,-5.1662e-07,0,1.2236e-05,-0.0001717,-2.4872e+08,-79292,0,2.9655e+06,-11834,9752,11091,1,11091,1,-0.00027092,-2.0545e-10,0,0.00018326,-9.7057e-05,-1.1016e+08,-49.204,0,5.513e+07,-6.1428,11090,13678,1,13678,1,0.00052389,3.8387e-11,0,0.00058066,5.1183e-05,9.8257e+07,8.4997,0,1.3625e+08,456.87,13677,1491.5,0,1491.5,0,0.00044495,7.0131e-08,0,0.00024172,8.3069e-05,1.1987e+08,15531,0,6.1552e+07,10495,1491.5,1
4990,2.8,12381,1,12381,1,0.00013439,-6.5763e-09,0,0.00039822,-2.4373e-05,-3.9938e+06,-39.928,0,1.0329e+08,3462.1,12380,15000,1,15000,1,0.00092599,4.2583e-07,0,0.00092599,0.00011536,1.5419e+08,1.4571e+05,0,2.4961e+08,70013,14999,12382,1,12382,1,0.00012694,-1.4416e-11,0,0.00038584,-2.2953e-05,3.1569e+07,-4.0419,0,9.8609e+07,0.17825,12381,9753,1,9753,1,-0.00061374,-5.1858e-07,0,1.228e-05,-0.00017232,-2.4961e+08,-79596,0,2.9761e+06,-11872,9752,11091,1,11091,1,-0.00027189,-2.0546e-10,0,0.00018391,-9.7405e-05,-1.1056e+08,-43.047,0,5.5327e+07,-4.4401,11090,13678,1,13678,1,0.00052576,1.0596e-10,0,0.00058274,5.1367e-05,9.8609e+07,23.837,0,1.3674e+08,464.36,13677,1491.5,0,1491.5,0,0.00044654,7.0404e-08,0,0.00024259,8.3366e-05,1.203e+08,15587,0,6.1772e+07,10531,1491.5,1
4990,2.81,12381,1,12381,1,0.00013487,-6.4681e-09,0,0.00039965,-2.446e-05,-4.0081e+06,-11.237,0,1.0366e+08,3472.9,12380,15000,1,15000,1,0.00092929,4.2737e-07,0,0.00092929,0.00011577,1.5474e+08,1.4624e+05,0,2.5051e+08,70267,14999,12382,1,12382,1,0.00012739,8.0193e-11,0,0.00038722,-2.3035e-05,3.1681e+07,19.641,0,9.8961e+07,-0.01677,12381,9753,1,9753,1,-0.00061594,-5.2036e-07,0,1.2324e-05,-0.00017293,-2.5051e+08,-79866,0,2.9868e+06,-11924,9752,11091,1,11091,1,-0.00027286,-7.8983e-11,0,0.00018457,-9.7753e-05,-1.1095e+08,-18.265,0,5.5525e+07,-7.7449,11090,13678,1,13678,1,0.00052764,2.9475e-10,0,0.00058482,5.155e-05,9.8961e+07,63.333,0,1.3723e+08,464.29,13677,1491.5,0,1491.5,0,0.00044814,7.0641e-08,0,0.00024345,8.3664e-05,1.2073e+08,15642,0,6.1993e+07,10570,1491.5,1
4990,2.82,12381,1,12381,1,0.00013535,-6.6045e-09,0,0.00040107,-2.4547e-05,-4.0224e+06,-36.687,0,1.0403e+08,3485.8,12380,15000,1,15000,1,0.0009326,4.2883e-07,0,0.0009326,0.00011618,1.5529e+08,1.4674e+05,0,2.514e+08,70536,14999,12382,1,12382,1,0.00012784,4.9534e-11,0,0.0003886,-2.3117e-05,3.1794e+07,12.296,0,9.9313e+07,1.6961,12381,9753,1,9753,1,-0.00061813,-5.2238e-07,0,1.2368e-05,-0.00017355,-2.514e+08,-80179,0,2.9975e+06,-11974,9752,11091,1,11091,1,-0.00027383,-1.6619e-10,0,0.00018523,-9.8101e-05,-1.1135e+08,-40.633,0,5.5722e+07,-8.306,11090,13678,1,13678,1,0.00052952,1.8737e-10,0,0.0005869,5.1734e-05,9.9312e+07,37.716,0,1.3772e+08,465.69,13677,1491.5,0,1491.5,0,0.00044973,7.0907e-08,0,0.00024432,8.3962e-05,1.2116e+08,15697,0,6.2213e+07,10609,1491.5,1
4990,2.83,12381,1,12381,1,0.00013583,-6.6515e-09,0,0.00040249,-2.4634e-05,-4.0366e+06,-41.287,0,1.044e+08,3499.4,12380,15000,1,15000,1,0.00093591,4.3032e-07,0,0.00093591,0.00011659,1.5584e+08,1.4725e+05,0,2.5229e+08,70776,14999,12382,1,12382,1,0.0001283,-1.1974e-12,0,0.00038997,-2.3199e-05,3.1907e+07,-0.26711,0,9.9664e+07,1.3752,12381,9753,1,9753,1,-0.00062032,-5.2431e-07,0,1.2412e-05,-0.00017416,-2.5229e+08,-80477,0,3.0082e+06,-11993,9752,11091,1,11091,1,-0.0002748,-1.3098e-10,0,0.00018588,-9.8449e-05,-1.1174e+08,-31.598,0,5.592e+07,-5.3513,11090,13678,1,13678,1,0.0005314,6.6728e-11,0,0.00058898,5.1917e-05,9.9664e+07,14.28,0,1.382e+08,467.84,13677,1491.5,0,1491.5,0,0.00045132,7.1179e-08,0,0.00024519,8.4259e-05,1.2159e+08,15754,0,6.2434e+07,10646,1491.5,1
4990,2.84,12381,1,12381,1,0.00013631,-6.6619e-09,0,0.00040391,-2.4721e-05,-4.0509e+06,-38.998,0,1.0477e+08,3508.6,12380,15000,1,15000,1,0.00093922,4.3207e-07,0,0.00093922,0.000117,1.5639e+08,1.4785e+05,0,2.5318e+08,71012,14999,12382,1,12382,1,0.00012875,-5.983e-11,0,0.00039135,-2.3281e-05,3.202e+07,-14.107,0,1.0002e+08,1.8501,12381,9753,1,9753,1,-0.00062251,-5.2563e-07,0,1.2456e-05,-0.00017478,-2.5318e+08,-80667,0,3.0189e+06,-12037,9752,11091,1,11091,1,-0.00027577,-2.0752e-10,0,0.00018654,-9.8797e-05,-1.1214e+08,-44.152,0,5.6117e+07,-8.0163,11090,13678,1,13678,1,0.00053328,3.6473e-11,0,0.00059107,5.2101e-05,1.0002e+08,10.692,0,1.3869e+08,461.96,13677,1491.5,0,1491.5,0,0.00045292,7.1348e-08,0,0.00024605,8.4557e-05,1.2202e+08,15808,0,6.2655e+07,10683,1491.5,1
4990,2.85,12381,1,12381,1,0.00013679,-6.6738e-09,0,0.00040534,-2.4808e-05,-4.0651e+06,-36.664,0,1.0514e+08,3523.2,12380,15000,1,15000,1,0.00094252,4.3331e-07,0,0.00094252,0.00011742,1.5694e+08,1.4827e+05,0,2.5407e+08,71281,14999,12382,1,12382,1,0.0001292,5.0603e-11,0,0.00039273,-2.3363e-05,3.2132e+07,12.361,0,1.0037e+08,0.77719,12381,9753,1,9753,1,-0.0006247,-5.2808e-07,0,1.25e-05,-0.00017539,-2.5407e+08,-81057,0,3.0296e+06,-12093,9752,11091,1,11091,1,-0.00027674,-1.684e-10,0,0.0001872,-9.9145e-05,-1.1253e+08,-40.296,0,5.6315e+07,-8.7613,11090,13678,1,13678,1,0.00053515,1.7245e-10,0,0.00059315,5.2284e-05,1.0037e+08,36.198,0,1.3918e+08,471.42,13677,1491.5,0,1491.5,0,0.00045451,7.1678e-08,0,0.00024692,8.4855e-05,1.2244e+08,15865,0,6.2875e+07,10722,1491.5,1
4990,2.86,12381,1,12381,1,0.00013727,-6.7275e-09,0,0.00040676,-2.4895e-05,-4.0794e+06,-43.158,0,1.0551e+08,3535,12380,15000,1,15000,1,0.00094583,4.3497e-07,0,0.00094583,0.00011783,1.5749e+08,1.4884e+05,0,2.5496e+08,71507,14999,12382,1,12382,1,0.00012966,-4.5059e-11,0,0.00039411,-2.3445e-05,3.2245e+07,-10.97,0,1.0072e+08,1.9436,12381,9753,1,9753,1,-0.00062689,-5.2965e-07,0,1.2544e-05,-0.00017601,-2.5496e+08,-81292,0,3.0402e+06,-12146,9752,11091,1,11091,1,-0.00027771,-1.4957e-10,0,0.00018785,-9.9492e-05,-1.1293e+08,-37.127,0,5.6512e+07,-5.4305,11090,13678,1,13678,1,0.00053703,2.7907e-11,0,0.00059523,5.2467e-05,1.0072e+08,7.0417,0,1.3967e+08,470.85,13677,1491.5,0,1491.5,0,0.00045611,7.1903e-08,0,0.00024779,8.5153e-05,1.2287e+08,15920,0,6.3096e+07,10757,1491.5,1
4990,2.87,12381,1,12381,1,0.00013775,-6.7185e-09,0,0.00040818,-2.4982e-05,-4.0937e+06,-35.497,0,1.0587e+08,3548.3,12380,15000,1,15000,1,0.00094914,4.3659e-07,0,0.00094914,0.00011824,1.5804e+08,1.4939e+05,0,2.5585e+08,71758,14999,12382,1,12382,1,0.00013011,-1.2301e-10,0,0.00039548,-2.3527e-05,3.2358e+07,-28.523,0,1.0107e+08,1.0903,12381,9753,1,9753,1,-0.00062909,-5.3131e-07,0,1.2588e-05,-0.00017662,-2.5585e+08,-81543,0,3.0509e+06,-12167,9752,11091,1,11091,1,-0.00027868,-3.2634e-10,0,0.00018851,-9.984e-05,-1.1332e+08,-66.9,0,5.671e+07,-4.338,11090,13678,1,13678,1,0.00053891,9.0132e-11,0,0.00059731,5.2651e-05,1.0107e+08,23.123,0,1.4016e+08,473.83,13677,1491.5,0,1491.5,0,0.0004577,7.213e-08,0,0.00024865,8.545e-05,1.233e+08,15975,0,6.3316e+07,10795,1491.5,1
4990,2.88,12381,1,12381,1,0.00013823,-6.7817e-09,0,0.0004096,-2.5069e-05,-4.1079e+06,-45.134,0,1.0624e+08,3559.7,12380,15000,1,15000,1,0.00095245,4.3784e-07,0,0.00095245,0.00011865,1.5859e+08,1.4982e+05,0,2.5674e+08,72013,14999,12382,1,12382,1,0.00013057,3.6622e-12,0,0.00039686,-2.3609e-05,3.2471e+07,0.82134,0,1.0142e+08,2.4585,12381,9753,1,9753,1,-0.00063128,-5.3366e-07,0,1.2632e-05,-0.00017724,-2.5674e+08,-81914,0,3.0616e+06,-12234,9752,11091,1,11091,1,-0.00027966,-1.3835e-10,0,0.00018917,-0.00010019,-1.1372e+08,-37.933,0,5.6908e+07,-6.2948,11090,13678,1,13678,1,0.00054079,1.315e-10,0,0.00059939,5.2834e-05,1.0142e+08,28.12,0,1.4065e+08,460.9,13677,1491.5,0,1491.5,0,0.0004593,7.2443e-08,0,0.00024952,8.5748e-05,1.2373e+08,16031,0,6.3537e+07,10832,1491.5,1
4990,2.89,12381,1,12381,1,0.00013871,-6.7212e-09,0,0.00041102,-2.5156e-05,-4.1222e+06,-26.126,0,1.0661e+08,3572.1,12380,15000,1,15000,1,0.00095575,4.3959e-07,0,0.00095575,0.00011906,1.5914e+08,1.5042e+05,0,2.5764e+08,72251,14999,12382,1,12382,1,0.00013102,-8.9813e-12,0,0.00039824,-2.3691e-05,3.2584e+07,-1.9906,0,1.0178e+08,2.8851,12381,9753,1,9753,1,-0.00063347,-5.3507e-07,0,1.2676e-05,-0.00017786,-2.5764e+08,-82122,0,3.0723e+06,-12253,9752,11091,1,11091,1,-0.00028063,-1.4704e-10,0,0.00018983,-0.00010054,-1.1411e+08,-30.001,0,5.7105e+07,-5.0349,11090,13678,1,13678,1,0.00054266,1.2283e-10,0,0.00060147,5.3018e-05,1.0178e+08,30.117,0,1.4114e+08,473.11,13677,1491.5,0,1491.5,0,0.00046089,7.2642e-08,0,0.00025039,8.6046e-05,1.2416e+08,16087,0,6.3758e+07,10869,1491.5,1
4990,2.9,12381,1,12381,1,0.00013919,-6.7704e-09,0,0.00041245,-2.5243e-05,-4.1365e+06,-32.176,0,1.0698e+08,3586,12380,15000,1,15000,1,0.00095906,4.4104e-07,0,0.00095906,0.00011947,1.5969e+08,1.5091e+05,0,2.5853e+08,72506,14999,12382,1,12382,1,0.00013147,5.3609e-12,0,0.00039962,-2.3773e-05,3.2696e+07,1.3719,0,1.0213e+08,1.1963,12381,9753,1,9753,1,-0.00063566,-5.3708e-07,0,1.272e-05,-0.00017847,-2.5853e+08,-82434,0,3.0829e+06,-12304,9752,11091,1,11091,1,-0.0002816,-1.1621e-10,0,0.00019048,-0.00010088,-1.1451e+08,-26.165,0,5.7303e+07,-4.5098,11090,13678,1,13678,1,0.00054454,1.0688e-10,0,0.00060355,5.3201e-05,1.0213e+08,24.18,0,1.4162e+08,482.2,13677,1491.5,0,1491.5,0,0.00046249,7.2917e-08,0,0.00025125,8.6344e-05,1.2459e+08,16143,0,6.3978e+07,10907,1491.5,1
4990,2.91,12381,1,12381,1,0.00013967,-6.8149e-09,0,0.00041387,-2.5331e-05,-4.1507e+06,-37.327,0,1.0735e+08,3598.5,12380,15000,1,15000,1,0.00096237,4.4243e-07,0,0.00096237,0.00011989,1.6025e+08,1.5139e+05,0,2.5942e+08,72769,14999,12382,1,12382,1,0.00013193,2.3312e-11,0,0.000401,-2.3855e-05,3.2809e+07,5.7181,0,1.0248e+08,-0.23281,12381,9753,1,9753,1,-0.00063785,-5.3922e-07,0,1.2764e-05,-0.00017909,-2.5942e+08,-82768,0,3.0936e+06,-12342,9752,11091,1,11091,1,-0.00028257,-1.9032e-10,0,0.00019114,-0.00010123,-1.149e+08,-40.671,0,5.75e+07,-5.9575,11090,13678,1,13678,1,0.00054642,2.7087e-10,0,0.00060563,5.3385e-05,1.0248e+08,54.81,0,1.4211e+08,482.57,13677,1491.5,0,1491.5,0,0.00046408,7.3202e-08,0,0.00025212,8.6641e-05,1.2502e+08,16199,0,6.4199e+07,10945,1491.5,1
4990,2.92,12381,1,12381,1,0.00014015,-6.8409e-09,0,0.00041529,-2.5418e-05,-4.165e+06,-38.196,0,1.0772e+08,3609.8,12380,15000,1,15000,1,0.00096568,4.4395e-07,0,0.00096568,0.0001203,1.608e+08,1.5191e+05,0,2.6031e+08,73005,14999,12382,1,12382,1,0.00013238,6.6523e-11,0,0.00040237,-2.3937e-05,3.2922e+07,15.613,0,1.0283e+08,1.6782,12381,9753,1,9753,1,-0.00064005,-5.4103e-07,0,1.2808e-05,-0.0001797,-2.6031e+08,-83045,0,3.1043e+06,-12397,9752,11091,1,11091,1,-0.00028354,-1.5425e-10,0,0.0001918,-0.00010158,-1.153e+08,-36.585,0,5.7698e+07,-6.9941,11090,13678,1,13678,1,0.0005483,2.1372e-10,0,0.00060772,5.3568e-05,1.0283e+08,42.981,0,1.426e+08,481.01,13677,1491.5,0,1491.5,0,0.00046568,7.3445e-08,0,0.00025299,8.6939e-05,1.2545e+08,16254,0,6.4419e+07,10982,1491.5,1
4990,2.93,12381,1,12381,1,0.00014063,-6.8797e-09,0,0.00041671,-2.5505e-05,-4.1793e+06,-41.535,0,1.0809e+08,3622.4,12380,15000,1,15000,1,0.00096898,4.4553e-07,0,0.00096898,0.00012071,1.6135e+08,1.5245e+05,0,2.612e+08,73250,14999,12382,1,12382,1,0.00013283,2.4596e-12,0,0.00040375,-2.4019e-05,3.3035e+07,0.56609,0,1.0318e+08,0.60489,12381,9753,1,9753,1,-0.00064224,-5.4275e-07,0,1.2852e-05,-0.00018032,-2.612e+08,-83306,0,3.115e+06,-12441,9752,11091,1,11091,1,-0.00028451,-1.6243e-10,0,0.00019245,-0.00010193,-1.1569e+08,-37.642,0,5.7895e+07,-5.7417,11090,13678,1,13678,1,0.00055018,9.9161e-11,0,0.0006098,5.3751e-05,1.0318e+08,21.247,0,1.4309e+08,486.19,13677,1491.5,0,1491.5,0,0.00046727,7.3684e-08,0,0.00025385,8.7237e-05,1.2588e+08,16310,0,6.464e+07,11019,1491.5,1
4990,2.94,12381,1,12381,1,0.00014111,-6.876e-09,0,0.00041814,-2.5592e-05,-4.1935e+06,-35.458,0,1.0846e+08,3635,12380,15000,1,15000,1,0.00097229,4.472e-07,0,0.00097229,0.00012112,1.619e+08,1.5302e+05,0,2.6209e+08,73507,14999,12382,1,12382,1,0.00013329,-6.3213e-11,0,0.00040513,-2.4101e-05,3.3147e+07,-15.329,0,1.0353e+08,0.60001,12381,9753,1,9753,1,-0.00064443,-5.4433e-07,0,1.2896e-05,-0.00018093,-2.6209e+08,-83543,0,3.1257e+06,-12460,9752,11091,1,11091,1,-0.00028548,-2.1024e-10,0,0.00019311,-0.00010228,-1.1609e+08,-43.67,0,5.8093e+07,-4.1881,11090,13678,1,13678,1,0.00055205,9.7589e-11,0,0.00061188,5.3935e-05,1.0353e+08,23.982,0,1.4358e+08,486.96,13677,1491.5,0,1491.5,0,0.00046887,7.3901e-08,0,0.00025472,8.7535e-05,1.2631e+08,16365,0,6.4861e+07,11057,1491.5,1
4990,2.95,12381,1,12381,1,0.00014159,-6.9155e-09,0,0.00041956,-2.5679e-05,-4.2078e+06,-39.14,0,1.0883e+08,3646.8,12380,15000,1,15000,1,0.0009756,4.4863e-07,0,0.0009756,0.00012153,1.6245e+08,1.5351e+05,0,2.6298e+08,73751,14999,12382,1,12382,1,0.00013374,-1.2169e-11,0,0.00040651,-2.4183e-05,3.326e+07,-3.07,0,1.0389e+08,2.793,12381,9753,1,9753,1,-0.00064662,-5.4634e-07,0,1.294e-05,-0.00018155,-2.6298e+08,-83855,0,3.1363e+06,-12523,9752,11091,1,11091,1,-0.00028645,-1.238e-10,0,0.00019377,-0.00010262,-1.1648e+08,-32.209,0,5.8291e+07,-4.891,11090,13678,1,13678,1,0.00055393,7.3356e-11,0,0.00061396,5.4118e-05,1.0389e+08,16.009,0,1.4407e+08,486.06,13677,1491.5,0,1491.5,0,0.00047046,7.4171e-08,0,0.00025558,8.7832e-05,1.2674e+08,16421,0,6.5081e+07,11094,1491.5,1
4990,2.96,12381,1,12381,1,0.00014207,-6.9452e-09,0,0.00042098,-2.5766e-05,-4.2221e+06,-40.701,0,1.0919e+08,3658.7,12380,15000,1,15000,1,0.00097891,4.5013e-07,0,0.00097891,0.00012195,1.63e+08,1.5403e+05,0,2.6388e+08,74001,14999,12382,1,12382,1,0.00013419,4.9166e-12,0,0.00040789,-2.4265e-05,3.3373e+07,0.99224,0,1.0424e+08,1.9609,12381,9753,1,9753,1,-0.00064881,-5.4821e-07,0,1.2984e-05,-0.00018216,-2.6388e+08,-84143,0,3.147e+06,-12570,9752,11091,1,11091,1,-0.00028742,-1.5831e-10,0,0.00019442,-0.00010297,-1.1687e+08,-38.035,0,5.8488e+07,-6.1173,11090,13678,1,13678,1,0.00055581,6.52e-11,0,0.00061604,5.4302e-05,1.0424e+08,15.813,0,1.4455e+08,487.32,13677,1491.5,0,1491.5,0,0.00047206,7.4422e-08,0,0.00025645,8.813e-05,1.2717e+08,16476,0,6.5302e+07,11132,1491.5,1
4990,2.97,12381,1,12381,1,0.00014255,-6.9667e-09,0,0.0004224,-2.5853e-05,-4.2363e+06,-40.592,0,1.0956e+08,3670.3,12380,15000,1,15000,1,0.00098221,4.5165e-07,0,0.00098221,0.00012236,1.6355e+08,1.5455e+05,0,2.6477e+08,74253,14999,12382,1,12382,1,0.00013465,-2.2905e-11,0,0.00040926,-2.4347e-05,3.3486e+07,-5.573,0,1.0459e+08,1.3835,12381,9753,1,9753,1,-0.000651,-5.5003e-07,0,1.3028e-05,-0.00018278,-2.6477e+08,-84420,0,3.1577e+06,-12607,9752,11091,1,11091,1,-0.00028839,-1.4696e-10,0,0.00019508,-0.00010332,-1.1727e+08,-35.133,0,5.8686e+07,-7.1458,11090,13678,1,13678,1,0.00055769,7.0995e-11,0,0.00061812,5.4485e-05,1.0459e+08,17.288,0,1.4504e+08,488.95,13677,1491.5,0,1491.5,0,0.00047365,7.4663e-08,0,0.00025732,8.8428e-05,1.276e+08,16531,0,6.5522e+07,11170,1491.5,1
4990,2.98,12381,1,12381,1,0.00014303,-7.026e-09,0,0.00042382,-2.594e-05,-4.2506e+06,-48.381,0,1.0993e+08,3684.2,12380,15000,1,15000,1,0.00098552,4.5318e-07,0,0.00098552,0.00012277,1.641e+08,1.5507e+05,0,2.6566e+08,74500,14999,12382,1,12382,1,0.0001351,-8.3706e-11,0,0.00041064,-2.4429e-05,3.3599e+07,-20.282,0,1.0494e+08,1.1729,12381,9753,1,9753,1,-0.0006532,-5.5187e-07,0,1.3072e-05,-0.0001834,-2.6566e+08,-84702,0,3.1684e+06,-12641,9752,11091,1,11091,1,-0.00028936,-2.4719e-10,0,0.00019574,-0.00010367,-1.1766e+08,-51.818,0,5.8883e+07,-4.619,11090,13678,1,13678,1,0.00055957,5.4213e-11,0,0.0006202,5.4669e-05,1.0494e+08,12.741,0,1.4553e+08,493.08,13677,1491.5,0,1491.5,0,0.00047525,7.4918e-08,0,0.00025818,8.8726e-05,1.2803e+08,16587,0,6.5743e+07,11207,1491.5,1
4990,2.99,12381,1,12381,1,0.00014351,-7.0674e-09,0,0.00042525,-2.6027e-05,-4.2649e+06,-52.581,0,1.103e+08,3697.2,12380,15000,1,15000,1,0.00098883,4.5455e-07,0,0.00098883,0.00012318,1.6465e+08,1.5554e+05,0,2.6655e+08,74753,14999,12382,1,12382,1,0.00013555,-1.7123e-11,0,0.00041202,-2.4511e-05,3.3711e+07,-4.6252,0,1.0529e+08,-0.42638,12381,9753,1,9753,1,-0.00065539,-5.5406e-07,0,1.3116e-05,-0.00018401,-2.6655e+08,-85046,0,3.1791e+06,-12694,9752,11091,1,11091,1,-0.00029034,-2.4189e-10,0,0.0001964,-0.00010402,-1.1806e+08,-50.784,0,5.9081e+07,-6.0135,11090,13678,1,13678,1,0.00056144,9.7615e-11,0,0.00062228,5.4852e-05,1.0529e+08,19.744,0,1.4602e+08,496.21,13677,1491.5,0,1491.5,0,0.00047684,7.5215e-08,0,0.00025905,8.9023e-05,1.2846e+08,16644,0,6.5964e+07,11245,1491.5,1
4990,3,12381,1,12381,1,0.00014399,-7.0228e-09,0,0.00042667,-2.6114e-05,-4.2791e+06,-37.528,0,1.1067e+08,3708,12380,15000,1,15000,1,0.00099214,4.5628e-07,0,0.00099214,0.00012359,1.652e+08,1.5613e+05,0,2.6744e+08,75009,14999,12382,1,12382,1,0.00013601,-3.3793e-11,0,0.0004134,-2.4593e-05,3.3824e+07,-7.8119,0,1.0564e+08,1.2639,12381,9753,1,9753,1,-0.00065758,-5.5548e-07,0,1.316e-05,-0.00018463,-2.6744e+08,-85256,0,3.1898e+06,-12726,9752,11091,1,11091,1,-0.00029131,-1.5114e-10,0,0.00019705,-0.00010436,-1.1845e+08,-31.87,0,5.9278e+07,-6.7101,11090,13678,1,13678,1,0.00056332,6.6425e-11,0,0.00062437,5.5035e-05,1.0564e+08,17.534,0,1.4651e+08,495.07,13677,1491.5,0,1491.5,0,0.00047844,7.5411e-08,0,0.00025992,8.9321e-05,1.2889e+08,16699,0,6.6184e+07,11284,1491.5,1
4990,3.01,12381,1,12381,1,0.00014447,-7.008e-09,0,0.00042809,-2.6201e-05,-4.2934e+06,-29.243,0,1.1104e+08,3721,12380,15000,1,15000,1,0.00099544,4.5768e-07,0,0.00099544,0.00012401,1.6575e+08,1.5661e+05,0,2.6833e+08,75255,14999,12382,1,12382,1,0.00013646,2.8207e-11,0,0.00041477,-2.4675e-05,3.3937e+07,6.7335,0,1.06e+08,-0.1848,12381,9753,1,9753,1,-0.00065977,-5.5758e-07,0,1.3204e-05,-0.00018524,-2.6833e+08,-85582,0,3.2005e+06,-12797,9752,11091,1,11091,1,-0.00029228,-1.2914e-10,0,0.00019771,-0.00010471,-1.1885e+08,-27.248,0,5.9476e+07,-5.0606,11090,13678,1,13678,1,0.0005652,2.4523e-10,0,0.00062645,5.5219e-05,1.06e+08,51.518,0,1.47e+08,499.01,13677,1491.5,0,1491.5,0,0.00048003,7.5699e-08,0,0.00026078,8.9619e-05,1.2932e+08,16755,0,6.6405e+07,11319,1491.5,1
4990,3.02,12381,1,12381,1,0.00014495,-7.0903e-09,0,0.00042951,-2.6288e-05,-4.3077e+06,-42.19,0,1.1141e+08,3733.6,12380,15000,1,15000,1,0.00099875,4.5926e-07,0,0.00099875,0.00012442,1.663e+08,1.5715e+05,0,2.6922e+08,75503,14999,12382,1,12382,1,0.00013691,-7.9622e-11,0,0.00041615,-2.4757e-05,3.405e+07,-18.849,0,1.0635e+08,1.1808,12381,9753,1,9753,1,-0.00066196,-5.593e-07,0,1.3249e-05,-0.00018586,-2.6922e+08,-85843,0,3.2112e+06,-12830,9752,11091,1,11091,1,-0.00029325,-1.6202e-10,0,0.00019837,-0.00010506,-1.1924e+08,-33.595,0,5.9673e+07,-4.1196,11090,13678,1,13678,1,0.00056708,5.5513e-11,0,0.00062853,5.5402e-05,1.0635e+08,13.976,0,1.4748e+08,500.85,13677,1491.5,0,1491.5,0,0.00048163,7.5931e-08,0,0.00026165,8.9917e-05,1.2975e+08,16810,0,6.6625e+07,11357,1491.5,1
4990,3.03,12381,1,12381,1,0.00014543,-7.0536e-09,0,0.00043094,-2.6376e-05,-4.3219e+06,-29.604,0,1.1178e+08,3745.6,12380,15000,1,15000,1,0.0010021,4.6082e-07,0,0.0010021,0.00012483,1.6685e+08,1.5768e+05,0,2.7012e+08,75767,14999,12382,1,12382,1,0.00013737,2.0662e-11,0,0.00041753,-2.4839e-05,3.4163e+07,5.1983,0,1.067e+08,-0.92463,12381,9753,1,9753,1,-0.00066416,-5.6108e-07,0,1.3293e-05,-0.00018647,-2.7012e+08,-86114,0,3.2219e+06,-12876,9752,11091,1,11091,1,-0.00029422,-2.3617e-10,0,0.00019902,-0.00010541,-1.1964e+08,-50.067,0,5.9871e+07,-7.2731,11090,13678,1,13678,1,0.00056896,3.2283e-10,0,0.00063061,5.5586e-05,1.067e+08,65.814,0,1.4797e+08,502.92,13677,1491.5,0,1491.5,0,0.00048322,7.6171e-08,0,0.00026252,9.0214e-05,1.3018e+08,16865,0,6.6846e+07,11395,1491.5,1
4990,3.04,12381,1,12381,1,0.00014592,-7.1847e-09,0,0.00043236,-2.6463e-05,-4.3362e+06,-53.29,0,1.1215e+08,3757.1,12380,15000,1,15000,1,0.0010054,4.6235e-07,0,0.0010054,0.00012524,1.674e+08,1.5821e+05,0,2.7101e+08,75995,14999,12382,1,12382,1,0.00013782,-1.0419e-10,0,0.00041891,-2.4921e-05,3.4275e+07,-26.653,0,1.0705e+08,2.0359,12381,9753,1,9753,1,-0.00066635,-5.6286e-07,0,1.3337e-05,-0.00018709,-2.7101e+08,-86388,0,3.2325e+06,-12915,9752,11091,1,11091,1,-0.00029519,-2.2882e-10,0,0.00019968,-0.00010575,-1.2003e+08,-50.582,0,6.0069e+07,-5.469,11090,13678,1,13678,1,0.00057083,2.1688e-11,0,0.00063269,5.5769e-05,1.0705e+08,5.9724,0,1.4846e+08,487.76,13677,1491.5,0,1491.5,0,0.00048482,7.6408e-08,0,0.00026338,9.0512e-05,1.3061e+08,16920,0,6.7067e+07,11432,1491.5,1
4990,3.05,12381,1,12381,1,0.00014639,-7.1488e-09,0,0.00043378,-2.655e-05,-4.3504e+06,-40.298,0,1.1251e+08,3771.7,12380,15000,1,15000,1,0.0010087,4.637e-07,0,0.0010087,0.00012565,1.6795e+08,1.5867e+05,0,2.719e+08,76260,14999,12382,1,12382,1,0.00013828,-7.1749e-12,0,0.00042029,-2.5003e-05,3.4388e+07,-2.2346,0,1.074e+08,-0.4319,12381,9753,1,9753,1,-0.00066854,-5.6509e-07,0,1.3381e-05,-0.0001877,-2.719e+08,-86737,0,3.2432e+06,-12953,9752,11091,1,11091,1,-0.00029616,-2.3576e-10,0,0.00020034,-0.0001061,-1.2043e+08,-48.284,0,6.0266e+07,-5.7998,11090,13678,1,13678,1,0.00057271,1.8629e-10,0,0.00063477,5.5952e-05,1.074e+08,39.048,0,1.4895e+08,505.98,13677,1491.5,0,1491.5,0,0.00048641,7.6716e-08,0,0.00026425,9.081e-05,1.3104e+08,16977,0,6.7287e+07,11470,1491.5,1
4990,3.06,12381,1,12381,1,0.00014688,-7.1683e-09,0,0.0004352,-2.6637e-05,-4.3647e+06,-39.942,0,1.1288e+08,3780.1,12380,15000,1,15000,1,0.001012,4.6524e-07,0,0.001012,0.00012607,1.6851e+08,1.592e+05,0,2.7279e+08,76511,14999,12382,1,12382,1,0.00013873,4.4411e-12,0,0.00042166,-2.5085e-05,3.4501e+07,0.92276,0,1.0776e+08,2.532,12381,9753,1,9753,1,-0.00067073,-5.6677e-07,0,1.3425e-05,-0.00018832,-2.7279e+08,-86993,0,3.2539e+06,-13013,9752,11091,1,11091,1,-0.00029713,-1.3825e-10,0,0.000201,-0.00010645,-1.2082e+08,-32.898,0,6.0464e+07,-7.7802,11090,13678,1,13678,1,0.00057459,2.0819e-10,0,0.00063686,5.6136e-05,1.0776e+08,47.415,0,1.4944e+08,497.76,13677,1491.5,0,1491.5,0,0.00048801,7.6938e-08,0,0.00026512,9.1108e-05,1.3147e+08,17030,0,6.7508e+07,11508,1491.5,1
4990,3.07,12381,1,12381,1,0.00014736,-7.226e-09,0,0.00043662,-2.6724e-05,-4.379e+06,-47.277,0,1.1325e+08,3797,12380,15000,1,15000,1,0.0010153,4.6661e-07,0,0.0010153,0.00012648,1.6906e+08,1.5967e+05,0,2.7368e+08,76749,14999,12382,1,12382,1,0.00013918,-5.3574e-12,0,0.00042304,-2.5167e-05,3.4614e+07,-1.4981,0,1.0811e+08,0.73146,12381,9753,1,9753,1,-0.00067292,-5.6906e-07,0,1.3469e-05,-0.00018893,-2.7368e+08,-87353,0,3.2646e+06,-13033,9752,11091,1,11091,1,-0.0002981,-1.5853e-10,0,0.00020165,-0.0001068,-1.2122e+08,-33.601,0,6.0661e+07,-3.7147,11090,13678,1,13678,1,0.00057647,1.1901e-10,0,0.00063894,5.6319e-05,1.0811e+08,25.507,0,1.4993e+08,510.34,13677,1491.5,0,1491.5,0,0.0004896,7.7251e-08,0,0.00026598,9.1405e-05,1.319e+08,17087,0,6.7728e+07,11544,1491.5,1
4990,3.08,12381,1,12381,1,0.00014784,-7.1511e-09,0,0.00043805,-2.6811e-05,-4.3932e+06,-25.111,0,1.1362e+08,3808.7,12380,15000,1,15000,1,0.0010186,4.6829e-07,0,0.0010186,0.00012689,1.6961e+08,1.6024e+05,0,2.7457e+08,77012,14999,12382,1,12382,1,0.00013964,2.5532e-11,0,0.00042442,-2.5249e-05,3.4727e+07,6.275,0,1.0846e+08,-0.51965,12381,9753,1,9753,1,-0.00067511,-5.7064e-07,0,1.3513e-05,-0.00018955,-2.7457e+08,-87589,0,3.2754e+06,-13054,9752,11091,1,11091,1,-0.00029907,-1.8433e-10,0,0.00020231,-0.00010715,-1.2161e+08,-36.233,0,6.0859e+07,-6.6865,11090,13678,1,13678,1,0.00057834,2.4267e-10,0,0.00064102,5.6503e-05,1.0846e+08,53.352,0,1.5041e+08,512.32,13677,1491.5,0,1491.5,0,0.00049119,7.7471e-08,0,0.00026685,9.1703e-05,1.3232e+08,17144,0,6.7949e+07,11584,1491.5,1
4990,3.09,12381,1,12381,1,0.00014832,-7.2512e-09,0,0.00043947,-2.6898e-05,-4.4075e+06,-42.361,0,1.1399e+08,3821.3,12380,15000,1,15000,1,0.0010219,4.6967e-07,0,0.0010219,0.0001273,1.7016e+08,1.6071e+05,0,2.7546e+08,77260,14999,12382,1,12382,1,0.00014009,7.2114e-12,0,0.0004258,-2.5331e-05,3.4839e+07,1.6505,0,1.0881e+08,-0.80937,12381,9753,1,9753,1,-0.0006773,-5.7278e-07,0,1.3558e-05,-0.00019017,-2.7546e+08,-87924,0,3.2862e+06,-13111,9752,11091,1,11091,1,-0.00030004,-1.4778e-10,0,0.00020297,-0.00010749,-1.2201e+08,-30.595,0,6.1056e+07,-5.6594,11090,13678,1,13678,1,0.00058022,1.5164e-10,0,0.0006431,5.6686e-05,1.0881e+08,33.253,0,1.509e+08,513.36,13677,1491.5,0,1491.5,0,0.00049279,7.7761e-08,0,0.00026771,9.2001e-05,1.3275e+08,17200,0,6.8169e+07,11621,1491.5,1
4990,3.1,12381,1,12381,1,0.0001488,-7.281e-09,0,0.00044089,-2.6985e-05,-4.4218e+06,-43.866,0,1.1436e+08,3831.5,12380,15000,1,15000,1,0.0010252,4.7142e-07,0,0.0010252,0.00012771,1.7071e+08,1.6131e+05,0,2.7636e+08,77490,14999,12382,1,12382,1,0.00014054,-1.0141e-10,0,0.00042717,-2.5414e-05,3.4952e+07,-25.47,0,1.0916e+08,0.029326,12381,9753,1,9753,1,-0.0006795,-5.7421e-07,0,1.3602e-05,-0.00019078,-2.7636e+08,-88130,0,3.297e+06,-13133,9752,11091,1,11091,1,-0.00030101,-2.3352e-10,0,0.00020362,-0.00010784,-1.224e+08,-48.064,0,6.1254e+07,-5.6915,11090,13678,1,13678,1,0.0005821,8.2452e-11,0,0.00064518,5.6869e-05,1.0916e+08,20.429,0,1.5139e+08,513.48,13677,1491.5,0,1491.5,0,0.00049438,7.795e-08,0,0.00026858,9.2298e-05,1.3318e+08,17253,0,6.839e+07,11656,1491.5,1
4990,3.11,12381,1,12381,1,0.00014928,-7.2412e-09,0,0.00044231,-2.7072e-05,-4.436e+06,-30,0,1.1473e+08,3844.6,12380,15000,1,15000,1,0.0010285,4.7283e-07,0,0.0010285,0.00012813,1.7126e+08,1.6179e+05,0,2.7725e+08,77764,14999,12382,1,12382,1,0.000141,2.4125e-11,0,0.00042855,-2.5496e-05,3.5065e+07,6.9064,0,1.0951e+08,-0.76158,12381,9753,1,9753,1,-0.00068169,-5.7626e-07,0,1.3646e-05,-0.0001914,-2.7725e+08,-88451,0,3.3077e+06,-13192,9752,11091,1,11091,1,-0.00030198,-1.5187e-10,0,0.00020428,-0.00010819,-1.228e+08,-31.229,0,6.1452e+07,-6.4793,11090,13678,1,13678,1,0.00058398,2.2398e-10,0,0.00064726,5.7053e-05,1.0951e+08,49.056,0,1.5188e+08,515.4,13677,1491.5,0,1491.5,0,0.00049598,7.8226e-08,0,0.00026945,9.2596e-05,1.3361e+08,17310,0,6.8611e+07,11697,1491.5,1
4990,3.12,12381,1,12381,1,0.00014976,-7.3629e-09,0,0.00044374,-2.7159e-05,-4.4503e+06,-51.674,0,1.151e+08,3857.8,12380,15000,1,15000,1,0.0010318,4.7437e-07,0,0.0010318,0.00012854,1.7181e+08,1.6232e+05,0,2.7814e+08,78005,14999,12382,1,12382,1,0.00014145,-9.0623e-11,0,0.00042993,-2.5578e-05,3.5178e+07,-22.018,0,1.0987e+08,-0.1574,12381,9753,1,9753,1,-0.00068388,-5.7811e-07,0,1.369e-05,-0.00019201,-2.7814e+08,-88733,0,3.3185e+06,-13219,9752,11091,1,11091,1,-0.00030296,-3.5048e-10,0,0.00020494,-0.00010854,-1.2319e+08,-69.685,0,6.1649e+07,-6.2577,11090,13678,1,13678,1,0.00058586,9.0644e-11,0,0.00064934,5.7236e-05,1.0987e+08,21.432,0,1.5237e+08,517.24,13677,1491.5,0,1491.5,0,0.00049757,7.8473e-08,0,0.00027031,9.2894e-05,1.3404e+08,17367,0,6.8831e+07,11734,1491.5,1
4990,3.13,12381,1,12381,1,0.00015024,-7.3133e-09,0,0.00044516,-2.7247e-05,-4.4646e+06,-35.817,0,1.1546e+08,3869.2,12380,15000,1,15000,1,0.0010351,4.7592e-07,0,0.0010351,0.00012895,1.7236e+08,1.6285e+05,0,2.7903e+08,78267,14999,12382,1,12382,1,0.00014191,1.2951e-11,0,0.00043131,-2.566e-05,3.5291e+07,3.37,0,1.1022e+08,-1.525,12381,9753,1,9753,1,-0.00068607,-5.7989e-07,0,1.3735e-05,-0.00019263,-2.7903e+08,-89004,0,3.3293e+06,-13267,9752,11091,1,11091,1,-0.00030393,-3.5906e-10,0,0.0002056,-0.00010889,-1.2359e+08,-74.83,0,6.1847e+07,-9.3175,11090,13678,1,13678,1,0.00058774,2.6772e-10,0,0.00065143,5.742e-05,1.1022e+08,59.606,0,1.5286e+08,516.38,13677,1491.5,0,1491.5,0,0.00049917,7.8714e-08,0,0.00027118,9.3192e-05,1.3447e+08,17422,0,6.9052e+07,11773,1491.5,1
4990,3.14,12381,1,12381,1,0.00015072,-7.3179e-09,0,0.00044658,-2.7334e-05,-4.4788e+06,-31.861,0,1.1583e+08,3883,12380,15000,1,15000,1,0.0010384,4.7738e-07,0,0.0010384,0.00012936,1.7291e+08,1.6335e+05,0,2.7992e+08,78518,14999,12382,1,12382,1,0.00014236,6.0929e-11,0,0.00043268,-2.5742e-05,3.5404e+07,14.661,0,1.1057e+08,-1.3788,12381,9753,1,9753,1,-0.00068826,-5.8192e-07,0,1.3779e-05,-0.00019324,-2.7992e+08,-89320,0,3.3401e+06,-13310,9752,11091,1,11091,1,-0.0003049,-2.9629e-10,0,0.00020625,-0.00010923,-1.2398e+08,-63.053,0,6.2045e+07,-8.8865,11090,13678,1,13678,1,0.00058962,3.9359e-10,0,0.00065351,5.7603e-05,1.1057e+08,84.04,0,1.5335e+08,522.82,13677,1491.5,0,1491.5,0,0.00050076,7.8996e-08,0,0.00027205,9.3489e-05,1.349e+08,17479,0,6.9272e+07,11810,1491.5,1
4990,3.15,12381,1,12381,1,0.0001512,-7.411e-09,0,0.000448,-2.7421e-05,-4.4931e+06,-47.062,0,1.162e+08,3893.1,12380,15000,1,15000,1,0.0010417,4.7912e-07,0,0.0010417,0.00012977,1.7346e+08,1.6395e+05,0,2.8081e+08,78740,14999,12382,1,12382,1,0.00014281,-3.6653e-11,0,0.00043406,-2.5824e-05,3.5517e+07,-8.5035,0,1.1092e+08,-0.3582,12381,9753,1,9753,1,-0.00069046,-5.8327e-07,0,1.3823e-05,-0.00019386,-2.8081e+08,-89514,0,3.3509e+06,-13388,9752,11091,1,11091,1,-0.00030587,-4.4485e-10,0,0.00020691,-0.00010958,-1.2437e+08,-90.984,0,6.2243e+07,-8.3739,11090,13678,1,13678,1,0.00059149,1.2729e-10,0,0.00065559,5.7786e-05,1.1092e+08,28.164,0,1.5383e+08,520.79,13677,1491.5,0,1491.5,0,0.00050236,7.9175e-08,0,0.00027291,9.3787e-05,1.3533e+08,17532,0,6.9493e+07,11844,1491.5,1
4990,3.16,12381,1,12381,1,0.00015168,-7.4065e-09,0,0.00044943,-2.7508e-05,-4.5074e+06,-41.345,0,1.1657e+08,3906.3,12380,15000,1,15000,1,0.0010451,4.804e-07,0,0.0010451,0.00013018,1.7401e+08,1.6438e+05,0,2.817e+08,79016,14999,12382,1,12382,1,0.00014327,-3.8494e-12,0,0.00043544,-2.5906e-05,3.5629e+07,-0.89865,0,1.1127e+08,1.1586,12381,9753,1,9753,1,-0.00069264,-5.8565e-07,0,1.3868e-05,-0.00019447,-2.817e+08,-89890,0,3.3617e+06,-13390,9752,11091,1,11091,1,-0.00030684,-1.2862e-10,0,0.00020757,-0.00010993,-1.2477e+08,-27.038,0,6.244e+07,-7.4417,11090,13678,1,13678,1,0.00059337,1.033e-10,0,0.00065767,5.797e-05,1.1127e+08,26.149,0,1.5432e+08,520.37,13677,1491.5,0,1491.5,0,0.00050395,7.9497e-08,0,0.00027378,9.4085e-05,1.3576e+08,17589,0,6.9713e+07,11887,1491.5,1
4990,3.17,12381,1,12381,1,0.00015216,-7.4417e-09,0,0.00045085,-2.7595e-05,-4.5216e+06,-44.099,0,1.1694e+08,3919.7,12380,15000,1,15000,1,0.0010484,4.8186e-07,0,0.0010484,0.0001306,1.7456e+08,1.6488e+05,0,2.8259e+08,79275,14999,12382,1,12382,1,0.00014372,-7.2321e-12,0,0.00043682,-2.5988e-05,3.5742e+07,-1.8195,0,1.1162e+08,0.7853,12381,9753,1,9753,1,-0.00069484,-5.8766e-07,0,1.3912e-05,-0.00019509,-2.8259e+08,-90202,0,3.3724e+06,-13426,9752,11091,1,11091,1,-0.00030781,-1.0739e-10,0,0.00020822,-0.00011028,-1.2516e+08,-25.932,0,6.2638e+07,-6.9141,11090,13678,1,13678,1,0.00059525,9.9591e-11,0,0.00065975,5.8153e-05,1.1162e+08,25.225,0,1.5481e+08,521.95,13677,1491.5,0,1491.5,0,0.00050555,7.9767e-08,0,0.00027465,9.4383e-05,1.3619e+08,17645,0,6.9934e+07,11925,1491.5,1
4990,3.18,12381,1,12381,1,0.00015264,-7.3574e-09,0,0.00045227,-2.7682e-05,-4.5359e+06,-19.976,0,1.1731e+08,3933.4,12380,15000,1,15000,1,0.0010517,4.8341e-07,0,0.0010517,0.00013101,1.7511e+08,1.6541e+05,0,2.8349e+08,79525,14999,12382,1,12382,1,0.00014417,6.7597e-11,0,0.00043819,-2.607e-05,3.5855e+07,16.83,0,1.1198e+08,-0.64156,12381,9753,1,9753,1,-0.00069703,-5.8949e-07,0,1.3956e-05,-0.0001957,-2.8349e+08,-90482,0,3.3832e+06,-13461,9752,11091,1,11091,1,-0.00030878,-1.489e-11,0,0.00020888,-0.00011063,-1.2556e+08,-2.9134,0,6.2835e+07,-5.6602,11090,13678,1,13678,1,0.00059713,2.6661e-10,0,0.00066184,5.8336e-05,1.1198e+08,59.95,0,1.553e+08,528.46,13677,1491.5,0,1491.5,0,0.00050714,8.0027e-08,0,0.00027551,9.468e-05,1.3662e+08,17702,0,7.0155e+07,11963,1491.5,1
4990,3.19,12381,1,12381,1,0.00015312,-7.4797e-09,0,0.00045369,-2.7769e-05,-4.5502e+06,-42.216,0,1.1768e+08,3945.1,12380,15000,1,15000,1,0.001055,4.8494e-07,0,0.001055,0.00013142,1.7567e+08,1.6594e+05,0,2.8438e+08,79771,14999,12382,1,12382,1,0.00014463,1.3313e-11,0,0.00043957,-2.6152e-05,3.5968e+07,3.4413,0,1.1233e+08,-0.61461,12381,9753,1,9753,1,-0.00069922,-5.9128e-07,0,1.4001e-05,-0.00019632,-2.8438e+08,-90755,0,3.394e+06,-13516,9752,11091,1,11091,1,-0.00030975,-2.2133e-10,0,0.00020954,-0.00011097,-1.2595e+08,-46.55,0,6.3033e+07,-6.1258,11090,13678,1,13678,1,0.00059901,1.8124e-10,0,0.00066392,5.852e-05,1.1233e+08,40.06,0,1.5579e+08,527.96,13677,1491.5,0,1491.5,0,0.00050874,8.0263e-08,0,0.00027638,9.4978e-05,1.3705e+08,17757,0,7.0375e+07,11999,1491.5,1
4990,3.2,12381,1,12381,1,0.0001536,-7.5383e-09,0,0.00045512,-2.7857e-05,-4.5644e+06,-50.258,0,1.1805e+08,3955.5,12380,15000,1,15000,1,0.0010583,4.8658e-07,0,0.0010583,0.00013183,1.7622e+08,1.665e+05,0,2.8527e+08,79995,14999,12382,1,12382,1,0.00014508,-8.4666e-11,0,0.00044095,-2.6234e-05,3.6081e+07,-20.387,0,1.1268e+08,-0.28928,12381,9753,1,9753,1,-0.00070141,-5.9285e-07,0,1.4045e-05,-0.00019694,-2.8527e+08,-90988,0,3.4048e+06,-13563,9752,11091,1,11091,1,-0.00031072,-3.3932e-10,0,0.0002102,-0.00011132,-1.2635e+08,-67.875,0,6.3231e+07,-6.5293,11090,13678,1,13678,1,0.00060088,9.6776e-11,0,0.000666,5.8703e-05,1.1268e+08,22.857,0,1.5628e+08,528.95,13677,1491.5,0,1491.5,0,0.00051033,8.0473e-08,0,0.00027725,9.5276e-05,1.3748e+08,17810,0,7.0596e+07,12034,1491.5,1
4990,3.21,12381,1,12381,1,0.00015408,-7.6349e-09,0,0.00045654,-2.7944e-05,-4.5787e+06,-66.356,0,1.1841e+08,3971.4,12380,15000,1,15000,1,0.0010616,4.8788e-07,0,0.0010616,0.00013224,1.7677e+08,1.6694e+05,0,2.8616e+08,80254,14999,12382,1,12382,1,0.00014554,-3.6678e-11,0,0.00044233,-2.6316e-05,3.6194e+07,-8.8488,0,1.1303e+08,-0.91365,12381,9753,1,9753,1,-0.0007036,-5.9522e-07,0,1.4089e-05,-0.00019755,-2.8616e+08,-91364,0,3.4155e+06,-13604,9752,11091,1,11091,1,-0.00031169,-3.6538e-10,0,0.00021085,-0.00011167,-1.2674e+08,-75.411,0,6.3428e+07,-7.0117,11090,13678,1,13678,1,0.00060276,1.052e-10,0,0.00066808,5.8887e-05,1.1303e+08,21.728,0,1.5676e+08,534.09,13677,1491.5,0,1491.5,0,0.00051193,8.0801e-08,0,0.00027811,9.5574e-05,1.3791e+08,17870,0,7.0816e+07,12073,1491.5,1
4990,3.22,12381,1,12381,1,0.00015456,-7.5559e-09,0,0.00045796,-2.8031e-05,-4.593e+06,-43.836,0,1.1878e+08,3979.4,12380,15000,1,15000,1,0.0010649,4.895e-07,0,0.0010649,0.00013266,1.7732e+08,1.675e+05,0,2.8705e+08,80502,14999,12382,1,12382,1,0.00014599,-8.6765e-13,0,0.00044371,-2.6398e-05,3.6307e+07,-0.19792,0,1.1338e+08,0.66452,12381,9753,1,9753,1,-0.00070579,-5.9671e-07,0,1.4134e-05,-0.00019817,-2.8705e+08,-91588,0,3.4263e+06,-13665,9752,11091,1,11091,1,-0.00031266,-1.4218e-10,0,0.00021151,-0.00011202,-1.2714e+08,-32.345,0,6.3626e+07,-6.28,11090,13678,1,13678,1,0.00060464,1.0986e-10,0,0.00067016,5.907e-05,1.1338e+08,26.171,0,1.5725e+08,530.84,13677,1491.5,0,1491.5,0,0.00051352,8.1009e-08,0,0.00027898,9.5871e-05,1.3834e+08,17924,0,7.1037e+07,12110,1491.5,1
4990,3.23,12381,1,12381,1,0.00015504,-7.509e-09,0,0.00045938,-2.8118e-05,-4.6073e+06,-28.217,0,1.1915e+08,3994.9,12380,15000,1,15000,1,0.0010682,4.9106e-07,0,0.0010682,0.00013307,1.7787e+08,1.6803e+05,0,2.8794e+08,80767,14999,12382,1,12382,1,0.00014644,6.8802e-11,0,0.00044508,-2.648e-05,3.6419e+07,18.391,0,1.1374e+08,-0.46711,12381,9753,1,9753,1,-0.00070799,-5.9862e-07,0,1.4178e-05,-0.00019878,-2.8794e+08,-91878,0,3.4371e+06,-13709,9752,11091,1,11091,1,-0.00031363,-2.7328e-10,0,0.00021217,-0.00011237,-1.2753e+08,-57.409,0,6.3823e+07,-7.8995,11090,13678,1,13678,1,0.00060652,4.2747e-10,0,0.00067224,5.9253e-05,1.1374e+08,88.234,0,1.5774e+08,536.83,13677,1491.5,0,1491.5,0,0.00051512,8.1271e-08,0,0.00027985,9.6169e-05,1.3877e+08,17980,0,7.1257e+07,12147,1491.5,1
4990,3.24,12381,1,12381,1,0.00015552,-7.546e-09,0,0.00046081,-2.8205e-05,-4.6215e+06,-31.864,0,1.1952e+08,4005.2,12380,15000,1,15000,1,0.0010715,4.9258e-07,0,0.0010715,0.00013348,1.7842e+08,1.6855e+05,0,2.8883e+08,81030,14999,12382,1,12382,1,0.0001469,1.0266e-10,0,0.00044646,-2.6563e-05,3.6532e+07,24.746,0,1.1409e+08,0.78883,12381,9753,1,9753,1,-0.00071018,-6.0048e-07,0,1.4222e-05,-0.0001994,-2.8883e+08,-92159,0,3.4479e+06,-13787,9752,11091,1,11091,1,-0.0003146,-1.5424e-10,0,0.00021283,-0.00011271,-1.2793e+08,-35.091,0,6.4021e+07,-7.1232,11090,13678,1,13678,1,0.0006084,3.4753e-10,0,0.00067433,5.9437e-05,1.1409e+08,71.175,0,1.5823e+08,534.54,13677,1491.5,0,1491.5,0,0.00051671,8.1509e-08,0,0.00028071,9.6467e-05,1.392e+08,18034,0,7.1478e+07,12184,1491.5,1
4990,3.25,12381,1,12381,1,0.000156,-7.6636e-09,0,0.00046223,-2.8292e-05,-4.6358e+06,-52.463,0,1.1989e+08,4017.8,12380,15000,1,15000,1,0.0010748,4.9418e-07,0,0.0010748,0.00013389,1.7897e+08,1.691e+05,0,2.8973e+08,81263,14999,12382,1,12382,1,0.00014735,-4.7857e-11,0,0.00044784,-2.6645e-05,3.6645e+07,-11.476,0,1.1444e+08,-0.5342,12381,9753,1,9753,1,-0.00071237,-6.0213e-07,0,1.4267e-05,-0.00020001,-2.8973e+08,-92410,0,3.4587e+06,-13802,9752,11091,1,11091,1,-0.00031557,-4.0708e-10,0,0.00021348,-0.00011306,-1.2832e+08,-85.283,0,6.4219e+07,-7.9305,11090,13678,1,13678,1,0.00061028,1.088e-10,0,0.00067641,5.962e-05,1.1444e+08,24.309,0,1.5872e+08,538.6,13677,1491.5,0,1491.5,0,0.00051831,8.1731e-08,0,0.00028158,9.6765e-05,1.3963e+08,18089,0,7.1699e+07,12223,1491.5,1
4990,3.26,12381,1,12381,1,0.00015648,-7.6801e-09,0,0.00046365,-2.8379e-05,-4.65e+06,-51.07,0,1.2026e+08,4031,12380,15000,1,15000,1,0.0010781,4.9565e-07,0,0.0010781,0.0001343,1.7952e+08,1.696e+05,0,2.9062e+08,81521,14999,12382,1,12382,1,0.00014781,-5.8162e-11,0,0.00044922,-2.6727e-05,3.6758e+07,-13.813,0,1.1479e+08,0.35234,12381,9753,1,9753,1,-0.00071456,-6.0413e-07,0,1.4311e-05,-0.00020063,-2.9062e+08,-92720,0,3.4695e+06,-13828,9752,11091,1,11091,1,-0.00031654,-2.6784e-10,0,0.00021414,-0.00011341,-1.2872e+08,-55.953,0,6.4416e+07,-5.2606,11090,13678,1,13678,1,0.00061215,8.6136e-11,0,0.00067849,5.9803e-05,1.1479e+08,20.104,0,1.5921e+08,540.82,13677,1491.5,0,1491.5,0,0.0005199,8.2004e-08,0,0.00028245,9.7062e-05,1.4006e+08,18146,0,7.1919e+07,12261,1491.5,1
4990,3.27,12381,1,12381,1,0.00015696,-7.7091e-09,0,0.00046507,-2.8466e-05,-4.6643e+06,-52.259,0,1.2063e+08,4045,12380,15000,1,15000,1,0.0010814,4.9711e-07,0,0.0010814,0.00013472,1.8007e+08,1.701e+05,0,2.9151e+08,81774,14999,12382,1,12382,1,0.00014826,-6.2233e-11,0,0.00045059,-2.6809e-05,3.6871e+07,-15.037,0,1.1514e+08,-0.72383,12381,9753,1,9753,1,-0.00071675,-6.0613e-07,0,1.4355e-05,-0.00020124,-2.9151e+08,-93029,0,3.4802e+06,-13841,9752,11091,1,11091,1,-0.00031751,-4.3167e-10,0,0.0002148,-0.00011376,-1.2911e+08,-87.557,0,6.4614e+07,-8.3877,11090,13678,1,13678,1,0.00061403,1.5205e-10,0,0.00068057,5.9987e-05,1.1514e+08,34.313,0,1.597e+08,544.37,13677,1491.5,0,1491.5,0,0.0005215,8.2269e-08,0,0.00028331,9.736e-05,1.4048e+08,18202,0,7.214e+07,12300,1491.5,1
4990,3.28,12381,1,12381,1,0.00015745,-7.7653e-09,0,0.00046649,-2.8554e-05,-4.6786e+06,-59.871,0,1.21e+08,4054.4,12380,15000,1,15000,1,0.0010848,4.9865e-07,0,0.0010848,0.00013513,1.8062e+08,1.7063e+05,0,2.924e+08,82029,14999,12382,1,12382,1,0.00014871,-1.0078e-10,0,0.00045197,-2.6891e-05,3.6984e+07,-25.644,0,1.1549e+08,0.58375,12381,9753,1,9753,1,-0.00071894,-6.0788e-07,0,1.44e-05,-0.00020186,-2.924e+08,-93294,0,3.4911e+06,-13921,9752,11091,1,11091,1,-0.00031849,-2.4436e-10,0,0.00021546,-0.00011411,-1.2951e+08,-52.423,0,6.4812e+07,-8.9852,11090,13678,1,13678,1,0.00061591,4.3072e-11,0,0.00068265,6.017e-05,1.1549e+08,12.282,0,1.6018e+08,541.46,13677,1491.5,0,1491.5,0,0.00052309,8.2505e-08,0,0.00028418,9.7658e-05,1.4091e+08,18256,0,7.236e+07,12337,1491.5,1
4990,3.29,12381,1,12381,1,0.00015793,-7.6431e-09,0,0.00046792,-2.8641e-05,-4.6929e+06,-27.49,0,1.2136e+08,4068.5,12380,15000,1,15000,1,0.0010881,5.0024e-07,0,0.0010881,0.00013554,1.8117e+08,1.7117e+05,0,2.9329e+08,82263,14999,12382,1,12382,1,0.00014917,2.7694e-11,0,0.00045335,-2.6973e-05,3.7097e+07,7.1675,0,1.1585e+08,0.16384,12381,9753,1,9753,1,-0.00072114,-6.096e-07,0,1.4444e-05,-0.00020248,-2.9329e+08,-93556,0,3.5018e+06,-13956,9752,11091,1,11091,1,-0.00031946,-2.1665e-10,0,0.00021611,-0.00011445,-1.299e+08,-41.078,0,6.5009e+07,-7.2966,11090,13678,1,13678,1,0.00061779,2.2518e-10,0,0.00068474,6.0354e-05,1.1585e+08,50.056,0,1.6067e+08,547.11,13677,1491.5,0,1491.5,0,0.00052469,8.2756e-08,0,0.00028505,9.7956e-05,1.4134e+08,18312,0,7.2581e+07,12373,1491.5,1
4990,3.3,12381,1,12381,1,0.00015841,-7.6627e-09,0,0.00046934,-2.8728e-05,-4.7071e+06,-27.194,0,1.2173e+08,4080,12380,15000,1,15000,1,0.0010914,5.0165e-07,0,0.0010914,0.00013595,1.8172e+08,1.7165e+05,0,2.9418e+08,82518,14999,12382,1,12382,1,0.00014962,4.3587e-11,0,0.00045473,-2.7055e-05,3.7209e+07,10.778,0,1.162e+08,-0.48647,12381,9753,1,9753,1,-0.00072333,-6.1169e-07,0,1.4489e-05,-0.00020309,-2.9418e+08,-93881,0,3.5126e+06,-13988,9752,11091,1,11091,1,-0.00032043,-5.1595e-11,0,0.00021677,-0.0001148,-1.3029e+08,-11.329,0,6.5207e+07,-7.1131,11090,13678,1,13678,1,0.00061967,2.393e-10,0,0.00068682,6.0537e-05,1.162e+08,54.332,0,1.6116e+08,546.51,13677,1491.5,0,1491.5,0,0.00052628,8.3033e-08,0,0.00028591,9.8254e-05,1.4177e+08,18368,0,7.2801e+07,12414,1491.5,1
4990,3.31,12381,1,12381,1,0.00015889,-7.7614e-09,0,0.00047076,-2.8815e-05,-4.7214e+06,-44.101,0,1.221e+08,4092.7,12380,15000,1,15000,1,0.0010947,5.0311e-07,0,0.0010947,0.00013636,1.8228e+08,1.7215e+05,0,2.9507e+08,82763,14999,12382,1,12382,1,0.00015007,6.9645e-11,0,0.0004561,-2.7137e-05,3.7322e+07,16.904,0,1.1655e+08,0.21324,12381,9753,1,9753,1,-0.00072552,-6.1366e-07,0,1.4533e-05,-0.00020371,-2.9507e+08,-94185,0,3.5234e+06,-14029,9752,11091,1,11091,1,-0.0003214,-1.7573e-10,0,0.00021743,-0.00011515,-1.3069e+08,-40.734,0,6.5404e+07,-7.0875,11090,13678,1,13678,1,0.00062155,2.4175e-10,0,0.0006889,6.072e-05,1.1655e+08,49.161,0,1.6165e+08,547,13677,1491.5,0,1491.5,0,0.00052788,8.3298e-08,0,0.00028678,9.8551e-05,1.422e+08,18424,0,7.3022e+07,12449,1491.5,1
4990,3.32,12381,1,12381,1,0.00015937,-7.8584e-09,0,0.00047218,-2.8902e-05,-4.7356e+06,-60.039,0,1.2247e+08,4106.2,12380,15000,1,15000,1,0.001098,5.0466e-07,0,0.001098,0.00013678,1.8283e+08,1.7268e+05,0,2.9596e+08,83020,14999,12382,1,12382,1,0.00015053,-1.512e-11,0,0.00045748,-2.7219e-05,3.7435e+07,-3.6565,0,1.169e+08,-0.1207,12381,9753,1,9753,1,-0.00072771,-6.1548e-07,0,1.4577e-05,-0.00020432,-2.9596e+08,-94463,0,3.5342e+06,-14071,9752,11091,1,11091,1,-0.00032237,-2.799e-10,0,0.00021808,-0.0001155,-1.3108e+08,-59.439,0,6.5602e+07,-5.6421,11090,13678,1,13678,1,0.00062342,5.8397e-11,0,0.00069098,6.0904e-05,1.169e+08,13.595,0,1.6214e+08,550.03,13677,1491.5,0,1491.5,0,0.00052947,8.3546e-08,0,0.00028764,9.8849e-05,1.4263e+08,18480,0,7.3242e+07,12486,1491.5,1
4990,3.33,12381,1,12381,1,0.00015985,-7.8326e-09,0,0.00047361,-2.8989e-05,-4.7499e+06,-49.368,0,1.2284e+08,4117.5,12380,15000,1,15000,1,0.0011013,5.0626e-07,0,0.0011013,0.00013719,1.8338e+08,1.7323e+05,0,2.9686e+08,83263,14999,12382,1,12382,1,0.00015098,-1.5593e-12,0,0.00045886,-2.7301e-05,3.7548e+07,-0.43061,0,1.1725e+08,-1.0212,12381,9753,1,9753,1,-0.0007299,-6.1716e-07,0,1.4622e-05,-0.00020494,-2.9686e+08,-94716,0,3.5451e+06,-14130,9752,11091,1,11091,1,-0.00032334,-3.6324e-10,0,0.00021874,-0.00011585,-1.3148e+08,-76.961,0,6.58e+07,-8.1104,11090,13678,1,13678,1,0.0006253,1.8524e-10,0,0.00069306,6.1087e-05,1.1725e+08,40.559,0,1.6263e+08,552.32,13677,1491.5,0,1491.5,0,0.00053107,8.3773e-08,0,0.00028851,9.9147e-05,1.4306e+08,18535,0,7.3463e+07,12523,1491.5,1
4990,3.34,12381,1,12381,1,0.00016033,-7.8887e-09,0,0.00047503,-2.9077e-05,-4.7642e+06,-56.468,0,1.2321e+08,4132.1,12380,15000,1,15000,1,0.0011046,5.0759e-07,0,0.0011046,0.0001376,1.8393e+08,1.7369e+05,0,2.9775e+08,83506,14999,12382,1,12382,1,0.00015144,1.8213e-11,0,0.00046024,-2.7383e-05,3.7661e+07,4.4719,0,1.176e+08,-1.1905,12381,9753,1,9753,1,-0.00073209,-6.1948e-07,0,1.4666e-05,-0.00020555,-2.9775e+08,-95082,0,3.5558e+06,-14148,9752,11091,1,11091,1,-0.00032431,-2.708e-10,0,0.0002194,-0.00011619,-1.3187e+08,-56.282,0,6.5997e+07,-7.7933,11090,13678,1,13678,1,0.00062718,2.5693e-10,0,0.00069514,6.127e-05,1.176e+08,51.801,0,1.6311e+08,555.71,13677,1491.5,0,1491.5,0,0.00053266,8.4098e-08,0,0.00028938,9.9444e-05,1.4349e+08,18594,0,7.3684e+07,12561,1491.5,1
4990,3.35,12381,1,12381,1,0.00016081,-7.8861e-09,0,0.00047645,-2.9164e-05,-4.7785e+06,-51.027,0,1.2358e+08,4142.3,12380,15000,1,15000,1,0.0011079,5.0934e-07,0,0.0011079,0.00013801,1.8448e+08,1.7429e+05,0,2.9864e+08,83751,14999,12382,1,12382,1,0.00015189,-1.4033e-12,0,0.00046161,-2.7465e-05,3.7774e+07,-0.29836,0,1.1796e+08,-0.86993,12381,9753,1,9753,1,-0.00073429,-6.2082e-07,0,1.4711e-05,-0.00020617,-2.9864e+08,-95273,0,3.5667e+06,-14207,9752,11091,1,11091,1,-0.00032528,-3.7479e-10,0,0.00022006,-0.00011654,-1.3227e+08,-79.296,0,6.6195e+07,-8.2282,11090,13678,1,13678,1,0.00062906,1.8722e-10,0,0.00069723,6.1454e-05,1.1796e+08,40.264,0,1.636e+08,555.96,13677,1491.5,0,1491.5,0,0.00053426,8.4271e-08,0,0.00029025,9.9742e-05,1.4392e+08,18646,0,7.3904e+07,12597,1491.5,1
4990,3.36,12381,1,12381,1,0.00016129,-7.8546e-09,0,0.00047787,-2.9251e-05,-4.7927e+06,-38.98,0,1.2395e+08,4153.9,12380,15000,1,15000,1,0.0011112,5.1087e-07,0,0.0011112,0.00013842,1.8503e+08,1.7481e+05,0,2.9953e+08,84011,14999,12382,1,12382,1,0.00015234,1.5988e-11,0,0.00046299,-2.7547e-05,3.7887e+07,4.1523,0,1.1831e+08,0.22781,12381,9753,1,9753,1,-0.00073648,-6.226e-07,0,1.4755e-05,-0.00020678,-2.9953e+08,-95545,0,3.5774e+06,-14291,9752,11091,1,11091,1,-0.00032625,-2.56e-10,0,0.00022072,-0.00011689,-1.3266e+08,-52.194,0,6.6393e+07,-6.7109,11090,13678,1,13678,1,0.00063094,1.8196e-10,0,0.00069931,6.1637e-05,1.1831e+08,41.322,0,1.6409e+08,556.59,13677,1491.5,0,1491.5,0,0.00053585,8.4512e-08,0,0.00029111,0.00010004,1.4435e+08,18701,0,7.4125e+07,12635,1491.5,1
4990,3.37,12381,1,12381,1,0.00016177,-7.8846e-09,0,0.0004793,-2.9338e-05,-4.807e+06,-40.24,0,1.2431e+08,4168.7,12380,15000,1,15000,1,0.0011145,5.1234e-07,0,0.0011145,0.00013884,1.8558e+08,1.7531e+05,0,3.0042e+08,84263,14999,12382,1,12382,1,0.0001528,6.6174e-12,0,0.00046437,-2.7629e-05,3.8e+07,1.7193,0,1.1866e+08,-0.39053,12381,9753,1,9753,1,-0.00073867,-6.246e-07,0,1.4799e-05,-0.0002074,-3.0042e+08,-95855,0,3.5882e+06,-14282,9752,11091,1,11091,1,-0.00032722,-3.597e-10,0,0.00022137,-0.00011724,-1.3306e+08,-73.133,0,6.659e+07,-8.2188,11090,13678,1,13678,1,0.00063282,2.2157e-10,0,0.00070139,6.182e-05,1.1866e+08,48.603,0,1.6458e+08,561.18,13677,1491.5,0,1491.5,0,0.00053745,8.4782e-08,0,0.00029198,0.00010034,1.4478e+08,18758,0,7.4345e+07,12674,1491.5,1
4990,3.38,12381,1,12381,1,0.00016225,-7.9506e-09,0,0.00048072,-2.9425e-05,-4.8213e+06,-50.015,0,1.2468e+08,4178.8,12380,15000,1,15000,1,0.0011178,5.1392e-07,0,0.0011178,0.00013925,1.8613e+08,1.7585e+05,0,3.0131e+08,84517,14999,12382,1,12382,1,0.00015325,-2.2812e-11,0,0.00046575,-2.7712e-05,3.8113e+07,-5.3995,0,1.1901e+08,0.058081,12381,9753,1,9753,1,-0.00074086,-6.2626e-07,0,1.4844e-05,-0.00020802,-3.0131e+08,-96103,0,3.5991e+06,-14343,9752,11091,1,11091,1,-0.00032819,-3.4352e-10,0,0.00022203,-0.00011759,-1.3345e+08,-70.356,0,6.6788e+07,-7.9138,11090,13678,1,13678,1,0.00063469,1.1297e-10,0,0.00070347,6.2004e-05,1.1901e+08,26.326,0,1.6507e+08,561.33,13677,1491.5,0,1491.5,0,0.00053904,8.5006e-08,0,0.00029284,0.00010064,1.4521e+08,18812,0,7.4566e+07,12711,1491.5,1
4990,3.39,12381,1,12381,1,0.00016273,-7.9553e-09,0,0.00048214,-2.9512e-05,-4.8355e+06,-46.132,0,1.2505e+08,4190.4,12380,15000,1,15000,1,0.0011211,5.1532e-07,0,0.0011211,0.00013966,1.8668e+08,1.7633e+05,0,3.022e+08,84761,14999,12382,1,12382,1,0.00015371,2.827e-11,0,0.00046712,-2.7794e-05,3.8225e+07,7.3799,0,1.1936e+08,-0.13537,12381,9753,1,9753,1,-0.00074305,-6.2834e-07,0,1.4888e-05,-0.00020863,-3.022e+08,-96430,0,3.6099e+06,-14403,9752,11091,1,11091,1,-0.00032916,-2.5384e-10,0,0.00022269,-0.00011793,-1.3385e+08,-53.813,0,6.6985e+07,-8.6096,11090,13678,1,13678,1,0.00063657,2.3285e-10,0,0.00070555,6.2187e-05,1.1936e+08,47.646,0,1.6556e+08,560.41,13677,1491.5,0,1491.5,0,0.00054064,8.5295e-08,0,0.00029371,0.00010093,1.4564e+08,18869,0,7.4786e+07,12749,1491.5,1
4990,3.4,12381,1,12381,1,0.00016321,-8.0026e-09,0,0.00048356,-2.9599e-05,-4.8498e+06,-51.493,0,1.2542e+08,4204.7,12380,15000,1,15000,1,0.0011244,5.1689e-07,0,0.0011244,0.00014007,1.8723e+08,1.7687e+05,0,3.031e+08,85009,14999,12382,1,12382,1,0.00015416,1.004e-11,0,0.0004685,-2.7876e-05,3.8338e+07,2.6901,0,1.1972e+08,-1.3201,12381,9753,1,9753,1,-0.00074524,-6.3016e-07,0,1.4933e-05,-0.00020925,-3.031e+08,-96706,0,3.6207e+06,-14419,9752,11091,1,11091,1,-0.00033013,-3.9658e-10,0,0.00022334,-0.00011828,-1.3424e+08,-84.631,0,6.7183e+07,-8.6462,11090,13678,1,13678,1,0.00063845,2.7214e-10,0,0.00070764,6.2371e-05,1.1972e+08,55.652,0,1.6605e+08,564.49,13677,1491.5,0,1491.5,0,0.00054223,8.5539e-08,0,0.00029458,0.00010123,1.4607e+08,18925,0,7.5007e+07,12785,1491.5,1
4990,3.41,12381,1,12381,1,0.00016369,-7.9397e-09,0,0.00048499,-2.9687e-05,-4.8641e+06,-32.537,0,1.2579e+08,4216.6,12380,15000,1,15000,1,0.0011278,5.1841e-07,0,0.0011278,0.00014048,1.8778e+08,1.7739e+05,0,3.0399e+08,85264,14999,12382,1,12382,1,0.00015461,5.6616e-11,0,0.00046988,-2.7958e-05,3.8451e+07,14.748,0,1.2007e+08,-0.66643,12381,9753,1,9753,1,-0.00074743,-6.32e-07,0,1.4977e-05,-0.00020986,-3.0399e+08,-96987,0,3.6315e+06,-14474,9752,11091,1,11091,1,-0.0003311,-2.1553e-10,0,0.000224,-0.00011863,-1.3464e+08,-44.822,0,6.7381e+07,-6.8408,11090,13678,1,13678,1,0.00064033,3.4647e-10,0,0.00070972,6.2554e-05,1.2007e+08,70.278,0,1.6653e+08,566.04,13677,1491.5,0,1491.5,0,0.00054383,8.5792e-08,0,0.00029544,0.00010153,1.465e+08,18980,0,7.5227e+07,12823,1491.5,1
4990,3.42,12381,1,12381,1,0.00016417,-8.0427e-09,0,0.00048641,-2.9774e-05,-4.8783e+06,-50.267,0,1.2616e+08,4227.9,12380,15000,1,15000,1,0.0011311,5.1997e-07,0,0.0011311,0.00014089,1.8833e+08,1.7793e+05,0,3.0488e+08,85500,14999,12382,1,12382,1,0.00015507,-3.8976e-11,0,0.00047126,-2.804e-05,3.8564e+07,-8.4689,0,1.2042e+08,0.15636,12381,9753,1,9753,1,-0.00074963,-6.3374e-07,0,1.5021e-05,-0.00021048,-3.0488e+08,-97250,0,3.6423e+06,-14513,9752,11091,1,11091,1,-0.00033207,-2.6203e-10,0,0.00022466,-0.00011898,-1.3503e+08,-53.275,0,6.7578e+07,-5.8262,11090,13678,1,13678,1,0.00064221,9.1806e-11,0,0.0007118,6.2737e-05,1.2042e+08,21.811,0,1.6702e+08,566.49,13677,1491.5,0,1491.5,0,0.00054542,8.6021e-08,0,0.00029631,0.00010183,1.4693e+08,19034,0,7.5448e+07,12861,1491.5,1
4990,3.43,12381,1,12381,1,0.00016465,-8.0064e-09,0,0.00048783,-2.9861e-05,-4.8926e+06,-37.607,0,1.2653e+08,4240.9,12380,15000,1,15000,1,0.0011344,5.214e-07,0,0.0011344,0.00014131,1.8888e+08,1.7841e+05,0,3.0577e+08,85751,14999,12382,1,12382,1,0.00015552,7.252e-11,0,0.00047263,-2.8122e-05,3.8677e+07,17.76,0,1.2077e+08,0.24945,12381,9753,1,9753,1,-0.00075182,-6.3583e-07,0,1.5066e-05,-0.00021109,-3.0577e+08,-97576,0,3.6531e+06,-14537,9752,11091,1,11091,1,-0.00033304,-1.4262e-10,0,0.00022532,-0.00011933,-1.3543e+08,-30.912,0,6.7776e+07,-5.8456,11090,13678,1,13678,1,0.00064409,2.7646e-10,0,0.00071388,6.2921e-05,1.2077e+08,56.415,0,1.6751e+08,564.36,13677,1491.5,0,1491.5,0,0.00054702,8.6306e-08,0,0.00029718,0.00010212,1.4736e+08,19091,0,7.5669e+07,12899,1491.5,1
4990,3.44,12381,1,12381,1,0.00016513,-8.0189e-09,0,0.00048925,-2.9948e-05,-4.9069e+06,-34.712,0,1.269e+08,4254.8,12380,15000,1,15000,1,0.0011377,5.2298e-07,0,0.0011377,0.00014172,1.8944e+08,1.7895e+05,0,3.0666e+08,86014,14999,12382,1,12382,1,0.00015598,6.1965e-11,0,0.00047401,-2.8204e-05,3.879e+07,15.018,0,1.2112e+08,-1.1078,12381,9753,1,9753,1,-0.00075401,-6.3756e-07,0,1.511e-05,-0.00021171,-3.0666e+08,-97838,0,3.6639e+06,-14591,9752,11091,1,11091,1,-0.00033401,-3.6068e-10,0,0.00022597,-0.00011967,-1.3582e+08,-77.177,0,6.7974e+07,-9.8394,11090,13678,1,13678,1,0.00064597,4.0487e-10,0,0.00071596,6.3104e-05,1.2112e+08,85.915,0,1.68e+08,572.74,13677,1491.5,0,1491.5,0,0.00054861,8.654e-08,0,0.00029804,0.00010242,1.4779e+08,19147,0,7.5889e+07,12937,1491.5,1
4990,3.45,12381,1,12381,1,0.00016561,-8.0838e-09,0,0.00049068,-3.0035e-05,-4.9211e+06,-43.941,0,1.2726e+08,4265.4,12380,15000,1,15000,1,0.001141,5.2442e-07,0,0.001141,0.00014213,1.8999e+08,1.7945e+05,0,3.0755e+08,86261,14999,12382,1,12382,1,0.00015643,-5.7184e-11,0,0.00047539,-2.8286e-05,3.8903e+07,-13.796,0,1.2147e+08,-0.47231,12381,9753,1,9753,1,-0.0007562,-6.3949e-07,0,1.5155e-05,-0.00021232,-3.0755e+08,-98135,0,3.6748e+06,-14632,9752,11091,1,11091,1,-0.00033498,-2.4551e-10,0,0.00022663,-0.00012002,-1.3621e+08,-49.622,0,6.8171e+07,-7.8432,11090,13678,1,13678,1,0.00064784,1.5356e-10,0,0.00071805,6.3287e-05,1.2147e+08,36.375,0,1.6849e+08,570.97,13677,1491.5,0,1491.5,0,0.0005502,8.6801e-08,0,0.00029891,0.00010272,1.4822e+08,19202,0,7.611e+07,12977,1491.5,1
4990,3.46,12381,1,12381,1,0.00016609,-8.1274e-09,0,0.0004921,-3.0122e-05,-4.9354e+06,-48.88,0,1.2763e+08,4279.3,12380,15000,1,15000,1,0.0011443,5.2584e-07,0,0.0011443,0.00014254,1.9054e+08,1.7993e+05,0,3.0844e+08,86521,14999,12382,1,12382,1,0.00015688,4.2045e-11,0,0.00047677,-2.8368e-05,3.9016e+07,10.766,0,1.2183e+08,0.28805,12381,9753,1,9753,1,-0.00075839,-6.4164e-07,0,1.5199e-05,-0.00021294,-3.0844e+08,-98470,0,3.6856e+06,-14696,9752,11091,1,11091,1,-0.00033595,-2.0532e-10,0,0.00022729,-0.00012037,-1.3661e+08,-42.201,0,6.8369e+07,-6.0316,11090,13678,1,13678,1,0.00064972,2.7922e-10,0,0.00072013,6.3471e-05,1.2182e+08,55.401,0,1.6898e+08,573.17,13677,1491.5,0,1491.5,0,0.0005518,8.7093e-08,0,0.00029978,0.00010302,1.4864e+08,19259,0,7.633e+07,13012,1491.5,1
4990,3.47,12381,1,12381,1,0.00016658,-8.1416e-09,0,0.00049352,-3.021e-05,-4.9497e+06,-46.822,0,1.28e+08,4290.4,12380,15000,1,15000,1,0.0011476,5.2755e-07,0,0.0011476,0.00014295,1.9109e+08,1.8052e+05,0,3.0933e+08,86756,14999,12382,1,12382,1,0.00015734,7.9402e-12,0,0.00047814,-2.845e-05,3.9129e+07,1.8454,0,1.2218e+08,-0.6737,12381,9753,1,9753,1,-0.00076058,-6.4305e-07,0,1.5244e-05,-0.00021356,-3.0933e+08,-98679,0,3.6964e+06,-14713,9752,11091,1,11091,1,-0.00033693,-3.2537e-10,0,0.00022795,-0.00012072,-1.37e+08,-68.506,0,6.8567e+07,-8.0652,11090,13678,1,13678,1,0.0006516,1.9538e-10,0,0.00072221,6.3654e-05,1.2218e+08,42.582,0,1.6947e+08,576.63,13677,1491.5,0,1491.5,0,0.00055339,8.7285e-08,0,0.00030064,0.00010332,1.4907e+08,19314,0,7.6551e+07,13051,1491.5,1
4990,3.48,12381,1,12381,1,0.00016706,-8.2075e-09,0,0.00049494,-3.0297e-05,-4.9639e+06,-56.159,0,1.2837e+08,4303.8,12380,15000,1,15000,1,0.0011509,5.2901e-07,0,0.0011509,0.00014337,1.9164e+08,1.8102e+05,0,3.1023e+08,87002,14999,12382,1,12382,1,0.00015779,-7.4594e-13,0,0.00047952,-2.8532e-05,3.9241e+07,-0.17235,0,1.2253e+08,0.45599,12381,9753,1,9753,1,-0.00076277,-6.4503e-07,0,1.5288e-05,-0.00021417,-3.1023e+08,-98984,0,3.7072e+06,-14783,9752,11091,1,11091,1,-0.0003379,-3.7813e-10,0,0.0002286,-0.00012107,-1.374e+08,-77.57,0,6.8764e+07,-7.0596,11090,13678,1,13678,1,0.00065348,1.6446e-10,0,0.00072429,6.3837e-05,1.2253e+08,34.698,0,1.6995e+08,577.35,13677,1491.5,0,1491.5,0,0.00055499,8.7561e-08,0,0.00030151,0.00010361,1.495e+08,19370,0,7.6771e+07,13084,1491.5,1
4990,3.49,12381,1,12381,1,0.00016754,-8.1777e-09,0,0.00049637,-3.0384e-05,-4.9782e+06,-45.04,0,1.2874e+08,4314.9,12380,15000,1,15000,1,0.0011542,5.3048e-07,0,0.0011542,0.00014378,1.9219e+08,1.8152e+05,0,3.1112e+08,87263,14999,12382,1,12382,1,0.00015825,-2.3501e-11,0,0.0004809,-2.8615e-05,3.9354e+07,-5.4338,0,1.2288e+08,-0.44607,12381,9753,1,9753,1,-0.00076497,-6.4696e-07,0,1.5333e-05,-0.00021479,-3.1112e+08,-99279,0,3.718e+06,-14781,9752,11091,1,11091,1,-0.00033887,-1.6756e-10,0,0.00022926,-0.00012141,-1.3779e+08,-35.557,0,6.8962e+07,-7.4865,11090,13678,1,13678,1,0.00065536,1.6263e-10,0,0.00072637,6.4021e-05,1.2288e+08,37.85,0,1.7044e+08,576.45,13677,1491.5,0,1491.5,0,0.00055658,8.7807e-08,0,0.00030238,0.00010391,1.4993e+08,19425,0,7.6992e+07,13127,1491.5,1
4990,3.5,12381,1,12381,1,0.00016802,-8.2259e-09,0,0.00049779,-3.0471e-05,-4.9925e+06,-50.511,0,1.2911e+08,4328.9,12380,15000,1,15000,1,0.0011575,5.3203e-07,0,0.0011575,0.00014419,1.9274e+08,1.8205e+05,0,3.1201e+08,87504,14999,12382,1,12382,1,0.0001587,2.2814e-11,0,0.00048228,-2.8697e-05,3.9467e+07,5.2963,0,1.2323e+08,-0.93511,12381,9753,1,9753,1,-0.00076716,-6.4879e-07,0,1.5377e-05,-0.0002154,-3.1201e+08,-99560,0,3.7288e+06,-14830,9752,11091,1,11091,1,-0.00033984,-3.6319e-10,0,0.00022992,-0.00012176,-1.3819e+08,-79.74,0,6.916e+07,-8.246,11090,13678,1,13678,1,0.00065724,3.3028e-10,0,0.00072846,6.4204e-05,1.2323e+08,68.734,0,1.7093e+08,582,13677,1491.5,0,1491.5,0,0.00055818,8.8066e-08,0,0.00030324,0.00010421,1.5036e+08,19481,0,7.7212e+07,13161,1491.5,1
4990,3.51,12381,1,12381,1,0.0001685,-8.2078e-09,0,0.00049921,-3.0558e-05,-5.0067e+06,-41.454,0,1.2948e+08,4341.4,12380,15000,1,15000,1,0.0011608,5.3351e-07,0,0.0011608,0.0001446,1.9329e+08,1.8256e+05,0,3.129e+08,87770,14999,12382,1,12382,1,0.00015915,6.725e-11,0,0.00048365,-2.8779e-05,3.958e+07,16.307,0,1.2358e+08,0.45697,12381,9753,1,9753,1,-0.00076935,-6.5071e-07,0,1.5421e-05,-0.00021602,-3.129e+08,-99855,0,3.7397e+06,-14883,9752,11091,1,11091,1,-0.00034081,-1.5301e-10,0,0.00023058,-0.00012211,-1.3858e+08,-35.445,0,6.9357e+07,-5.7254,11090,13678,1,13678,1,0.00065911,2.4548e-10,0,0.00073054,6.4387e-05,1.2358e+08,52.27,0,1.7142e+08,583.72,13677,1491.5,0,1491.5,0,0.00055977,8.8324e-08,0,0.00030411,0.00010451,1.5079e+08,19537,0,7.7433e+07,13202,1491.5,1
4990,3.52,12381,1,12381,1,0.00016898,-8.2584e-09,0,0.00050063,-3.0645e-05,-5.021e+06,-47.42,0,1.2985e+08,4353.7,12380,15000,1,15000,1,0.0011641,5.3504e-07,0,0.0011641,0.00014501,1.9384e+08,1.8308e+05,0,3.1379e+08,88012,14999,12382,1,12382,1,0.00015961,2.5516e-11,0,0.00048503,-2.8861e-05,3.9693e+07,6.974,0,1.2394e+08,-0.16789,12381,9753,1,9753,1,-0.00077154,-6.5254e-07,0,1.5466e-05,-0.00021663,-3.1379e+08,-1.0014e+05,0,3.7505e+06,-14922,9752,11091,1,11091,1,-0.00034178,-2.325e-10,0,0.00023123,-0.00012246,-1.3898e+08,-47.786,0,6.9555e+07,-6.5335,11090,13678,1,13678,1,0.00066099,2.0405e-10,0,0.00073262,6.4571e-05,1.2394e+08,44.152,0,1.7191e+08,585.08,13677,1491.5,0,1491.5,0,0.00056137,8.8573e-08,0,0.00030498,0.0001048,1.5122e+08,19592,0,7.7654e+07,13238,1491.5,1
4990,3.53,12381,1,12381,1,0.00016946,-8.2657e-09,0,0.00050206,-3.0733e-05,-5.0353e+06,-44.108,0,1.3021e+08,4364.5,12380,15000,1,15000,1,0.0011674,5.3662e-07,0,0.0011674,0.00014543,1.9439e+08,1.8362e+05,0,3.1468e+08,88271,14999,12382,1,12382,1,0.00016006,8.1576e-12,0,0.00048641,-2.8943e-05,3.9806e+07,1.9205,0,1.2429e+08,-1.1487,12381,9753,1,9753,1,-0.00077373,-6.5425e-07,0,1.551e-05,-0.00021725,-3.1468e+08,-1.0039e+05,0,3.7613e+06,-14955,9752,11091,1,11091,1,-0.00034275,-2.8923e-10,0,0.00023189,-0.00012281,-1.3937e+08,-61.518,0,6.9752e+07,-8.1713,11090,13678,1,13678,1,0.00066287,2.1331e-10,0,0.0007347,6.4754e-05,1.2429e+08,47.004,0,1.724e+08,585.98,13677,1491.5,0,1491.5,0,0.00056296,8.8798e-08,0,0.00030584,0.0001051,1.5165e+08,19647,0,7.7874e+07,13278,1491.5,1
4990,3.54,12381,1,12381,1,0.00016994,-8.2978e-09,0,0.00050348,-3.082e-05,-5.0496e+06,-45.937,0,1.3058e+08,4378.8,12380,15000,1,15000,1,0.0011708,5.3809e-07,0,0.0011708,0.00014584,1.9494e+08,1.8413e+05,0,3.1557e+08,88508,14999,12382,1,12382,1,0.00016052,2.2608e-12,0,0.00048779,-2.9025e-05,3.9919e+07,0.45289,0,1.2464e+08,0.6337,12381,9753,1,9753,1,-0.00077592,-6.5623e-07,0,1.5555e-05,-0.00021787,-3.1557e+08,-1.007e+05,0,3.7721e+06,-15005,9752,11091,1,11091,1,-0.00034372,-2.4344e-10,0,0.00023255,-0.00012315,-1.3977e+08,-47.92,0,6.995e+07,-5.8862,11090,13678,1,13678,1,0.00066475,1.6841e-10,0,0.00073678,6.4937e-05,1.2464e+08,38.03,0,1.7288e+08,588.27,13677,1491.5,0,1491.5,0,0.00056456,8.9073e-08,0,0.00030671,0.0001054,1.5208e+08,19703,0,7.8095e+07,13312,1491.5,1
4990,3.55,12381,1,12381,1,0.00017042,-8.3858e-09,0,0.0005049,-3.0907e-05,-5.0638e+06,-60.771,0,1.3095e+08,4387.9,12380,15000,1,15000,1,0.0011741,5.3964e-07,0,0.0011741,0.00014625,1.9549e+08,1.8465e+05,0,3.1647e+08,88742,14999,12382,1,12382,1,0.00016097,-1.1247e-10,0,0.00048916,-2.9107e-05,4.0032e+07,-27.785,0,1.2499e+08,-0.17834,12381,9753,1,9753,1,-0.00077812,-6.5794e-07,0,1.5599e-05,-0.00021848,-3.1647e+08,-1.0096e+05,0,3.783e+06,-15068,9752,11091,1,11091,1,-0.00034469,-2.9701e-10,0,0.00023321,-0.0001235,-1.4016e+08,-61.739,0,7.0148e+07,-6.8812,11090,13678,1,13678,1,0.00066663,8.2497e-11,0,0.00073887,6.5121e-05,1.2499e+08,19.548,0,1.7337e+08,587.63,13677,1491.5,0,1491.5,0,0.00056615,8.9298e-08,0,0.00030758,0.0001057,1.5251e+08,19756,0,7.8315e+07,13350,1491.5,1
4990,3.56,12381,1,12381,1,0.0001709,-8.4013e-09,0,0.00050632,-3.0994e-05,-5.0781e+06,-58.877,0,1.3132e+08,4403.4,12380,15000,1,15000,1,0.0011774,5.4107e-07,0,0.0011774,0.00014666,1.9605e+08,1.8514e+05,0,3.1736e+08,89007,14999,12382,1,12382,1,0.00016142,-1.0283e-12,0,0.00049054,-2.9189e-05,4.0145e+07,-0.23048,0,1.2534e+08,-0.3711,12381,9753,1,9753,1,-0.00078031,-6.6005e-07,0,1.5644e-05,-0.0002191,-3.1736e+08,-1.0129e+05,0,3.7938e+06,-15103,9752,11091,1,11091,1,-0.00034566,-3.4355e-10,0,0.00023386,-0.00012385,-1.4056e+08,-72.422,0,7.0345e+07,-6.9644,11090,13678,1,13678,1,0.00066851,1.8494e-10,0,0.00074095,6.5304e-05,1.2534e+08,39.53,0,1.7386e+08,592.02,13677,1491.5,0,1491.5,0,0.00056775,8.9591e-08,0,0.00030844,0.000106,1.5294e+08,19815,0,7.8536e+07,13388,1491.5,1
4990,3.57,12381,1,12381,1,0.00017138,-8.4349e-09,0,0.00050775,-3.1081e-05,-5.0923e+06,-61.258,0,1.3169e+08,4411.3,12380,15000,1,15000,1,0.0011807,5.4286e-07,0,0.0011807,0.00014707,1.966e+08,1.8576e+05,0,3.1825e+08,89225,14999,12382,1,12382,1,0.00016188,-9.4368e-11,0,0.00049192,-2.9271e-05,4.0258e+07,-22.425,0,1.2569e+08,-1.1778,12381,9753,1,9753,1,-0.0007825,-6.6128e-07,0,1.5688e-05,-0.00021971,-3.1825e+08,-1.0146e+05,0,3.8047e+06,-15141,9752,11091,1,11091,1,-0.00034663,-5.9998e-10,0,0.00023452,-0.0001242,-1.4095e+08,-123.23,0,7.0543e+07,-11.724,11090,13678,1,13678,1,0.00067039,1.1981e-10,0,0.00074303,6.5488e-05,1.2569e+08,26.427,0,1.7435e+08,592.23,13677,1491.5,0,1491.5,0,0.00056934,8.9755e-08,0,0.00030931,0.00010629,1.5337e+08,19868,0,7.8756e+07,13422,1491.5,1
4990,3.58,12381,1,12381,1,0.00017186,-8.4725e-09,0,0.00050917,-3.1168e-05,-5.1066e+06,-64.652,0,1.3206e+08,4425.6,12380,15000,1,15000,1,0.001184,5.4416e-07,0,0.001184,0.00014749,1.9715e+08,1.862e+05,0,3.1914e+08,89494,14999,12382,1,12382,1,0.00016233,-1.1539e-10,0,0.0004933,-2.9353e-05,4.037e+07,-27.982,0,1.2604e+08,0.049827,12381,9753,1,9753,1,-0.00078469,-6.636e-07,0,1.5733e-05,-0.00022033,-3.1914e+08,-1.0182e+05,0,3.8155e+06,-15190,9752,11091,1,11091,1,-0.0003476,-3.1794e-10,0,0.00023518,-0.00012455,-1.4134e+08,-65.804,0,7.0741e+07,-6.6893,11090,13678,1,13678,1,0.00067226,6.6408e-11,0,0.00074511,6.5671e-05,1.2604e+08,15.45,0,1.7484e+08,593.47,13677,1491.5,0,1491.5,0,0.00057094,9.0071e-08,0,0.00031018,0.00010659,1.538e+08,19924,0,7.8977e+07,13462,1491.5,1
4990,3.59,12381,1,12381,1,0.00017234,-8.4484e-09,0,0.00051059,-3.1256e-05,-5.1209e+06,-54.137,0,1.3243e+08,4438.2,12380,15000,1,15000,1,0.0011873,5.4576e-07,0,0.0011873,0.0001479,1.977e+08,1.8675e+05,0,3.2003e+08,89752,14999,12382,1,12382,1,0.00016279,-1.9897e-11,0,0.00049467,-2.9436e-05,4.0483e+07,-5.043,0,1.264e+08,-0.91646,12381,9753,1,9753,1,-0.00078688,-6.6532e-07,0,1.5777e-05,-0.00022094,-3.2003e+08,-1.0208e+05,0,3.8264e+06,-15224,9752,11091,1,11091,1,-0.00034857,-3.5305e-10,0,0.00023584,-0.00012489,-1.4174e+08,-73.978,0,7.0938e+07,-8.1164,11090,13678,1,13678,1,0.00067414,1.6792e-10,0,0.00074719,6.5854e-05,1.264e+08,36.704,0,1.7533e+08,596.12,13677,1491.5,0,1491.5,0,0.00057253,9.0299e-08,0,0.00031104,0.00010689,1.5423e+08,19980,0,7.9197e+07,13500,1491.5,1
4990,3.6,12381,1,12381,1,0.00017282,-8.4533e-09,0,0.00051201,-3.1343e-05,-5.1352e+06,-50.135,0,1.328e+08,4449.7,12380,15000,1,15000,1,0.0011906,5.4734e-07,0,0.0011906,0.00014831,1.9825e+08,1.8729e+05,0,3.2092e+08,89999,14999,12382,1,12382,1,0.00016324,2.6415e-11,0,0.00049605,-2.9518e-05,4.0596e+07,6.6276,0,1.2675e+08,-0.59414,12381,9753,1,9753,1,-0.00078907,-6.6701e-07,0,1.5822e-05,-0.00022156,-3.2092e+08,-1.0234e+05,0,3.8372e+06,-15286,9752,11091,1,11091,1,-0.00034954,-3.6357e-10,0,0.00023649,-0.00012524,-1.4213e+08,-76.144,0,7.1136e+07,-9.1645,11090,13678,1,13678,1,0.00067602,2.366e-10,0,0.00074928,6.6038e-05,1.2675e+08,49.16,0,1.7582e+08,597.3,13677,1491.5,0,1491.5,0,0.00057413,9.0535e-08,0,0.00031191,0.00010719,1.5466e+08,20035,0,7.9418e+07,13537,1491.5,1
4990,3.61,12381,1,12381,1,0.0001733,-8.4795e-09,0,0.00051344,-3.143e-05,-5.1494e+06,-50.864,0,1.3316e+08,4464.6,12380,15000,1,15000,1,0.0011939,5.487e-07,0,0.0011939,0.00014872,1.988e+08,1.8775e+05,0,3.2181e+08,90256,14999,12382,1,12382,1,0.00016369,1.6881e-11,0,0.00049743,-2.96e-05,4.0709e+07,4.5609,0,1.271e+08,-1.1637,12381,9753,1,9753,1,-0.00079126,-6.6926e-07,0,1.5866e-05,-0.00022217,-3.2181e+08,-1.0269e+05,0,3.848e+06,-15308,9752,11091,1,11091,1,-0.00035051,-3.2681e-10,0,0.00023715,-0.00012559,-1.4253e+08,-69.041,0,7.1334e+07,-8.4788,11090,13678,1,13678,1,0.0006779,2.7897e-10,0,0.00075136,6.6221e-05,1.271e+08,58.6,0,1.763e+08,599.05,13677,1491.5,0,1491.5,0,0.00057572,9.0841e-08,0,0.00031278,0.00010748,1.5509e+08,20092,0,7.9638e+07,13575,1491.5,1
4990,3.62,12381,1,12381,1,0.00017379,-8.5401e-09,0,0.00051486,-3.1517e-05,-5.1637e+06,-59.082,0,1.3353e+08,4475.4,12380,15000,1,15000,1,0.0011972,5.5026e-07,0,0.0011972,0.00014913,1.9935e+08,1.8829e+05,0,3.227e+08,90501,14999,12382,1,12382,1,0.00016415,-9.3926e-11,0,0.00049881,-2.9682e-05,4.0822e+07,-23.011,0,1.2745e+08,-0.28187,12381,9753,1,9753,1,-0.00079346,-6.7095e-07,0,1.5911e-05,-0.00022279,-3.227e+08,-1.0295e+05,0,3.8589e+06,-15365,9752,11091,1,11091,1,-0.00035148,-3.508e-10,0,0.00023781,-0.00012594,-1.4292e+08,-68.992,0,7.1531e+07,-7.2209,11090,13678,1,13678,1,0.00067978,9.6547e-11,0,0.00075344,6.6404e-05,1.2745e+08,22.956,0,1.7679e+08,600.94,13677,1491.5,0,1491.5,0,0.00057732,9.1065e-08,0,0.00031364,0.00010778,1.5552e+08,20147,0,7.9859e+07,13612,1491.5,1
4990,3.63,12381,1,12381,1,0.00017427,-8.5445e-09,0,0.00051628,-3.1604e-05,-5.178e+06,-55.081,0,1.339e+08,4488.7,12380,15000,1,15000,1,0.0012005,5.5174e-07,0,0.0012005,0.00014954,1.999e+08,1.888e+05,0,3.2359e+08,90756,14999,12382,1,12382,1,0.0001646,-8.7639e-12,0,0.00050018,-2.9764e-05,4.0935e+07,-2.6185,0,1.278e+08,-0.96209,12381,9753,1,9753,1,-0.00079565,-6.7287e-07,0,1.5955e-05,-0.00022341,-3.2359e+08,-1.0324e+05,0,3.8697e+06,-15400,9752,11091,1,11091,1,-0.00035245,-4.3628e-10,0,0.00023847,-0.00012629,-1.4332e+08,-89.764,0,7.1729e+07,-9.5611,11090,13678,1,13678,1,0.00068166,2.1009e-10,0,0.00075552,6.6588e-05,1.278e+08,46.118,0,1.7728e+08,602.69,13677,1491.5,0,1491.5,0,0.00057891,9.1327e-08,0,0.00031451,0.00010808,1.5595e+08,20202,0,8.0079e+07,13650,1491.5,1
4990,3.64,12381,1,12381,1,0.00017475,-8.5519e-09,0,0.0005177,-3.1691e-05,-5.1922e+06,-51.665,0,1.3427e+08,4497.4,12380,15000,1,15000,1,0.0012038,5.5334e-07,0,0.0012038,0.00014996,2.0045e+08,1.8934e+05,0,3.2449e+08,90975,14999,12382,1,12382,1,0.00016506,-7.5e-11,0,0.00050156,-2.9846e-05,4.1048e+07,-18.359,0,1.2815e+08,-0.35681,12381,9753,1,9753,1,-0.00079784,-6.7456e-07,0,1.6e-05,-0.00022402,-3.2449e+08,-1.035e+05,0,3.8805e+06,-15444,9752,11091,1,11091,1,-0.00035342,-2.951e-10,0,0.00023912,-0.00012663,-1.4371e+08,-59.486,0,7.1927e+07,-9.4917,11090,13678,1,13678,1,0.00068354,1.2515e-10,0,0.0007576,6.6771e-05,1.2815e+08,29.952,0,1.7777e+08,602.53,13677,1491.5,0,1491.5,0,0.00058051,9.1556e-08,0,0.00031538,0.00010838,1.5637e+08,20257,0,8.03e+07,13685,1491.5,1
4990,3.65,12381,1,12381,1,0.00017523,-8.5863e-09,0,0.00051913,-3.1779e-05,-5.2065e+06,-54.197,0,1.3464e+08,4514.5,12380,15000,1,15000,1,0.0012071,5.5481e-07,0,0.0012071,0.00015037,2.01e+08,1.8984e+05,0,3.2538e+08,91257,14999,12382,1,12382,1,0.00016551,-4.3202e-11,0,0.00050294,-2.9928e-05,4.1161e+07,-9.8036,0,1.2851e+08,-0.66615,12381,9753,1,9753,1,-0.00080003,-6.7655e-07,0,1.6044e-05,-0.00022464,-3.2538e+08,-1.0381e+05,0,3.8914e+06,-15470,9752,11091,1,11091,1,-0.00035439,-5.0759e-10,0,0.00023978,-0.00012698,-1.4411e+08,-104.59,0,7.2124e+07,-9.739,11090,13678,1,13678,1,0.00068541,2.3905e-10,0,0.00075969,6.6954e-05,1.2851e+08,51.42,0,1.7826e+08,608.5,13677,1491.5,0,1491.5,0,0.0005821,9.1823e-08,0,0.00031624,0.00010867,1.568e+08,20314,0,8.0521e+07,13726,1491.5,1
4990,3.66,12381,1,12381,1,0.00017571,-8.6745e-09,0,0.00052055,-3.1866e-05,-5.2208e+06,-68.66,0,1.3501e+08,4527.8,12380,15000,1,15000,1,0.0012105,5.5622e-07,0,0.0012105,0.00015078,2.0155e+08,1.9033e+05,0,3.2627e+08,91498,14999,12382,1,12382,1,0.00016596,-3.4683e-11,0,0.00050432,-3.001e-05,4.1274e+07,-8.2628,0,1.2886e+08,-0.61403,12381,9753,1,9753,1,-0.00080222,-6.787e-07,0,1.6089e-05,-0.00022525,-3.2627e+08,-1.0414e+05,0,3.9022e+06,-15512,9752,11091,1,11091,1,-0.00035536,-4.0232e-10,0,0.00024044,-0.00012733,-1.445e+08,-83.696,0,7.2322e+07,-7.7636,11090,13678,1,13678,1,0.00068729,1.4914e-10,0,0.00076177,6.7138e-05,1.2886e+08,31.958,0,1.7875e+08,610.75,13677,1491.5,0,1491.5,0,0.0005837,9.2121e-08,0,0.00031711,0.00010897,1.5723e+08,20371,0,8.0741e+07,13762,1491.5,1
4990,3.67,12381,1,12381,1,0.00017619,-8.6226e-09,0,0.00052197,-3.1953e-05,-5.235e+06,-51.197,0,1.3537e+08,4545,12380,15000,1,15000,1,0.0012138,5.5715e-07,0,0.0012138,0.00015119,2.021e+08,1.9064e+05,0,3.2716e+08,91800,14999,12382,1,12382,1,0.00016642,4.1995e-11,0,0.00050569,-3.0092e-05,4.1386e+07,9.8897,0,1.2921e+08,4.5884,12381,9753,1,9753,1,-0.00080441,-6.8185e-07,0,1.6133e-05,-0.00022587,-3.2716e+08,-1.0466e+05,0,3.913e+06,-15526,9752,11091,1,11091,1,-0.00035633,-2.4344e-10,0,0.00024109,-0.00012768,-1.4489e+08,-52.227,0,7.2519e+07,-2.3419,11090,13678,1,13678,1,0.00068916,5.4006e-10,0,0.00076384,6.732e-05,1.2921e+08,118.97,0,1.7923e+08,610.89,13677,1491.5,0,1491.5,0,0.00058529,9.257e-08,0,0.00031797,0.00010927,1.5766e+08,20435,0,8.0961e+07,13806,1491.5,1
4990,3.68,12381,1,12381,1,0.00017667,-8.7794e-09,0,0.00052339,-3.204e-05,-5.2493e+06,-81.806,0,1.3574e+08,4552.3,12380,15000,1,15000,1,0.0012171,5.5924e-07,0,0.0012171,0.0001516,2.0266e+08,1.9136e+05,0,3.2805e+08,92001,14999,12382,1,12382,1,0.00016687,-7.0225e-11,0,0.00050707,-3.0174e-05,4.1499e+07,-17.217,0,1.2956e+08,-1.4103,12381,9753,1,9753,1,-0.0008066,-6.8245e-07,0,1.6178e-05,-0.00022648,-3.2805e+08,-1.0472e+05,0,3.9239e+06,-15598,9752,11091,1,11091,1,-0.0003573,-5.48e-10,0,0.00024175,-0.00012803,-1.4529e+08,-114.89,0,7.2717e+07,-9.5957,11090,13678,1,13678,1,0.00069105,1.3991e-10,0,0.00076593,6.7504e-05,1.2956e+08,29.991,0,1.7972e+08,615.15,13677,1491.5,0,1491.5,0,0.00058689,9.2622e-08,0,0.00031884,0.00010957,1.5809e+08,20482,0,8.1182e+07,13838,1491.5,1
4990,3.69,12381,1,12381,1,0.00017715,-8.6988e-09,0,0.00052481,-3.2127e-05,-5.2635e+06,-58.539,0,1.3611e+08,4566.7,12380,15000,1,15000,1,0.0012204,5.6047e-07,0,0.0012204,0.00015202,2.0321e+08,1.9178e+05,0,3.2894e+08,92278,14999,12382,1,12382,1,0.00016733,4.5529e-11,0,0.00050845,-3.0256e-05,4.1612e+07,10.68,0,1.2991e+08,-0.49618,12381,9753,1,9753,1,-0.00080879,-6.8493e-07,0,1.6223e-05,-0.0002271,-3.2894e+08,-1.0511e+05,0,3.9348e+06,-15627,9752,11091,1,11091,1,-0.00035827,-9.4366e-11,0,0.00024241,-0.00012837,-1.4568e+08,-21.104,0,7.2914e+07,-5.5896,11090,13678,1,13678,1,0.00069292,2.098e-10,0,0.00076801,6.7687e-05,1.2991e+08,41.818,0,1.8021e+08,614.18,13677,1491.5,0,1491.5,0,0.00058848,9.2971e-08,0,0.00031971,0.00010987,1.5852e+08,20542,0,8.1402e+07,13880,1491.5,1
4990,3.7,12381,1,12381,1,0.00017763,-8.8556e-09,0,0.00052624,-3.2214e-05,-5.2778e+06,-88.558,0,1.3648e+08,4577.4,12380,15000,1,15000,1,0.0012237,5.6216e-07,0,0.0012237,0.00015243,2.0376e+08,1.9236e+05,0,3.2983e+08,92511,14999,12382,1,12382,1,0.00016778,-1.1772e-10,0,0.00050982,-3.0339e-05,4.1725e+07,-28.968,0,1.3026e+08,-0.70602,12381,9753,1,9753,1,-0.00081099,-6.8642e-07,0,1.6267e-05,-0.00022772,-3.2983e+08,-1.0533e+05,0,3.9457e+06,-15663,9752,11091,1,11091,1,-0.00035925,-4.2938e-10,0,0.00024307,-0.00012872,-1.4608e+08,-86.49,0,7.3112e+07,-6.6417,11090,13678,1,13678,1,0.0006948,2.7274e-11,0,0.00077009,6.7871e-05,1.3026e+08,6.5239,0,1.807e+08,616.43,13677,1491.5,0,1491.5,0,0.00059008,9.3161e-08,0,0.00032058,0.00011016,1.5895e+08,20595,0,8.1623e+07,13915,1491.5,1
4990,3.71,12381,1,12381,1,0.00017811,-8.7233e-09,0,0.00052766,-3.2302e-05,-5.2921e+06,-54.288,0,1.3685e+08,4587.5,12380,15000,1,15000,1,0.001227,5.6396e-07,0,0.001227,0.00015284,2.0431e+08,1.9298e+05,0,3.3073e+08,92747,14999,12382,1,12382,1,0.00016823,-1.5941e-11,0,0.0005112,-3.0421e-05,4.1838e+07,-3.7166,0,1.3062e+08,-0.88836,12381,9753,1,9753,1,-0.00081318,-6.8767e-07,0,1.6312e-05,-0.00022833,-3.3073e+08,-1.0551e+05,0,3.9565e+06,-15715,9752,11091,1,11091,1,-0.00036022,-3.8717e-10,0,0.00024373,-0.00012907,-1.4647e+08,-79.861,0,7.331e+07,-8.7246,11090,13678,1,13678,1,0.00069669,2.0801e-10,0,0.00077218,6.8054e-05,1.3062e+08,46.222,0,1.8119e+08,615.65,13677,1491.5,0,1491.5,0,0.00059167,9.3334e-08,0,0.00032144,0.00011046,1.5938e+08,20648,0,8.1844e+07,13951,1491.5,1
4990,3.72,12381,1,12381,1,0.00017859,-8.8498e-09,0,0.00052908,-3.2389e-05,-5.3064e+06,-77.479,0,1.3722e+08,4600.7,12380,15000,1,15000,1,0.0012303,5.654e-07,0,0.0012303,0.00015325,2.0486e+08,1.9347e+05,0,3.3162e+08,93002,14999,12382,1,12382,1,0.00016869,-3.7321e-11,0,0.00051258,-3.0503e-05,4.1951e+07,-10.084,0,1.3097e+08,-0.58855,12381,9753,1,9753,1,-0.00081537,-6.8967e-07,0,1.6356e-05,-0.00022895,-3.3162e+08,-1.0582e+05,0,3.9673e+06,-15796,9752,11091,1,11091,1,-0.00036119,-5.6547e-10,0,0.00024439,-0.00012942,-1.4687e+08,-121.46,0,7.3508e+07,-10.804,11090,13678,1,13678,1,0.00069856,2.7627e-10,0,0.00077426,6.8238e-05,1.3097e+08,54.807,0,1.8168e+08,621.15,13677,1491.5,0,1491.5,0,0.00059327,9.3608e-08,0,0.00032231,0.00011076,1.5981e+08,20704,0,8.2064e+07,13985,1491.5,1
4990,3.73,12381,1,12381,1,0.00017907,-8.7787e-09,0,0.0005305,-3.2476e-05,-5.3206e+06,-56.433,0,1.3759e+08,4612.9,12380,15000,1,15000,1,0.0012336,5.6688e-07,0,0.0012336,0.00015366,2.0541e+08,1.9397e+05,0,3.3251e+08,93257,14999,12382,1,12382,1,0.00016914,6.6649e-12,0,0.00051396,-3.0585e-05,4.2064e+07,1.8123,0,1.3132e+08,-1.3393,12381,9753,1,9753,1,-0.00081756,-6.9161e-07,0,1.6401e-05,-0.00022956,-3.3251e+08,-1.0612e+05,0,3.9782e+06,-15818,9752,11091,1,11091,1,-0.00036216,-3.3224e-10,0,0.00024504,-0.00012977,-1.4726e+08,-69.527,0,7.3705e+07,-8.2766,11090,13678,1,13678,1,0.00070044,2.5721e-10,0,0.00077634,6.8421e-05,1.3132e+08,54.08,0,1.8217e+08,620.86,13677,1491.5,0,1491.5,0,0.00059486,9.387e-08,0,0.00032318,0.00011106,1.6024e+08,20760,0,8.2285e+07,14027,1491.5,1
4990,3.74,12381,1,12381,1,0.00017955,-8.7533e-09,0,0.00053193,-3.2563e-05,-5.3349e+06,-45.923,0,1.3796e+08,4624.5,12380,15000,1,15000,1,0.0012369,5.6858e-07,0,0.0012369,0.00015408,2.0596e+08,1.9456e+05,0,3.334e+08,93488,14999,12382,1,12382,1,0.0001696,4.7445e-11,0,0.00051534,-3.0667e-05,4.2177e+07,11.694,0,1.3167e+08,-2.0188,12381,9753,1,9753,1,-0.00081975,-6.9311e-07,0,1.6446e-05,-0.00023018,-3.334e+08,-1.0634e+05,0,3.9891e+06,-15870,9752,11091,1,11091,1,-0.00036313,-4.7963e-10,0,0.0002457,-0.00013011,-1.4766e+08,-105.14,0,7.3903e+07,-13.57,11090,13678,1,13678,1,0.00070232,5.5342e-10,0,0.00077843,6.8604e-05,1.3167e+08,118.69,0,1.8266e+08,623.79,13677,1491.5,0,1491.5,0,0.00059646,9.4078e-08,0,0.00032404,0.00011135,1.6067e+08,20814,0,8.2506e+07,14061,1491.5,1
4990,3.75,12381,1,12381,1,0.00018003,-8.8905e-09,0,0.00053335,-3.265e-05,-5.3492e+06,-71.148,0,1.3833e+08,4638.5,12380,15000,1,15000,1,0.0012402,5.6987e-07,0,0.0012402,0.00015449,2.0651e+08,1.95e+05,0,3.3429e+08,93754,14999,12382,1,12382,1,0.00017005,-3.2156e-11,0,0.00051671,-3.0749e-05,4.229e+07,-8.0706,0,1.3202e+08,-0.73423,12381,9753,1,9753,1,-0.00082194,-6.9537e-07,0,1.649e-05,-0.00023079,-3.3429e+08,-1.0669e+05,0,3.9999e+06,-15902,9752,11091,1,11091,1,-0.0003641,-4.482e-10,0,0.00024636,-0.00013046,-1.4805e+08,-94.81,0,7.41e+07,-8.5274,11090,13678,1,13678,1,0.0007042,1.9958e-10,0,0.00078051,6.8788e-05,1.3202e+08,42.625,0,1.8314e+08,624.74,13677,1491.5,0,1491.5,0,0.00059805,9.4375e-08,0,0.00032491,0.00011165,1.611e+08,20871,0,8.2726e+07,14102,1491.5,1
4990,3.76,12381,1,12381,1,0.00018051,-9.0204e-09,0,0.00053477,-3.2737e-05,-5.3634e+06,-94.664,0,1.3869e+08,4652.3,12380,15000,1,15000,1,0.0012435,5.7117e-07,0,0.0012435,0.0001549,2.0706e+08,1.9544e+05,0,3.3518e+08,94015,14999,12382,1,12382,1,0.0001705,-1.1988e-10,0,0.00051809,-3.0831e-05,4.2403e+07,-29.117,0,1.3237e+08,-0.73114,12381,9753,1,9753,1,-0.00082413,-6.9771e-07,0,1.6535e-05,-0.00023141,-3.3518e+08,-1.0706e+05,0,4.0108e+06,-15927,9752,11091,1,11091,1,-0.00036507,-3.9159e-10,0,0.00024701,-0.00013081,-1.4845e+08,-81.511,0,7.4298e+07,-6.101,11090,13678,1,13678,1,0.00070608,1.1089e-11,0,0.00078259,6.8971e-05,1.3237e+08,2.8818,0,1.8363e+08,627.12,13677,1491.5,0,1491.5,0,0.00059965,9.4689e-08,0,0.00032577,0.00011195,1.6153e+08,20928,0,8.2946e+07,14141,1491.5,1
4990,3.77,12381,1,12381,1,0.000181,-8.8793e-09,0,0.00053619,-3.2825e-05,-5.3777e+06,-58.89,0,1.3906e+08,4661.2,12380,15000,1,15000,1,0.0012468,5.7293e-07,0,0.0012468,0.00015531,2.0761e+08,1.9605e+05,0,3.3607e+08,94249,14999,12382,1,12382,1,0.00017096,1.4033e-12,0,0.00051947,-3.0914e-05,4.2516e+07,0.3627,0,1.3273e+08,-0.17485,12381,9753,1,9753,1,-0.00082633,-6.9901e-07,0,1.6579e-05,-0.00023202,-3.3607e+08,-1.0725e+05,0,4.0217e+06,-16031,9752,11091,1,11091,1,-0.00036604,-2.6489e-10,0,0.00024767,-0.00013116,-1.4884e+08,-54.506,0,7.4496e+07,-6.8534,11090,13678,1,13678,1,0.00070796,2.5301e-10,0,0.00078467,6.9154e-05,1.3273e+08,51.275,0,1.8412e+08,626.03,13677,1491.5,0,1491.5,0,0.00060124,9.4875e-08,0,0.00032664,0.00011225,1.6196e+08,20981,0,8.3167e+07,14176,1491.5,1
4990,3.78,12381,1,12381,1,0.00018148,-8.9125e-09,0,0.00053762,-3.2912e-05,-5.392e+06,-61.003,0,1.3943e+08,4675.1,12380,15000,1,15000,1,0.0012501,5.7446e-07,0,0.0012501,0.00015572,2.0816e+08,1.9657e+05,0,3.3696e+08,94486,14999,12382,1,12382,1,0.00017141,4.7872e-12,0,0.00052084,-3.0996e-05,4.2629e+07,1.2468,0,1.3308e+08,-0.71049,12381,9753,1,9753,1,-0.00082852,-7.0085e-07,0,1.6624e-05,-0.00023264,-3.3696e+08,-1.0753e+05,0,4.0326e+06,-16038,9752,11091,1,11091,1,-0.00036701,-4.2392e-10,0,0.00024833,-0.00013151,-1.4924e+08,-90.111,0,7.4694e+07,-9.0868,11090,13678,1,13678,1,0.00070984,3.5468e-10,0,0.00078675,6.9338e-05,1.3308e+08,73.167,0,1.8461e+08,628.59,13677,1491.5,0,1491.5,0,0.00060284,9.5125e-08,0,0.00032751,0.00011255,1.6239e+08,21036,0,8.3388e+07,14211,1491.5,1
4990,3.79,12381,1,12381,1,0.00018196,-9.0279e-09,0,0.00053904,-3.2999e-05,-5.4062e+06,-81.461,0,1.398e+08,4688.3,12380,15000,1,15000,1,0.0012535,5.7592e-07,0,0.0012535,0.00015613,2.0871e+08,1.9707e+05,0,3.3785e+08,94765,14999,12382,1,12382,1,0.00017187,-4.2361e-11,0,0.00052222,-3.1078e-05,4.2742e+07,-12.084,0,1.3343e+08,-2.1649,12381,9753,1,9753,1,-0.00083071,-7.0285e-07,0,1.6669e-05,-0.00023326,-3.3785e+08,-1.0784e+05,0,4.0434e+06,-16076,9752,11091,1,11091,1,-0.00036798,-6.937e-10,0,0.00024899,-0.00013185,-1.4963e+08,-144.36,0,7.4891e+07,-12.308,11090,13678,1,13678,1,0.00071171,3.2149e-10,0,0.00078883,6.9521e-05,1.3343e+08,66.658,0,1.851e+08,632.73,13677,1491.5,0,1491.5,0,0.00060443,9.5386e-08,0,0.00032838,0.00011284,1.6282e+08,21094,0,8.3608e+07,14252,1491.5,1
4990,3.8,12381,1,12381,1,0.00018244,-8.9673e-09,0,0.00054046,-3.3086e-05,-5.4205e+06,-62.905,0,1.4017e+08,4699.6,12380,15000,1,15000,1,0.0012568,5.7747e-07,0,0.0012568,0.00015655,2.0927e+08,1.976e+05,0,3.3875e+08,95003,14999,12382,1,12382,1,0.00017232,1.1741e-11,0,0.0005236,-3.116e-05,4.2855e+07,3.1221,0,1.3378e+08,-1.3636,12381,9753,1,9753,1,-0.0008329,-7.0464e-07,0,1.6713e-05,-0.00023387,-3.3875e+08,-1.0811e+05,0,4.0543e+06,-16113,9752,11091,1,11091,1,-0.00036895,-4.3295e-10,0,0.00024965,-0.0001322,-1.5003e+08,-93.318,0,7.5089e+07,-9.7018,11090,13678,1,13678,1,0.00071359,3.6376e-10,0,0.00079092,6.9704e-05,1.3378e+08,76,0,1.8559e+08,632.52,13677,1491.5,0,1491.5,0,0.00060603,9.5632e-08,0,0.00032924,0.00011314,1.6325e+08,21149,0,8.3829e+07,14289,1491.5,1
4990,3.81,12381,1,12381,1,0.00018292,-8.9825e-09,0,0.00054188,-3.3173e-05,-5.4348e+06,-61.106,0,1.4054e+08,4712.7,12380,15000,1,15000,1,0.0012601,5.789e-07,0,0.0012601,0.00015696,2.0982e+08,1.9809e+05,0,3.3964e+08,95266,14999,12382,1,12382,1,0.00017278,2.0324e-11,0,0.00052498,-3.1242e-05,4.2967e+07,4.6166,0,1.3413e+08,-0.87287,12381,9753,1,9753,1,-0.00083509,-7.0667e-07,0,1.6758e-05,-0.00023449,-3.3964e+08,-1.0842e+05,0,4.0651e+06,-16149,9752,11091,1,11091,1,-0.00036992,-2.7641e-10,0,0.0002503,-0.00013255,-1.5042e+08,-57.658,0,7.5286e+07,-6.9547,11090,13678,1,13678,1,0.00071547,2.5363e-10,0,0.000793,6.9888e-05,1.3413e+08,53.073,0,1.8607e+08,634.51,13677,1491.5,0,1491.5,0,0.00060762,9.5907e-08,0,0.00033011,0.00011344,1.6367e+08,21205,0,8.4049e+07,14329,1491.5,1
4990,3.82,12381,1,12381,1,0.0001834,-8.9974e-09,0,0.00054331,-3.3261e-05,-5.4491e+06,-59.491,0,1.4091e+08,4724.3,12380,15000,1,15000,1,0.0012634,5.8055e-07,0,0.0012634,0.00015737,2.1037e+08,1.9865e+05,0,3.4053e+08,95500,14999,12382,1,12382,1,0.00017323,1.5933e-11,0,0.00052635,-3.1324e-05,4.308e+07,4.816,0,1.3448e+08,-1.0261,12381,9753,1,9753,1,-0.00083728,-7.0825e-07,0,1.6802e-05,-0.0002351,-3.4053e+08,-1.0866e+05,0,4.076e+06,-16191,9752,11091,1,11091,1,-0.00037089,-4.2387e-10,0,0.00025096,-0.0001329,-1.5081e+08,-90.574,0,7.5484e+07,-9.0012,11090,13678,1,13678,1,0.00071735,3.6111e-10,0,0.00079508,7.0071e-05,1.3448e+08,76.419,0,1.8656e+08,636.8,13677,1491.5,0,1491.5,0,0.00060922,9.6119e-08,0,0.00033098,0.00011374,1.641e+08,21259,0,8.427e+07,14365,1491.5,1
4990,3.83,12381,1,12381,1,0.00018388,-9.0756e-09,0,0.00054473,-3.3348e-05,-5.4633e+06,-71.553,0,1.4127e+08,4735.6,12380,15000,1,15000,1,0.0012667,5.8206e-07,0,0.0012667,0.00015778,2.1092e+08,1.9917e+05,0,3.4142e+08,95743,14999,12382,1,12382,1,0.00017368,-2.7201e-11,0,0.00052773,-3.1406e-05,4.3193e+07,-6.6747,0,1.3483e+08,-0.90868,12381,9753,1,9753,1,-0.00083947,-7.1013e-07,0,1.6847e-05,-0.00023572,-3.4142e+08,-1.0895e+05,0,4.0869e+06,-16256,9752,11091,1,11091,1,-0.00037186,-3.6776e-10,0,0.00025162,-0.00013325,-1.5121e+08,-76.788,0,7.5682e+07,-7.0782,11090,13678,1,13678,1,0.00071923,1.343e-10,0,0.00079716,7.0254e-05,1.3483e+08,29.184,0,1.8705e+08,636.03,13677,1491.5,0,1491.5,0,0.00061081,9.638e-08,0,0.00033184,0.00011403,1.6453e+08,21315,0,8.449e+07,14400,1491.5,1
4990,3.84,12381,1,12381,1,0.00018436,-9.0268e-09,0,0.00054615,-3.3435e-05,-5.4776e+06,-55.968,0,1.4164e+08,4749.2,12380,15000,1,15000,1,0.00127,5.8353e-07,0,0.00127,0.00015819,2.1147e+08,1.9967e+05,0,3.4231e+08,96004,14999,12382,1,12382,1,0.00017414,8.258e-11,0,0.00052911,-3.1488e-05,4.3306e+07,20.136,0,1.3519e+08,-0.3901,12381,9753,1,9753,1,-0.00084167,-7.1214e-07,0,1.6892e-05,-0.00023633,-3.4231e+08,-1.0926e+05,0,4.0978e+06,-16305,9752,11091,1,11091,1,-0.00037283,-3.247e-10,0,0.00025228,-0.00013359,-1.516e+08,-69.786,0,7.5879e+07,-9.8155,11090,13678,1,13678,1,0.00072111,5.0903e-10,0,0.00079925,7.0438e-05,1.3519e+08,104.51,0,1.8754e+08,638.29,13677,1491.5,0,1491.5,0,0.00061241,9.6663e-08,0,0.00033271,0.00011433,1.6496e+08,21372,0,8.4711e+07,14437,1491.5,1
4990,3.85,12381,1,12381,1,0.00018484,-9.0782e-09,0,0.00054758,-3.3522e-05,-5.4919e+06,-62.398,0,1.4201e+08,4760.2,12380,15000,1,15000,1,0.0012733,5.8503e-07,0,0.0012733,0.00015861,2.1202e+08,2.0019e+05,0,3.432e+08,96248,14999,12382,1,12382,1,0.00017459,4.4858e-11,0,0.00053049,-3.1571e-05,4.3419e+07,11.642,0,1.3554e+08,-1.1266,12381,9753,1,9753,1,-0.00084386,-7.1398e-07,0,1.6936e-05,-0.00023695,-3.432e+08,-1.0954e+05,0,4.1087e+06,-16368,9752,11091,1,11091,1,-0.0003738,-3.6763e-10,0,0.00025293,-0.00013394,-1.52e+08,-79.669,0,7.6077e+07,-10.266,11090,13678,1,13678,1,0.00072299,4.4121e-10,0,0.00080133,7.0621e-05,1.3554e+08,90.803,0,1.8803e+08,638.69,13677,1491.5,0,1491.5,0,0.000614,9.6904e-08,0,0.00033358,0.00011463,1.6539e+08,21427,0,8.4931e+07,14474,1491.5,1
4990,3.86,12381,1,12381,1,0.00018532,-9.0979e-09,0,0.000549,-3.3609e-05,-5.5061e+06,-61.582,0,1.4238e+08,4774,12380,15000,1,15000,1,0.0012766,5.8646e-07,0,0.0012766,0.00015902,2.1257e+08,2.0068e+05,0,3.4409e+08,96506,14999,12382,1,12382,1,0.00017505,3.6667e-11,0,0.00053186,-3.1653e-05,4.3532e+07,9.605,0,1.3589e+08,-0.77502,12381,9753,1,9753,1,-0.00084605,-7.1602e-07,0,1.6981e-05,-0.00023756,-3.4409e+08,-1.0985e+05,0,4.1196e+06,-16389,9752,11091,1,11091,1,-0.00037477,-2.8765e-10,0,0.00025359,-0.00013429,-1.5239e+08,-60.168,0,7.6275e+07,-8.016,11090,13678,1,13678,1,0.00072486,3.6883e-10,0,0.00080341,7.0804e-05,1.3589e+08,76.235,0,1.8852e+08,641.86,13677,1491.5,0,1491.5,0,0.0006156,9.7179e-08,0,0.00033444,0.00011493,1.6582e+08,21483,0,8.5152e+07,14514,1491.5,1
4990,3.87,12381,1,12381,1,0.0001858,-9.0645e-09,0,0.00055042,-3.3697e-05,-5.5204e+06,-48.997,0,1.4275e+08,4785.2,12380,15000,1,15000,1,0.0012799,5.8806e-07,0,0.0012799,0.00015943,2.1312e+08,2.0122e+05,0,3.4499e+08,96756,14999,12382,1,12382,1,0.0001755,7.648e-11,0,0.00053324,-3.1735e-05,4.3645e+07,18.205,0,1.3624e+08,-0.82659,12381,9753,1,9753,1,-0.00084824,-7.1769e-07,0,1.7026e-05,-0.00023818,-3.4499e+08,-1.1011e+05,0,4.1304e+06,-16425,9752,11091,1,11091,1,-0.00037574,-1.8871e-10,0,0.00025425,-0.00013464,-1.5279e+08,-40.829,0,7.6472e+07,-7.5352,11090,13678,1,13678,1,0.00072674,3.5667e-10,0,0.00080549,7.0988e-05,1.3624e+08,72.905,0,1.8901e+08,640.96,13677,1491.5,0,1491.5,0,0.00061719,9.7407e-08,0,0.00033531,0.00011523,1.6625e+08,21538,0,8.5372e+07,14552,1491.5,1
4990,3.88,12381,1,12381,1,0.00018628,-9.0856e-09,0,0.00055184,-3.3784e-05,-5.5347e+06,-48.779,0,1.4312e+08,4798,12380,15000,1,15000,1,0.0012832,5.8974e-07,0,0.0012832,0.00015984,2.1367e+08,2.018e+05,0,3.4588e+08,96987,14999,12382,1,12382,1,0.00017595,2.954e-11,0,0.00053462,-3.1817e-05,4.3758e+07,7.6915,0,1.3659e+08,-0.65265,12381,9753,1,9753,1,-0.00085043,-7.192e-07,0,1.707e-05,-0.0002388,-3.4588e+08,-1.1033e+05,0,4.1413e+06,-16479,9752,11091,1,11091,1,-0.00037671,-3.9464e-10,0,0.00025491,-0.00013499,-1.5318e+08,-84.475,0,7.667e+07,-10.37,11090,13678,1,13678,1,0.00072862,4.6648e-10,0,0.00080758,7.1171e-05,1.3659e+08,98.053,0,1.8949e+08,646.94,13677,1491.5,0,1491.5,0,0.00061879,9.7616e-08,0,0.00033618,0.00011552,1.6668e+08,21592,0,8.5593e+07,14587,1491.5,1
4990,3.89,12381,1,12381,1,0.00018676,-9.1914e-09,0,0.00055326,-3.3871e-05,-5.5489e+06,-67.143,0,1.4349e+08,4810.3,12380,15000,1,15000,1,0.0012865,5.9105e-07,0,0.0012865,0.00016025,2.1422e+08,2.0225e+05,0,3.4677e+08,97248,14999,12382,1,12382,1,0.00017641,1.3738e-11,0,0.000536,-3.1899e-05,4.3871e+07,3.4542,0,1.3694e+08,-0.7735,12381,9753,1,9753,1,-0.00085262,-7.2147e-07,0,1.7115e-05,-0.00023941,-3.4677e+08,-1.1069e+05,0,4.1522e+06,-16505,9752,11091,1,11091,1,-0.00037768,-3.2114e-10,0,0.00025556,-0.00013534,-1.5358e+08,-68.273,0,7.6868e+07,-7.6981,11090,13678,1,13678,1,0.0007305,3.1945e-10,0,0.00080966,7.1354e-05,1.3694e+08,65.041,0,1.8998e+08,645.14,13677,1491.5,0,1491.5,0,0.00062038,9.7916e-08,0,0.00033704,0.00011582,1.6711e+08,21649,0,8.5813e+07,14627,1491.5,1
4990,3.9,12381,1,12381,1,0.00018725,-9.1787e-09,0,0.00055469,-3.3958e-05,-5.5632e+06,-59.525,0,1.4386e+08,4822.1,12380,15000,1,15000,1,0.0012898,5.9263e-07,0,0.0012898,0.00016067,2.1477e+08,2.0279e+05,0,3.4766e+08,97494,14999,12382,1,12382,1,0.00017686,8.2115e-11,0,0.00053737,-3.1981e-05,4.3984e+07,19.444,0,1.373e+08,-0.066534,12381,9753,1,9753,1,-0.00085482,-7.2321e-07,0,1.716e-05,-0.00024003,-3.4766e+08,-1.1095e+05,0,4.1631e+06,-16582,9752,11091,1,11091,1,-0.00037865,-3.2262e-10,0,0.00025622,-0.00013568,-1.5397e+08,-69.629,0,7.7065e+07,-9.0963,11090,13678,1,13678,1,0.00073238,4.7359e-10,0,0.00081174,7.1538e-05,1.373e+08,96.443,0,1.9047e+08,644.46,13677,1491.5,0,1491.5,0,0.00062198,9.8156e-08,0,0.00033791,0.00011612,1.6754e+08,21704,0,8.6034e+07,14662,1491.5,1
4990,3.91,12381,1,12381,1,0.00018773,-9.1889e-09,0,0.00055611,-3.4045e-05,-5.5775e+06,-56.489,0,1.4422e+08,4836.5,12380,15000,1,15000,1,0.0012932,5.9412e-07,0,0.0012932,0.00016108,2.1532e+08,2.033e+05,0,3.4855e+08,97767,14999,12382,1,12382,1,0.00017732,5.3734e-11,0,0.00053875,-3.2063e-05,4.4097e+07,13.373,0,1.3765e+08,-1.5723,12381,9753,1,9753,1,-0.00085701,-7.2517e-07,0,1.7204e-05,-0.00024064,-3.4855e+08,-1.1125e+05,0,4.1739e+06,-16594,9752,11091,1,11091,1,-0.00037962,-4.7377e-10,0,0.00025688,-0.00013603,-1.5437e+08,-100.62,0,7.7263e+07,-12.805,11090,13678,1,13678,1,0.00073426,6.1438e-10,0,0.00081382,7.1721e-05,1.3765e+08,127.44,0,1.9096e+08,653.21,13677,1491.5,0,1491.5,0,0.00062357,9.8422e-08,0,0.00033878,0.00011642,1.6797e+08,21761,0,8.6254e+07,14702,1491.5,1
4990,3.92,12381,1,12381,1,0.00018821,-9.2338e-09,0,0.00055753,-3.4133e-05,-5.5918e+06,-61.272,0,1.4459e+08,4846.6,12380,15000,1,15000,1,0.0012965,5.9575e-07,0,0.0012965,0.00016149,2.1588e+08,2.0385e+05,0,3.4944e+08,97987,14999,12382,1,12382,1,0.00017777,1.6099e-11,0,0.00054013,-3.2145e-05,4.421e+07,3.4959,0,1.38e+08,-1.3292,12381,9753,1,9753,1,-0.0008592,-7.2675e-07,0,1.7249e-05,-0.00024126,-3.4944e+08,-1.1149e+05,0,4.1848e+06,-16645,9752,11091,1,11091,1,-0.00038059,-4.1538e-10,0,0.00025754,-0.00013638,-1.5476e+08,-90.029,0,7.7461e+07,-9.5195,11090,13678,1,13678,1,0.00073614,3.7617e-10,0,0.0008159,7.1904e-05,1.38e+08,77.088,0,1.9145e+08,651.74,13677,1491.5,0,1491.5,0,0.00062517,9.8633e-08,0,0.00033964,0.00011671,1.684e+08,21814,0,8.6475e+07,14737,1491.5,1
4990,3.93,12381,1,12381,1,0.00018869,-9.233e-09,0,0.00055896,-3.422e-05,-5.606e+06,-56.13,0,1.4496e+08,4858.7,12380,15000,1,15000,1,0.0012998,5.9728e-07,0,0.0012998,0.0001619,2.1643e+08,2.0438e+05,0,3.5033e+08,98241,14999,12382,1,12382,1,0.00017823,4.3246e-11,0,0.00054151,-3.2228e-05,4.4323e+07,10.504,0,1.3835e+08,-0.80605,12381,9753,1,9753,1,-0.00086139,-7.2856e-07,0,1.7293e-05,-0.00024187,-3.5033e+08,-1.1176e+05,0,4.1957e+06,-16665,9752,11091,1,11091,1,-0.00038156,-3.3638e-10,0,0.0002582,-0.00013673,-1.5516e+08,-72.904,0,7.7658e+07,-8.5158,11090,13678,1,13678,1,0.00073802,3.7011e-10,0,0.00081799,7.2088e-05,1.3835e+08,76.707,0,1.9194e+08,651.2,13677,1491.5,0,1491.5,0,0.00062676,9.8874e-08,0,0.00034051,0.00011701,1.6883e+08,21870,0,8.6695e+07,14778,1491.5,1
4990,3.94,12381,1,12381,1,0.00018917,-9.2651e-09,0,0.00056038,-3.4307e-05,-5.6203e+06,-57.754,0,1.4533e+08,4872.3,12380,15000,1,15000,1,0.0013031,5.9884e-07,0,0.0013031,0.00016231,2.1698e+08,2.0491e+05,0,3.5122e+08,98485,14999,12382,1,12382,1,0.00017868,2.0118e-11,0,0.00054288,-3.231e-05,4.4436e+07,5.1579,0,1.387e+08,-1.0301,12381,9753,1,9753,1,-0.00086358,-7.3037e-07,0,1.7338e-05,-0.00024249,-3.5122e+08,-1.1204e+05,0,4.2066e+06,-16703,9752,11091,1,11091,1,-0.00038253,-4.5503e-10,0,0.00025885,-0.00013708,-1.5555e+08,-98.367,0,7.7856e+07,-9.867,11090,13678,1,13678,1,0.00073989,3.5983e-10,0,0.00082007,7.2271e-05,1.387e+08,76.689,0,1.9243e+08,656.44,13677,1491.5,0,1491.5,0,0.00062836,9.9122e-08,0,0.00034138,0.00011731,1.6926e+08,21926,0,8.6916e+07,14813,1491.5,1
4990,3.95,12381,1,12381,1,0.00018965,-9.3123e-09,0,0.0005618,-3.4394e-05,-5.6345e+06,-63.421,0,1.457e+08,4884.1,12380,15000,1,15000,1,0.0013064,6.0021e-07,0,0.0013064,0.00016272,2.1753e+08,2.0538e+05,0,3.5211e+08,98744,14999,12382,1,12382,1,0.00017913,1.2623e-11,0,0.00054426,-3.2392e-05,4.4549e+07,3.0689,0,1.3905e+08,-1.551,12381,9753,1,9753,1,-0.00086577,-7.3251e-07,0,1.7383e-05,-0.00024311,-3.5211e+08,-1.1237e+05,0,4.2175e+06,-16747,9752,11091,1,11091,1,-0.0003835,-3.4815e-10,0,0.00025951,-0.00013742,-1.5594e+08,-75.371,0,7.8053e+07,-8.975,11090,13678,1,13678,1,0.00074177,3.1591e-10,0,0.00082215,7.2454e-05,1.3905e+08,64.115,0,1.9291e+08,655.53,13677,1491.5,0,1491.5,0,0.00062995,9.9411e-08,0,0.00034224,0.00011761,1.6969e+08,21982,0,8.7136e+07,14853,1491.5,1
4990,3.96,12381,1,12381,1,0.00019013,-9.3233e-09,0,0.00056322,-3.4481e-05,-5.6488e+06,-60.467,0,1.4607e+08,4899.1,12380,15000,1,15000,1,0.0013097,6.0156e-07,0,0.0013097,0.00016314,2.1808e+08,2.0584e+05,0,3.5301e+08,99011,14999,12382,1,12382,1,0.00017959,3.8554e-11,0,0.00054564,-3.2474e-05,4.4661e+07,9.9772,0,1.394e+08,-0.83417,12381,9753,1,9753,1,-0.00086796,-7.3471e-07,0,1.7427e-05,-0.00024372,-3.5301e+08,-1.1272e+05,0,4.2284e+06,-16781,9752,11091,1,11091,1,-0.00038447,-2.1518e-10,0,0.00026017,-0.00013777,-1.5634e+08,-44.563,0,7.8251e+07,-7.0932,11090,13678,1,13678,1,0.00074365,3.087e-10,0,0.00082423,7.2637e-05,1.394e+08,63.659,0,1.934e+08,660.08,13677,1491.5,0,1491.5,0,0.00063154,9.9713e-08,0,0.00034311,0.00011791,1.7012e+08,22040,0,8.7357e+07,14892,1491.5,1
4990,3.97,12381,1,12381,1,0.00019061,-9.3407e-09,0,0.00056465,-3.4569e-05,-5.6631e+06,-59.803,0,1.4644e+08,4910.1,12380,15000,1,15000,1,0.001313,6.0319e-07,0,0.001313,0.00016355,2.1863e+08,2.064e+05,0,3.539e+08,99259,14999,12382,1,12382,1,0.00018004,5.6681e-11,0,0.00054701,-3.2556e-05,4.4775e+07,14.441,0,1.3976e+08,-1.109,12381,9753,1,9753,1,-0.00087015,-7.3634e-07,0,1.7472e-05,-0.00024434,-3.539e+08,-1.1296e+05,0,4.2393e+06,-16829,9752,11091,1,11091,1,-0.00038545,-3.6072e-10,0,0.00026083,-0.00013812,-1.5673e+08,-78.516,0,7.8449e+07,-10.044,11090,13678,1,13678,1,0.00074553,4.6507e-10,0,0.00082631,7.2821e-05,1.3976e+08,98.732,0,1.9389e+08,659.84,13677,1491.5,0,1491.5,0,0.00063314,9.9927e-08,0,0.00034398,0.0001182,1.7055e+08,22095,0,8.7578e+07,14930,1491.5,1
4990,3.98,12381,1,12381,1,0.00019109,-9.4025e-09,0,0.00056607,-3.4656e-05,-5.6774e+06,-68.127,0,1.468e+08,4922.8,12380,15000,1,15000,1,0.0013163,6.0478e-07,0,0.0013163,0.00016396,2.1918e+08,2.0694e+05,0,3.5479e+08,99506,14999,12382,1,12382,1,0.0001805,-1.3319e-12,0,0.00054839,-3.2638e-05,4.4888e+07,-0.22795,0,1.4011e+08,-1.658,12381,9753,1,9753,1,-0.00087234,-7.3804e-07,0,1.7517e-05,-0.00024495,-3.5479e+08,-1.1322e+05,0,4.2502e+06,-16873,9752,11091,1,11091,1,-0.00038642,-5.1702e-10,0,0.00026148,-0.00013847,-1.5713e+08,-110.15,0,7.8647e+07,-10.925,11090,13678,1,13678,1,0.00074741,3.559e-10,0,0.0008284,7.3004e-05,1.4011e+08,75.278,0,1.9438e+08,665.46,13677,1491.5,0,1491.5,0,0.00063474,1.0015e-07,0,0.00034484,0.0001185,1.7097e+08,22149,0,8.7798e+07,14967,1491.5,1
4990,3.99,12381,1,12381,1,0.00019157,-9.3792e-09,0,0.00056749,-3.4743e-05,-5.6916e+06,-58.045,0,1.4717e+08,4935,12380,15000,1,15000,1,0.0013196,6.0625e-07,0,0.0013196,0.00016437,2.1973e+08,2.0745e+05,0,3.5568e+08,99750,14999,12382,1,12382,1,0.00018095,7.2847e-11,0,0.00054977,-3.272e-05,4.5e+07,17.571,0,1.4046e+08,0.13542,12381,9753,1,9753,1,-0.00087454,-7.3999e-07,0,1.7562e-05,-0.00024557,-3.5568e+08,-1.1352e+05,0,4.2611e+06,-16919,9752,11091,1,11091,1,-0.00038739,-2.7647e-10,0,0.00026214,-0.00013882,-1.5752e+08,-59.462,0,7.8844e+07,-7.3792,11090,13678,1,13678,1,0.00074929,4.0439e-10,0,0.00083048,7.3187e-05,1.4046e+08,83.175,0,1.9487e+08,664.35,13677,1491.5,0,1491.5,0,0.00063633,1.0043e-07,0,0.00034571,0.0001188,1.714e+08,22205,0,8.8019e+07,15003,1491.5,1
4990,4,12381,1,12381,1,0.00019205,-9.4269e-09,0,0.00056891,-3.483e-05,-5.7059e+06,-63.158,0,1.4754e+08,4944.3,12380,15000,1,15000,1,0.0013229,6.0791e-07,0,0.0013229,0.00016478,2.2028e+08,2.0801e+05,0,3.5657e+08,99983,14999,12382,1,12382,1,0.0001814,-3.4282e-11,0,0.00055115,-3.2803e-05,4.5113e+07,-8.0038,0,1.4081e+08,-0.71185,12381,9753,1,9753,1,-0.00087673,-7.4151e-07,0,1.7606e-05,-0.00024618,-3.5657e+08,-1.1374e+05,0,4.272e+06,-16980,9752,11091,1,11091,1,-0.00038836,-4.0372e-10,0,0.0002628,-0.00013916,-1.5792e+08,-78.894,0,7.9042e+07,-9.3445,11090,13678,1,13678,1,0.00075117,1.7032e-10,0,0.00083256,7.3371e-05,1.4081e+08,37.174,0,1.9536e+08,663.84,13677,1491.5,0,1491.5,0,0.00063792,1.0064e-07,0,0.00034657,0.0001191,1.7183e+08,22259,0,8.8239e+07,15037,1491.5,1
4990,4.01,12381,1,12381,1,0.00019253,-9.4196e-09,0,0.00057033,-3.4917e-05,-5.7202e+06,-56.716,0,1.4791e+08,4958.8,12380,15000,1,15000,1,0.0013262,6.0934e-07,0,0.0013262,0.0001652,2.2083e+08,2.0851e+05,0,3.5746e+08,1.0024e+05,14999,12382,1,12382,1,0.00018186,1.8056e-11,0,0.00055252,-3.2885e-05,4.5226e+07,4.1642,0,1.4116e+08,-1.4533,12381,9753,1,9753,1,-0.00087892,-7.4356e-07,0,1.7651e-05,-0.0002468,-3.5746e+08,-1.1406e+05,0,4.2829e+06,-17017,9752,11091,1,11091,1,-0.00038933,-3.5746e-10,0,0.00026346,-0.00013951,-1.5831e+08,-75.109,0,7.9239e+07,-9.3728,11090,13678,1,13678,1,0.00075304,3.6255e-10,0,0.00083464,7.3554e-05,1.4116e+08,74.356,0,1.9584e+08,667.38,13677,1491.5,0,1491.5,0,0.00063952,1.0091e-07,0,0.00034744,0.00011939,1.7226e+08,22315,0,8.846e+07,15078,1491.5,1
4990,4.02,12381,1,12381,1,0.00019302,-9.541e-09,0,0.00057176,-3.5005e-05,-5.7344e+06,-78.684,0,1.4828e+08,4970.5,12380,15000,1,15000,1,0.0013295,6.1079e-07,0,0.0013295,0.00016561,2.2138e+08,2.09e+05,0,3.5835e+08,1.0049e+05,14999,12382,1,12382,1,0.00018231,-4.7474e-11,0,0.0005539,-3.2967e-05,4.5339e+07,-11.463,0,1.4151e+08,0.0067417,12381,9753,1,9753,1,-0.00088111,-7.4552e-07,0,1.7696e-05,-0.00024741,-3.5835e+08,-1.1436e+05,0,4.2939e+06,-17064,9752,11091,1,11091,1,-0.0003903,-2.6824e-10,0,0.00026411,-0.00013986,-1.5871e+08,-57.395,0,7.9437e+07,-6.5742,11090,13678,1,13678,1,0.00075492,6.3595e-11,0,0.00083672,7.3737e-05,1.4151e+08,13.653,0,1.9633e+08,668.13,13677,1491.5,0,1491.5,0,0.00064111,1.0117e-07,0,0.00034831,0.00011969,1.7269e+08,22370,0,8.868e+07,15116,1491.5,1
4990,4.03,12381,1,12381,1,0.0001935,-9.5046e-09,0,0.00057318,-3.5092e-05,-5.7487e+06,-65.19,0,1.4865e+08,4982.7,12380,15000,1,15000,1,0.0013329,6.1235e-07,0,0.0013329,0.00016602,2.2193e+08,2.0954e+05,0,3.5924e+08,1.0075e+05,14999,12382,1,12382,1,0.00018277,-5.5345e-11,0,0.00055528,-3.3049e-05,4.5452e+07,-13.687,0,1.4186e+08,-0.087332,12381,9753,1,9753,1,-0.0008833,-7.473e-07,0,1.7741e-05,-0.00024803,-3.5924e+08,-1.1463e+05,0,4.3048e+06,-17101,9752,11091,1,11091,1,-0.00039127,-1.8143e-10,0,0.00026477,-0.00014021,-1.591e+08,-40.247,0,7.9635e+07,-7.0447,11090,13678,1,13678,1,0.0007568,1.1184e-10,0,0.00083881,7.3921e-05,1.4186e+08,26.147,0,1.9682e+08,669.87,13677,1491.5,0,1491.5,0,0.00064271,1.0142e-07,0,0.00034917,0.00011999,1.7312e+08,22426,0,8.89e+07,15154,1491.5,1
4990,4.04,12381,1,12381,1,0.00019398,-9.1994e-09,0,0.0005746,-3.5179e-05,-5.763e+06,7.2845,0,1.4902e+08,4995.9,12380,15000,1,15000,1,0.0013362,6.139e-07,0,0.0013362,0.00016643,2.2249e+08,2.1006e+05,0,3.6014e+08,1.0101e+05,14999,12382,1,12382,1,0.00018322,4.0099e-10,0,0.00055666,-3.3131e-05,4.5565e+07,101.41,0,1.4222e+08,1.9204,12381,9753,1,9753,1,-0.0008855,-7.4912e-07,0,1.7785e-05,-0.00024865,-3.6014e+08,-1.1491e+05,0,4.3156e+06,-17133,9752,11091,1,11091,1,-0.00039224,-2.3888e-12,0,0.00026543,-0.00014056,-1.595e+08,0.34484,0,7.9833e+07,-6.6667,11090,13678,1,13678,1,0.00075868,7.5917e-10,0,0.00084089,7.4104e-05,1.4222e+08,156.19,0,1.9731e+08,668.03,13677,1491.5,0,1491.5,0,0.00064431,1.0169e-07,0,0.00035004,0.00012029,1.7355e+08,22484,0,8.9121e+07,15193,1491.5,1
4990,4.05,12381,1,12381,1,0.00019446,-9.4611e-09,0,0.00057603,-3.5266e-05,-5.7773e+06,-45.543,0,1.4939e+08,5007.9,12380,15000,1,15000,1,0.0013395,6.155e-07,0,0.0013395,0.00016684,2.2304e+08,2.1061e+05,0,3.6103e+08,1.0124e+05,14999,12382,1,12382,1,0.00018368,5.8329e-11,0,0.00055803,-3.3213e-05,4.5678e+07,13.931,0,1.4257e+08,-2.0783,12381,9753,1,9753,1,-0.00088768,-7.508e-07,0,1.783e-05,-0.00024926,-3.6103e+08,-1.1516e+05,0,4.3266e+06,-17195,9752,11091,1,11091,1,-0.00039321,-4.3032e-10,0,0.00026609,-0.0001409,-1.5989e+08,-92.553,0,8.003e+07,-12.031,11090,13678,1,13678,1,0.00076056,5.1347e-10,0,0.00084297,7.4287e-05,1.4257e+08,111.11,0,1.978e+08,674.88,13677,1491.5,0,1491.5,0,0.0006459,1.019e-07,0,0.00035091,0.00012059,1.7398e+08,22537,0,8.9342e+07,15227,1491.5,1
4990,4.06,12381,1,12381,1,0.00019494,-9.6412e-09,0,0.00057745,-3.5354e-05,-5.7915e+06,-80.591,0,1.4975e+08,5020.4,12380,15000,1,15000,1,0.0013428,6.1688e-07,0,0.0013428,0.00016725,2.2359e+08,2.1108e+05,0,3.6192e+08,1.0149e+05,14999,12382,1,12382,1,0.00018413,-1.4934e-11,0,0.00055941,-3.3295e-05,4.5791e+07,-4.5064,0,1.4292e+08,-1.636,12381,9753,1,9753,1,-0.00088987,-7.5295e-07,0,1.7875e-05,-0.00024988,-3.6192e+08,-1.155e+05,0,4.3375e+06,-17237,9752,11091,1,11091,1,-0.00039418,-4.6943e-10,0,0.00026675,-0.00014125,-1.6028e+08,-99.543,0,8.0228e+07,-9.5814,11090,13678,1,13678,1,0.00076244,2.7349e-10,0,0.00084505,7.4471e-05,1.4292e+08,54.194,0,1.9829e+08,675.66,13677,1491.5,0,1491.5,0,0.00064749,1.0218e-07,0,0.00035177,0.00012088,1.7441e+08,22593,0,8.9562e+07,15264,1491.5,1
4990,4.07,12381,1,12381,1,0.00019542,-9.6412e-09,0,0.00057887,-3.5441e-05,-5.8058e+06,-75.556,0,1.5012e+08,5032.8,12380,15000,1,15000,1,0.0013461,6.1838e-07,0,0.0013461,0.00016767,2.2414e+08,2.116e+05,0,3.6281e+08,1.0174e+05,14999,12382,1,12382,1,0.00018458,-1.4821e-11,0,0.00056079,-3.3378e-05,4.5904e+07,-3.9962,0,1.4327e+08,-1.7828,12381,9753,1,9753,1,-0.00089207,-7.5481e-07,0,1.792e-05,-0.00025049,-3.6281e+08,-1.1578e+05,0,4.3484e+06,-17274,9752,11091,1,11091,1,-0.00039515,-4.8941e-10,0,0.0002674,-0.0001416,-1.6068e+08,-106.28,0,8.0425e+07,-10.414,11090,13678,1,13678,1,0.00076432,3.1197e-10,0,0.00084714,7.4654e-05,1.4327e+08,64.084,0,1.9878e+08,677.61,13677,1491.5,0,1491.5,0,0.00064909,1.0243e-07,0,0.00035264,0.00012118,1.7484e+08,22648,0,8.9783e+07,15303,1491.5,1
4990,4.08,12381,1,12381,1,0.0001959,-9.6635e-09,0,0.00058029,-3.5528e-05,-5.82e+06,-75.27,0,1.5049e+08,5044.4,12380,15000,1,15000,1,0.0013494,6.1991e-07,0,0.0013494,0.00016808,2.2469e+08,2.1212e+05,0,3.637e+08,1.0199e+05,14999,12382,1,12382,1,0.00018504,3.0938e-12,0,0.00056216,-3.346e-05,4.6017e+07,0.77102,0,1.4362e+08,-1.4693,12381,9753,1,9753,1,-0.00089426,-7.5663e-07,0,1.7964e-05,-0.00025111,-3.637e+08,-1.1606e+05,0,4.3593e+06,-17327,9752,11091,1,11091,1,-0.00039612,-4.2681e-10,0,0.00026806,-0.00014195,-1.6107e+08,-93.314,0,8.0623e+07,-9.4537,11090,13678,1,13678,1,0.0007662,2.8435e-10,0,0.00084922,7.4837e-05,1.4362e+08,57.599,0,1.9926e+08,679.13,13677,1491.5,0,1491.5,0,0.00065068,1.0268e-07,0,0.00035351,0.00012148,1.7527e+08,22704,0,9.0003e+07,15339,1491.5,1
4990,4.09,12381,1,12381,1,0.00019638,-9.7944e-09,0,0.00058171,-3.5615e-05,-5.8342e+06,-98.202,0,1.5086e+08,5063.2,12380,15000,1,15000,1,0.0013527,6.2075e-07,0,0.0013527,0.00016849,2.2524e+08,2.1241e+05,0,3.6459e+08,1.0227e+05,14999,12382,1,12382,1,0.00018549,-5.1877e-11,0,0.00056353,-3.3541e-05,4.613e+07,-11.716,0,1.4397e+08,4.3924,12381,9753,1,9753,1,-0.00089644,-7.5996e-07,0,1.8009e-05,-0.00025172,-3.6459e+08,-1.166e+05,0,4.3702e+06,-17335,9752,11091,1,11091,1,-0.00039708,-5.0128e-10,0,0.00026872,-0.00014229,-1.6147e+08,-113.36,0,8.082e+07,-3.4758,11090,13678,1,13678,1,0.00076807,3.9418e-10,0,0.00085129,7.502e-05,1.4397e+08,84.946,0,1.9975e+08,682.67,13677,1491.5,0,1491.5,0,0.00065227,1.0315e-07,0,0.00035437,0.00012178,1.757e+08,22768,0,9.0223e+07,15382,1491.5,1
4990,4.1,12381,1,12381,1,0.00019686,-9.6477e-09,0,0.00058314,-3.5702e-05,-5.8486e+06,-61.568,0,1.5123e+08,5069.6,12380,15000,1,15000,1,0.001356,6.2292e-07,0,0.001356,0.0001689,2.2579e+08,2.1315e+05,0,3.6548e+08,1.0249e+05,14999,12382,1,12382,1,0.00018595,1.4939e-11,0,0.00056492,-3.3624e-05,4.6243e+07,3.8612,0,1.4432e+08,-0.37384,12381,9753,1,9753,1,-0.00089864,-7.6036e-07,0,1.8054e-05,-0.00025234,-3.6548e+08,-1.1663e+05,0,4.3812e+06,-17406,9752,11091,1,11091,1,-0.00039806,-1.9558e-10,0,0.00026938,-0.00014264,-1.6186e+08,-42.078,0,8.1018e+07,-6.7996,11090,13678,1,13678,1,0.00076995,1.8842e-10,0,0.00085338,7.5204e-05,1.4432e+08,39.825,0,2.0024e+08,681.38,13677,1491.5,0,1491.5,0,0.00065387,1.0319e-07,0,0.00035524,0.00012207,1.7613e+08,22815,0,9.0444e+07,15416,1491.5,1
4990,4.11,12381,1,12381,1,0.00019734,-9.6986e-09,0,0.00058456,-3.579e-05,-5.8629e+06,-67.812,0,1.516e+08,5081.9,12380,15000,1,15000,1,0.0013593,6.2448e-07,0,0.0013593,0.00016931,2.2634e+08,2.1368e+05,0,3.6637e+08,1.0274e+05,14999,12382,1,12382,1,0.0001864,2.7856e-12,0,0.0005663,-3.3706e-05,4.6356e+07,0.7547,0,1.4468e+08,-1.1982,12381,9753,1,9753,1,-0.00090083,-7.6216e-07,0,1.8099e-05,-0.00025296,-3.6637e+08,-1.169e+05,0,4.3921e+06,-17452,9752,11091,1,11091,1,-0.00039903,-3.6521e-10,0,0.00027003,-0.00014299,-1.6226e+08,-76.588,0,8.1216e+07,-8.3838,11090,13678,1,13678,1,0.00077183,2.8479e-10,0,0.00085547,7.5387e-05,1.4468e+08,58.715,0,2.0073e+08,684.15,13677,1491.5,0,1491.5,0,0.00065547,1.0343e-07,0,0.00035611,0.00012237,1.7656e+08,22871,0,9.0665e+07,15452,1491.5,1
4990,4.12,12381,1,12381,1,0.00019782,-9.725e-09,0,0.00058598,-3.5877e-05,-5.8771e+06,-69.008,0,1.5197e+08,5094.3,12380,15000,1,15000,1,0.0013626,6.2591e-07,0,0.0013626,0.00016973,2.2689e+08,2.1418e+05,0,3.6727e+08,1.03e+05,14999,12382,1,12382,1,0.00018686,5.1256e-11,0,0.00056767,-3.3788e-05,4.6469e+07,12.438,0,1.4503e+08,-0.95516,12381,9753,1,9753,1,-0.00090302,-7.6419e-07,0,1.8143e-05,-0.00025357,-3.6727e+08,-1.1722e+05,0,4.403e+06,-17501,9752,11091,1,11091,1,-0.0004,-3.3596e-10,0,0.00027069,-0.00014334,-1.6265e+08,-72.818,0,8.1414e+07,-9.5344,11090,13678,1,13678,1,0.00077371,3.9965e-10,0,0.00085755,7.557e-05,1.4503e+08,82.07,0,2.0122e+08,683.94,13677,1491.5,0,1491.5,0,0.00065706,1.0371e-07,0,0.00035698,0.00012267,1.7699e+08,22926,0,9.0885e+07,15491,1491.5,1
4990,4.13,12381,1,12381,1,0.0001983,-9.8746e-09,0,0.0005874,-3.5964e-05,-5.8913e+06,-95.663,0,1.5233e+08,5113,12380,15000,1,15000,1,0.0013659,6.2674e-07,0,0.0013659,0.00017014,2.2744e+08,2.1446e+05,0,3.6815e+08,1.0327e+05,14999,12382,1,12382,1,0.00018731,-3.1536e-11,0,0.00056904,-3.387e-05,4.6581e+07,-7.3399,0,1.4538e+08,5.4348,12381,9753,1,9753,1,-0.00090521,-7.6753e-07,0,1.8188e-05,-0.00025419,-3.6815e+08,-1.1776e+05,0,4.4139e+06,-17506,9752,11091,1,11091,1,-0.00040096,-4.6602e-10,0,0.00027135,-0.00014369,-1.6304e+08,-104.63,0,8.161e+07,-3.2307,11090,13678,1,13678,1,0.00077558,4.4029e-10,0,0.00085962,7.5753e-05,1.4538e+08,95.65,0,2.0171e+08,686.91,13677,1491.5,0,1491.5,0,0.00065865,1.0417e-07,0,0.00035784,0.00012297,1.7741e+08,22990,0,9.1105e+07,15532,1491.5,1
4990,4.14,12381,1,12381,1,0.00019879,-9.7106e-09,0,0.00058883,-3.6051e-05,-5.9057e+06,-55.557,0,1.527e+08,5119.5,12380,15000,1,15000,1,0.0013692,6.2885e-07,0,0.0013692,0.00017055,2.2799e+08,2.1518e+05,0,3.6905e+08,1.035e+05,14999,12382,1,12382,1,0.00018776,1.396e-10,0,0.00057043,-3.3953e-05,4.6695e+07,34.033,0,1.4573e+08,0.41853,12381,9753,1,9753,1,-0.00090741,-7.6809e-07,0,1.8233e-05,-0.0002548,-3.6905e+08,-1.1782e+05,0,4.4248e+06,-17613,9752,11091,1,11091,1,-0.00040194,-1.6175e-10,0,0.00027201,-0.00014404,-1.6344e+08,-39.065,0,8.1809e+07,-8.3905,11090,13678,1,13678,1,0.00077747,4.5829e-10,0,0.00086171,7.5937e-05,1.4573e+08,91.481,0,2.022e+08,685.68,13677,1491.5,0,1491.5,0,0.00066025,1.0424e-07,0,0.00035871,0.00012327,1.7784e+08,23039,0,9.1326e+07,15566,1491.5,1
4990,4.15,12381,1,12381,1,0.00019927,-9.804e-09,0,0.00059025,-3.6138e-05,-5.9199e+06,-70.829,0,1.5307e+08,5131.7,12380,15000,1,15000,1,0.0013726,6.305e-07,0,0.0013726,0.00017096,2.2855e+08,2.1575e+05,0,3.6994e+08,1.0374e+05,14999,12382,1,12382,1,0.00018822,4.4298e-13,0,0.0005718,-3.4035e-05,4.6808e+07,0.13402,0,1.4608e+08,-1.6067,12381,9753,1,9753,1,-0.00090959,-7.6965e-07,0,1.8278e-05,-0.00025542,-3.6994e+08,-1.1805e+05,0,4.4358e+06,-17623,9752,11091,1,11091,1,-0.00040291,-4.2747e-10,0,0.00027267,-0.00014438,-1.6383e+08,-91.356,0,8.2007e+07,-10.018,11090,13678,1,13678,1,0.00077935,2.7814e-10,0,0.00086379,7.612e-05,1.4608e+08,57.588,0,2.0268e+08,690.19,13677,1491.5,0,1491.5,0,0.00066185,1.0445e-07,0,0.00035957,0.00012356,1.7827e+08,23093,0,9.1547e+07,15603,1491.5,1
4990,4.16,12381,1,12381,1,0.00019975,-9.7323e-09,0,0.00059167,-3.6226e-05,-5.9342e+06,-50.407,0,1.5344e+08,5143.1,12380,15000,1,15000,1,0.0013759,6.321e-07,0,0.0013759,0.00017137,2.291e+08,2.1629e+05,0,3.7083e+08,1.04e+05,14999,12382,1,12382,1,0.00018867,8.3349e-11,0,0.00057318,-3.4117e-05,4.6921e+07,21.43,0,1.4643e+08,-1.1727,12381,9753,1,9753,1,-0.00091179,-7.7139e-07,0,1.8323e-05,-0.00025603,-3.7083e+08,-1.1831e+05,0,4.4467e+06,-17675,9752,11091,1,11091,1,-0.00040388,-3.2479e-10,0,0.00027332,-0.00014473,-1.6423e+08,-69.009,0,8.2204e+07,-10.554,11090,13678,1,13678,1,0.00078123,5.4007e-10,0,0.00086588,7.6304e-05,1.4643e+08,114.71,0,2.0317e+08,692.47,13677,1491.5,0,1491.5,0,0.00066344,1.0468e-07,0,0.00036044,0.00012386,1.787e+08,23148,0,9.1767e+07,15640,1491.5,1
4990,4.17,12381,1,12381,1,0.00020023,-1.0012e-08,0,0.00059309,-3.6313e-05,-5.9484e+06,-105.85,0,1.5381e+08,5162.6,12380,15000,1,15000,1,0.0013792,6.3275e-07,0,0.0013792,0.00017178,2.2965e+08,2.1652e+05,0,3.7172e+08,1.0428e+05,14999,12382,1,12382,1,0.00018913,-6.2814e-11,0,0.00057455,-3.4199e-05,4.7033e+07,-14.069,0,1.4678e+08,6.0063,12381,9753,1,9753,1,-0.00091397,-7.7506e-07,0,1.8367e-05,-0.00025665,-3.7172e+08,-1.1892e+05,0,4.4576e+06,-17675,9752,11091,1,11091,1,-0.00040485,-5.9856e-10,0,0.00027398,-0.00014508,-1.6462e+08,-135.11,0,8.2401e+07,-3.4923,11090,13678,1,13678,1,0.0007831,4.4639e-10,0,0.00086795,7.6486e-05,1.4678e+08,99.668,0,2.0366e+08,695.84,13677,1491.5,0,1491.5,0,0.00066503,1.0519e-07,0,0.00036131,0.00012416,1.7913e+08,23213,0,9.1987e+07,15683,1491.5,1
4990,4.18,12381,1,12381,1,0.00020071,-9.8126e-09,0,0.00059452,-3.64e-05,-5.9627e+06,-57.541,0,1.5418e+08,5168.9,12380,15000,1,15000,1,0.0013825,6.3504e-07,0,0.0013825,0.0001722,2.302e+08,2.173e+05,0,3.7261e+08,1.0449e+05,14999,12382,1,12382,1,0.00018958,4.0551e-11,0,0.00057594,-3.4281e-05,4.7147e+07,9.7108,0,1.4714e+08,-1.9478,12381,9753,1,9753,1,-0.00091617,-7.7526e-07,0,1.8412e-05,-0.00025726,-3.7261e+08,-1.1891e+05,0,4.4686e+06,-17733,9752,11091,1,11091,1,-0.00040582,-3.1944e-10,0,0.00027464,-0.00014543,-1.6502e+08,-66.715,0,8.26e+07,-9.7524,11090,13678,1,13678,1,0.00078498,3.8665e-10,0,0.00087004,7.667e-05,1.4714e+08,80.65,0,2.0415e+08,695.87,13677,1491.5,0,1491.5,0,0.00066663,1.0521e-07,0,0.00036217,0.00012446,1.7956e+08,23260,0,9.2208e+07,15716,1491.5,1
4990,4.19,12381,1,12381,1,0.00020119,-9.6476e-09,0,0.00059594,-3.6487e-05,-5.977e+06,-16.349,0,1.5455e+08,5177.9,12380,15000,1,15000,1,0.0013858,6.3678e-07,0,0.0013858,0.00017261,2.3075e+08,2.1789e+05,0,3.7351e+08,1.0472e+05,14999,12382,1,12382,1,0.00019004,2.5251e-10,0,0.00057731,-3.4364e-05,4.726e+07,65.424,0,1.4749e+08,1.1917,12381,9753,1,9753,1,-0.00091837,-7.766e-07,0,1.8457e-05,-0.00025788,-3.7351e+08,-1.191e+05,0,4.4795e+06,-17789,9752,11091,1,11091,1,-0.00040679,-3.6799e-11,0,0.0002753,-0.00014578,-1.6541e+08,-9.6944,0,8.2798e+07,-9.444,11090,13678,1,13678,1,0.00078686,4.9586e-10,0,0.00087213,7.6854e-05,1.4749e+08,103.85,0,2.0464e+08,693.13,13677,1491.5,0,1491.5,0,0.00066823,1.0541e-07,0,0.00036304,0.00012475,1.7999e+08,23313,0,9.2429e+07,15753,1491.5,1
4990,4.2,12381,1,12381,1,0.00020167,-9.9346e-09,0,0.00059736,-3.6575e-05,-5.9913e+06,-74.594,0,1.5491e+08,5193,12380,15000,1,15000,1,0.0013891,6.3808e-07,0,0.0013891,0.00017302,2.313e+08,2.1834e+05,0,3.7439e+08,1.0498e+05,14999,12382,1,12382,1,0.00019049,4.4719e-12,0,0.00057869,-3.4446e-05,4.7373e+07,0.99091,0,1.4784e+08,-1.2086,12381,9753,1,9753,1,-0.00092055,-7.7893e-07,0,1.8502e-05,-0.0002585,-3.7439e+08,-1.1947e+05,0,4.4905e+06,-17857,9752,11091,1,11091,1,-0.00040776,-3.8308e-10,0,0.00027596,-0.00014613,-1.6581e+08,-82.239,0,8.2995e+07,-8.6989,11090,13678,1,13678,1,0.00078874,2.8848e-10,0,0.00087421,7.7037e-05,1.4784e+08,57.784,0,2.0513e+08,697.82,13677,1491.5,0,1491.5,0,0.00066982,1.057e-07,0,0.00036391,0.00012505,1.8042e+08,23370,0,9.2649e+07,15790,1491.5,1
4990,4.21,12381,1,12381,1,0.00020215,-9.9007e-09,0,0.00059879,-3.6662e-05,-6.0056e+06,-61.953,0,1.5528e+08,5206,12380,15000,1,15000,1,0.0013924,6.3964e-07,0,0.0013924,0.00017343,2.3185e+08,2.1887e+05,0,3.7529e+08,1.0523e+05,14999,12382,1,12382,1,0.00019094,2.2743e-11,0,0.00058007,-3.4528e-05,4.7486e+07,5.6975,0,1.4819e+08,-0.69511,12381,9753,1,9753,1,-0.00092274,-7.8072e-07,0,1.8547e-05,-0.00025911,-3.7529e+08,-1.1974e+05,0,4.5014e+06,-17889,9752,11091,1,11091,1,-0.00040873,-3.1805e-10,0,0.00027661,-0.00014647,-1.662e+08,-66.494,0,8.3193e+07,-7.8159,11090,13678,1,13678,1,0.00079062,3.3111e-10,0,0.00087629,7.722e-05,1.4819e+08,68.335,0,2.0562e+08,700.82,13677,1491.5,0,1491.5,0,0.00067142,1.0595e-07,0,0.00036478,0.00012535,1.8085e+08,23426,0,9.287e+07,15827,1491.5,1
4990,4.22,12381,1,12381,1,0.00020263,-9.9599e-09,0,0.00060021,-3.6749e-05,-6.0198e+06,-70.075,0,1.5565e+08,5217.3,12380,15000,1,15000,1,0.0013957,6.4111e-07,0,0.0013957,0.00017384,2.324e+08,2.1938e+05,0,3.7618e+08,1.0548e+05,14999,12382,1,12382,1,0.0001914,8.1959e-12,0,0.00058144,-3.461e-05,4.7599e+07,1.9949,0,1.4854e+08,-0.58095,12381,9753,1,9753,1,-0.00092493,-7.8265e-07,0,1.8591e-05,-0.00025973,-3.7618e+08,-1.2004e+05,0,4.5123e+06,-17914,9752,11091,1,11091,1,-0.0004097,-2.6959e-10,0,0.00027727,-0.00014682,-1.666e+08,-55.617,0,8.339e+07,-6.7648,11090,13678,1,13678,1,0.0007925,2.1761e-10,0,0.00087837,7.7403e-05,1.4854e+08,44.35,0,2.061e+08,700.38,13677,1491.5,0,1491.5,0,0.00067301,1.0621e-07,0,0.00036564,0.00012565,1.8128e+08,23481,0,9.309e+07,15865,1491.5,1
4990,4.23,12381,1,12381,1,0.00020312,-1.0015e-08,0,0.00060163,-3.6836e-05,-6.0341e+06,-77.251,0,1.5602e+08,5231.4,12380,15000,1,15000,1,0.001399,6.425e-07,0,0.001399,0.00017426,2.3295e+08,2.1985e+05,0,3.7707e+08,1.0575e+05,14999,12382,1,12382,1,0.00019185,5.2166e-12,0,0.00058282,-3.4692e-05,4.7712e+07,1.2659,0,1.4889e+08,-1.3206,12381,9753,1,9753,1,-0.00092712,-7.848e-07,0,1.8636e-05,-0.00026034,-3.7707e+08,-1.2037e+05,0,4.5233e+06,-17943,9752,11091,1,11091,1,-0.00041067,-3.6216e-10,0,0.00027793,-0.00014717,-1.6699e+08,-76.021,0,8.3588e+07,-9.0222,11090,13678,1,13678,1,0.00079438,2.6777e-10,0,0.00088045,7.7587e-05,1.4889e+08,55.008,0,2.0659e+08,704.35,13677,1491.5,0,1491.5,0,0.00067461,1.0649e-07,0,0.00036651,0.00012594,1.8171e+08,23538,0,9.3311e+07,15906,1491.5,1
4990,4.24,12381,1,12381,1,0.00020359,-9.9993e-09,0,0.00060305,-3.6923e-05,-6.0483e+06,-67.586,0,1.5639e+08,5248.3,12380,15000,1,15000,1,0.0014023,6.4347e-07,0,0.0014023,0.00017467,2.335e+08,2.2018e+05,0,3.7796e+08,1.0603e+05,14999,12382,1,12382,1,0.00019231,8.355e-11,0,0.00058419,-3.4774e-05,4.7824e+07,18.381,0,1.4924e+08,4.1641,12381,9753,1,9753,1,-0.00092931,-7.8782e-07,0,1.8681e-05,-0.00026096,-3.7796e+08,-1.2086e+05,0,4.5342e+06,-17977,9752,11091,1,11091,1,-0.00041164,-2.1616e-10,0,0.00027858,-0.00014752,-1.6738e+08,-48.304,0,8.3785e+07,-3.9388,11090,13678,1,13678,1,0.00079625,5.6414e-10,0,0.00088253,7.7769e-05,1.4924e+08,124.23,0,2.0708e+08,706.36,13677,1491.5,0,1491.5,0,0.0006762,1.0693e-07,0,0.00036737,0.00012624,1.8214e+08,23601,0,9.3531e+07,15946,1491.5,1
4990,4.25,12381,1,12381,1,0.00020408,-1.0027e-08,0,0.00060448,-3.7011e-05,-6.0626e+06,-69.997,0,1.5676e+08,5254.3,12380,15000,1,15000,1,0.0014056,6.4573e-07,0,0.0014056,0.00017508,2.3405e+08,2.2096e+05,0,3.7885e+08,1.0622e+05,14999,12382,1,12382,1,0.00019276,1.4484e-11,0,0.00058558,-3.4856e-05,4.7938e+07,3.6533,0,1.4959e+08,-1.5155,12381,9753,1,9753,1,-0.00093151,-7.8812e-07,0,1.8726e-05,-0.00026157,-3.7885e+08,-1.2087e+05,0,4.5452e+06,-18033,9752,11091,1,11091,1,-0.00041261,-4.4314e-10,0,0.00027924,-0.00014787,-1.6778e+08,-96.399,0,8.3983e+07,-10.513,11090,13678,1,13678,1,0.00079814,3.8752e-10,0,0.00088462,7.7953e-05,1.4959e+08,80.2,0,2.0757e+08,707.66,13677,1491.5,0,1491.5,0,0.0006778,1.0695e-07,0,0.00036824,0.00012654,1.8257e+08,23648,0,9.3752e+07,15977,1491.5,1
4990,4.26,12381,1,12381,1,0.00020456,-9.884e-09,0,0.0006059,-3.7098e-05,-6.0769e+06,-32.853,0,1.5713e+08,5266.5,12380,15000,1,15000,1,0.0014089,6.474e-07,0,0.0014089,0.00017549,2.3461e+08,2.2153e+05,0,3.7974e+08,1.0649e+05,14999,12382,1,12382,1,0.00019322,7.719e-11,0,0.00058696,-3.4939e-05,4.8051e+07,18.913,0,1.4995e+08,-0.70347,12381,9753,1,9753,1,-0.0009337,-7.8965e-07,0,1.8771e-05,-0.00026219,-3.7974e+08,-1.2109e+05,0,4.5561e+06,-18076,9752,11091,1,11091,1,-0.00041358,-1.9708e-10,0,0.0002799,-0.00014821,-1.6817e+08,-40.122,0,8.4181e+07,-8.253,11090,13678,1,13678,1,0.00080002,4.322e-10,0,0.0008867,7.8137e-05,1.4995e+08,94.925,0,2.0806e+08,705.94,13677,1491.5,0,1491.5,0,0.00067939,1.0716e-07,0,0.00036911,0.00012684,1.83e+08,23702,0,9.3973e+07,16017,1491.5,1
4990,4.27,12381,1,12381,1,0.00020504,-1.0137e-08,0,0.00060732,-3.7185e-05,-6.0912e+06,-83.769,0,1.5749e+08,5279.7,12380,15000,1,15000,1,0.0014123,6.4867e-07,0,0.0014123,0.0001759,2.3516e+08,2.2196e+05,0,3.8063e+08,1.0674e+05,14999,12382,1,12382,1,0.00019367,-2.3372e-11,0,0.00058833,-3.5021e-05,4.8164e+07,-6.2479,0,1.503e+08,-1.312,12381,9753,1,9753,1,-0.00093589,-7.9201e-07,0,1.8816e-05,-0.00026281,-3.8063e+08,-1.2147e+05,0,4.5671e+06,-18124,9752,11091,1,11091,1,-0.00041455,-4.0433e-10,0,0.00028056,-0.00014856,-1.6857e+08,-86.315,0,8.4378e+07,-8.4642,11090,13678,1,13678,1,0.00080189,1.5731e-10,0,0.00088878,7.832e-05,1.503e+08,33.737,0,2.0855e+08,710.28,13677,1491.5,0,1491.5,0,0.00068099,1.0747e-07,0,0.00036997,0.00012714,1.8343e+08,23760,0,9.4193e+07,16054,1491.5,1
4990,4.28,12381,1,12381,1,0.00020552,-1.0087e-08,0,0.00060874,-3.7272e-05,-6.1054e+06,-68.129,0,1.5786e+08,5291.3,12380,15000,1,15000,1,0.0014156,6.502e-07,0,0.0014156,0.00017632,2.3571e+08,2.2249e+05,0,3.8152e+08,1.0699e+05,14999,12382,1,12382,1,0.00019413,-4.3106e-12,0,0.00058971,-3.5103e-05,4.8277e+07,-0.99155,0,1.5065e+08,-1.1827,12381,9753,1,9753,1,-0.00093808,-7.9334e-07,0,1.8861e-05,-0.00026342,-3.8152e+08,-1.2168e+05,0,4.5781e+06,-18158,9752,11091,1,11091,1,-0.00041552,-3.1907e-10,0,0.00028122,-0.00014891,-1.6896e+08,-66.029,0,8.4576e+07,-8.3977,11090,13678,1,13678,1,0.00080377,1.9172e-10,0,0.00089087,7.8503e-05,1.5065e+08,40.118,0,2.0904e+08,710.08,13677,1491.5,0,1491.5,0,0.00068258,1.0768e-07,0,0.00037084,0.00012743,1.8385e+08,23811,0,9.4413e+07,16090,1491.5,1
4990,4.29,12381,1,12381,1,0.000206,-1.0096e-08,0,0.00061017,-3.736e-05,-6.1197e+06,-65.21,0,1.5823e+08,5304.8,12380,15000,1,15000,1,0.0014189,6.5173e-07,0,0.0014189,0.00017673,2.3626e+08,2.2301e+05,0,3.8241e+08,1.0727e+05,14999,12382,1,12382,1,0.00019458,1.5784e-11,0,0.00059108,-3.5185e-05,4.839e+07,3.8018,0,1.51e+08,-0.27972,12381,9753,1,9753,1,-0.00094027,-7.9557e-07,0,1.8906e-05,-0.00026404,-3.8241e+08,-1.2203e+05,0,4.5891e+06,-18142,9752,11091,1,11091,1,-0.00041649,-2.079e-10,0,0.00028188,-0.00014926,-1.6936e+08,-45.833,0,8.4774e+07,-7.7406,11090,13678,1,13678,1,0.00080565,2.0586e-10,0,0.00089295,7.8686e-05,1.51e+08,43.866,0,2.0952e+08,710.45,13677,1491.5,0,1491.5,0,0.00068418,1.0796e-07,0,0.00037171,0.00012773,1.8428e+08,23869,0,9.4634e+07,16133,1491.5,1
4990,4.3,12381,1,12381,1,0.00020648,-1.0089e-08,0,0.00061159,-3.7447e-05,-6.134e+06,-57.958,0,1.586e+08,5312.3,12380,15000,1,15000,1,0.0014222,6.5375e-07,0,0.0014222,0.00017714,2.3681e+08,2.237e+05,0,3.8331e+08,1.0748e+05,14999,12382,1,12382,1,0.00019504,-1.0218e-10,0,0.00059246,-3.5268e-05,4.8503e+07,-24.312,0,1.5135e+08,0.85316,12381,9753,1,9753,1,-0.00094247,-7.9653e-07,0,1.8952e-05,-0.00026465,-3.8331e+08,-1.2215e+05,0,4.6004e+06,-18192,9752,11091,1,11091,1,-0.00041746,-3.4513e-10,0,0.00028254,-0.00014961,-1.6975e+08,-67.295,0,8.4972e+07,-10.012,11090,13678,1,13678,1,0.00080753,1.6475e-10,0,0.00089504,7.887e-05,1.5135e+08,41.193,0,2.1001e+08,709.92,13677,1491.5,0,1491.5,0,0.00068578,1.0809e-07,0,0.00037258,0.00012803,1.8471e+08,23922,0,9.4854e+07,16167,1491.5,1
4990,4.31,12381,1,12381,1,0.00020697,-1.0203e-08,0,0.00061301,-3.7535e-05,-6.1483e+06,-78.012,0,1.5897e+08,5329.7,12380,15000,1,15000,1,0.0014255,6.5493e-07,0,0.0014255,0.00017755,2.3736e+08,2.2411e+05,0,3.842e+08,1.0778e+05,14999,12382,1,12382,1,0.00019549,-1.0271e-10,0,0.00059384,-3.535e-05,4.8616e+07,-25.425,0,1.517e+08,-0.48917,12381,9753,1,9753,1,-0.00094465,-7.9932e-07,0,1.8997e-05,-0.00026527,-3.842e+08,-1.226e+05,0,4.6115e+06,-18183,9752,11091,1,11091,1,-0.00041843,-3.3111e-10,0,0.00028319,-0.00014995,-1.7015e+08,-68.208,0,8.517e+07,-7.8523,11090,13678,1,13678,1,0.00080941,1.1127e-10,0,0.00089712,7.9053e-05,1.517e+08,25.774,0,2.1049e+08,714.53,13677,1491.5,0,1491.5,0,0.00068737,1.0846e-07,0,0.00037344,0.00012833,1.8514e+08,23982,0,9.5074e+07,16210,1491.5,1
4990,4.32,12381,1,12381,1,0.00020745,-1.0108e-08,0,0.00061444,-3.7622e-05,-6.1626e+06,-54.935,0,1.5934e+08,5341.1,12380,15000,1,15000,1,0.0014288,6.5623e-07,0,0.0014288,0.00017796,2.3791e+08,2.2455e+05,0,3.8509e+08,1.0809e+05,14999,12382,1,12382,1,0.00019595,1.0626e-10,0,0.00059522,-3.5432e-05,4.873e+07,25.655,0,1.5206e+08,-2.4277,12381,9753,1,9753,1,-0.00094685,-8.0123e-07,0,1.9043e-05,-0.00026589,-3.8509e+08,-1.2293e+05,0,4.6227e+06,-18124,9752,11091,1,11091,1,-0.0004194,-4.6265e-10,0,0.00028385,-0.0001503,-1.7054e+08,-102.1,0,8.5368e+07,-16.206,11090,13678,1,13678,1,0.00081129,7.7362e-10,0,0.0008992,7.9236e-05,1.5206e+08,165.63,0,2.1098e+08,720.97,13677,1491.5,0,1491.5,0,0.00068897,1.0869e-07,0,0.00037431,0.00012863,1.8557e+08,24030,0,9.5295e+07,16250,1491.5,1
4990,4.33,12381,1,12381,1,0.00020793,-1.0208e-08,0,0.00061586,-3.7709e-05,-6.1767e+06,-70.669,0,1.5971e+08,5352.2,12380,15000,1,15000,1,0.0014321,6.5806e-07,0,0.0014321,0.00017837,2.3846e+08,2.2518e+05,0,3.8598e+08,1.0833e+05,14999,12382,1,12382,1,0.0001964,-9.7942e-11,0,0.00059659,-3.5515e-05,4.8843e+07,-24.046,0,1.5241e+08,-0.8151,12381,9753,1,9753,1,-0.00094904,-8.0273e-07,0,1.9089e-05,-0.0002665,-3.8598e+08,-1.2315e+05,0,4.6342e+06,-18134,9752,11091,1,11091,1,-0.00042037,-3.3576e-10,0,0.00028451,-0.00015065,-1.7093e+08,-68.013,0,8.5566e+07,-8.0464,11090,13678,1,13678,1,0.00081317,1.4687e-10,0,0.00090128,7.9419e-05,1.5241e+08,34.92,0,2.1147e+08,715.14,13677,1491.5,0,1491.5,0,0.00069056,1.0889e-07,0,0.00037518,0.00012892,1.86e+08,24086,0,9.5515e+07,16287,1491.5,1
4990,4.34,12381,1,12381,1,0.00020841,-1.0289e-08,0,0.00061728,-3.7797e-05,-6.1908e+06,-84.815,0,1.6007e+08,5367.1,12380,15000,1,15000,1,0.0014354,6.5925e-07,0,0.0014354,0.00017879,2.39e+08,2.2558e+05,0,3.8687e+08,1.0864e+05,14999,12382,1,12382,1,0.00019686,7.9608e-11,0,0.00059797,-3.5597e-05,4.8956e+07,19.839,0,1.5276e+08,-2.8922,12381,9753,1,9753,1,-0.00095123,-8.057e-07,0,1.9135e-05,-0.00026712,-3.8687e+08,-1.2362e+05,0,4.6455e+06,-18158,9752,11091,1,11091,1,-0.00042134,-6.9944e-10,0,0.00028517,-0.000151,-1.7133e+08,-159.79,0,8.5764e+07,-22.434,11090,13678,1,13678,1,0.00081505,8.6e-10,0,0.00090337,7.9602e-05,1.5276e+08,174.32,0,2.1195e+08,722.7,13677,1491.5,0,1491.5,0,0.00069216,1.0927e-07,0,0.00037604,0.00012922,1.8643e+08,24148,0,9.5735e+07,16330,1491.5,1
4990,4.35,12381,1,12381,1,0.0002089,-1.0268e-08,0,0.00061871,-3.7885e-05,-6.205e+06,-74.613,0,1.6044e+08,5378.7,12380,15000,1,15000,1,0.0014387,6.61e-07,0,0.0014387,0.0001792,2.3955e+08,2.2618e+05,0,3.8776e+08,1.0888e+05,14999,12382,1,12382,1,0.00019731,6.0956e-11,0,0.00059934,-3.568e-05,4.907e+07,15.461,0,1.5311e+08,-1.903,12381,9753,1,9753,1,-0.00095342,-8.0723e-07,0,1.9181e-05,-0.00026773,-3.8776e+08,-1.2385e+05,0,4.6569e+06,-18124,9752,11091,1,11091,1,-0.00042231,-3.7816e-10,0,0.00028583,-0.00015135,-1.7172e+08,-83.567,0,8.5962e+07,-15.556,11090,13678,1,13678,1,0.00081694,4.4314e-10,0,0.00090545,7.9785e-05,1.5311e+08,89.024,0,2.1244e+08,721.93,13677,1491.5,0,1491.5,0,0.00069375,1.0948e-07,0,0.00037691,0.00012952,1.8686e+08,24203,0,9.5956e+07,16369,1491.5,1
4990,4.36,12381,1,12381,1,0.00020938,-1.0118e-08,0,0.00062013,-3.7972e-05,-6.2192e+06,-35.189,0,1.6081e+08,5391.3,12380,15000,1,15000,1,0.0014421,6.6292e-07,0,0.0014421,0.00017961,2.401e+08,2.2684e+05,0,3.8865e+08,1.0913e+05,14999,12382,1,12382,1,0.00019777,1.1911e-10,0,0.00060072,-3.5762e-05,4.9183e+07,30.325,0,1.5346e+08,1.205,12381,9753,1,9753,1,-0.00095561,-8.0845e-07,0,1.9227e-05,-0.00026835,-3.8865e+08,-1.2402e+05,0,4.6683e+06,-18150,9752,11091,1,11091,1,-0.00042328,-8.5128e-11,0,0.00028649,-0.0001517,-1.7212e+08,-19.888,0,8.616e+07,-8.1039,11090,13678,1,13678,1,0.00081882,3.3243e-10,0,0.00090754,7.9969e-05,1.5346e+08,73.136,0,2.1293e+08,716.27,13677,1491.5,0,1491.5,0,0.00069535,1.0967e-07,0,0.00037778,0.00012982,1.8729e+08,24259,0,9.6176e+07,16406,1491.5,1
4990,4.37,12381,1,12381,1,0.00020986,-1.0037e-08,0,0.00062156,-3.806e-05,-6.2333e+06,-10.821,0,1.6118e+08,5406.3,12380,15000,1,15000,1,0.0014454,6.6469e-07,0,0.0014454,0.00018002,2.4064e+08,2.2745e+05,0,3.8954e+08,1.0939e+05,14999,12382,1,12382,1,0.00019823,7.3036e-11,0,0.0006021,-3.5845e-05,4.9297e+07,20.029,0,1.5381e+08,-1.8822,12381,9753,1,9753,1,-0.0009578,-8.0996e-07,0,1.9274e-05,-0.00026897,-3.8954e+08,-1.2424e+05,0,4.6797e+06,-18165,9752,11091,1,11091,1,-0.00042425,-4.8797e-10,0,0.00028715,-0.00015205,-1.7251e+08,-96.746,0,8.6358e+07,-16.086,11090,13678,1,13678,1,0.0008207,6.3182e-10,0,0.00090963,8.0152e-05,1.5381e+08,144.06,0,2.1341e+08,727.42,13677,1491.5,0,1491.5,0,0.00069695,1.0986e-07,0,0.00037865,0.00013012,1.8772e+08,24316,0,9.6396e+07,16445,1491.5,1
4990,4.38,12381,1,12381,1,0.00021034,-1.0289e-08,0,0.00062298,-3.8147e-05,-6.2474e+06,-62.412,0,1.6155e+08,5418.5,12380,15000,1,15000,1,0.0014487,6.6582e-07,0,0.0014487,0.00018043,2.4119e+08,2.2783e+05,0,3.9043e+08,1.0966e+05,14999,12382,1,12382,1,0.00019868,-1.3885e-11,0,0.00060347,-3.5927e-05,4.941e+07,-3.7256,0,1.5416e+08,-1.5289,12381,9753,1,9753,1,-0.00095999,-8.1276e-07,0,1.932e-05,-0.00026958,-3.9043e+08,-1.2469e+05,0,4.691e+06,-18165,9752,11091,1,11091,1,-0.00042521,-3.3919e-10,0,0.00028781,-0.00015239,-1.729e+08,-66.79,0,8.6556e+07,-9.1092,11090,13678,1,13678,1,0.00082258,2.4361e-10,0,0.00091171,8.0334e-05,1.5416e+08,53.586,0,2.139e+08,723.92,13677,1491.5,0,1491.5,0,0.00069854,1.1022e-07,0,0.00037951,0.00013041,1.8815e+08,24373,0,9.6616e+07,16486,1491.5,1
4990,4.39,12381,1,12381,1,0.00021083,-1.0287e-08,0,0.0006244,-3.8235e-05,-6.2616e+06,-57.436,0,1.6192e+08,5428.4,12380,15000,1,15000,1,0.001452,6.6744e-07,0,0.001452,0.00018085,2.4173e+08,2.2839e+05,0,3.9133e+08,1.099e+05,14999,12382,1,12382,1,0.00019914,7.087e-11,0,0.00060485,-3.6009e-05,4.9523e+07,17.174,0,1.5452e+08,-0.53579,12381,9753,1,9753,1,-0.00096218,-8.145e-07,0,1.9366e-05,-0.0002702,-3.9133e+08,-1.2495e+05,0,4.7025e+06,-18234,9752,11091,1,11091,1,-0.00042618,-1.8227e-10,0,0.00028847,-0.00015274,-1.733e+08,-41.207,0,8.6754e+07,-8.9938,11090,13678,1,13678,1,0.00082446,2.8705e-10,0,0.00091379,8.0518e-05,1.5452e+08,59.056,0,2.1438e+08,722.49,13677,1491.5,0,1491.5,0,0.00070013,1.1046e-07,0,0.00038038,0.00013071,1.8857e+08,24429,0,9.6837e+07,16522,1491.5,1
4990,4.4,12381,1,12381,1,0.00021131,-1.0355e-08,0,0.00062582,-3.8322e-05,-6.2757e+06,-66.975,0,1.6229e+08,5443.6,12380,15000,1,15000,1,0.0014553,6.6901e-07,0,0.0014553,0.00018126,2.4228e+08,2.2892e+05,0,3.9222e+08,1.1017e+05,14999,12382,1,12382,1,0.00019959,-3.2578e-11,0,0.00060623,-3.6092e-05,4.9636e+07,-7.4932,0,1.5487e+08,-0.94619,12381,9753,1,9753,1,-0.00096437,-8.1641e-07,0,1.9412e-05,-0.00027082,-3.9222e+08,-1.2524e+05,0,4.7139e+06,-18204,9752,11091,1,11091,1,-0.00042715,-3.6743e-10,0,0.00028913,-0.00015309,-1.7369e+08,-73.883,0,8.6952e+07,-8.2506,11090,13678,1,13678,1,0.00082634,1.9934e-10,0,0.00091588,8.0701e-05,1.5487e+08,45.139,0,2.1487e+08,728.12,13677,1491.5,0,1491.5,0,0.00070173,1.1071e-07,0,0.00038125,0.00013101,1.89e+08,24486,0,9.7057e+07,16562,1491.5,1
4990,4.41,12381,1,12381,1,0.00021179,-1.0431e-08,0,0.00062725,-3.841e-05,-6.2898e+06,-78.792,0,1.6265e+08,5457.7,12380,15000,1,15000,1,0.0014586,6.7037e-07,0,0.0014586,0.00018167,2.4283e+08,2.2939e+05,0,3.9311e+08,1.1043e+05,14999,12382,1,12382,1,0.00020005,-3.7405e-11,0,0.0006076,-3.6174e-05,4.975e+07,-9.6762,0,1.5522e+08,-3.3059,12381,9753,1,9753,1,-0.00096656,-8.1873e-07,0,1.9459e-05,-0.00027143,-3.9311e+08,-1.2561e+05,0,4.7253e+06,-18219,9752,11091,1,11091,1,-0.00042812,-6.2008e-10,0,0.00028979,-0.00015344,-1.7409e+08,-126.85,0,8.715e+07,-14.536,11090,13678,1,13678,1,0.00082822,3.5801e-10,0,0.00091796,8.0884e-05,1.5522e+08,76.586,0,2.1535e+08,732.76,13677,1491.5,0,1491.5,0,0.00070332,1.1101e-07,0,0.00038212,0.00013131,1.8943e+08,24544,0,9.7277e+07,16602,1491.5,1
4990,4.42,12381,1,12381,1,0.00021227,-1.039e-08,0,0.00062867,-3.8497e-05,-6.304e+06,-64.998,0,1.6302e+08,5467.7,12380,15000,1,15000,1,0.0014619,6.7203e-07,0,0.0014619,0.00018208,2.4337e+08,2.2996e+05,0,3.94e+08,1.1068e+05,14999,12382,1,12382,1,0.00020051,1.0796e-11,0,0.00060898,-3.6257e-05,4.9863e+07,2.0635,0,1.5557e+08,-2.5366,12381,9753,1,9753,1,-0.00096875,-8.2035e-07,0,1.9505e-05,-0.00027205,-3.94e+08,-1.2585e+05,0,4.7367e+06,-18254,9752,11091,1,11091,1,-0.00042909,-4.0586e-10,0,0.00029045,-0.00015379,-1.7448e+08,-85.725,0,8.7348e+07,-12.11,11090,13678,1,13678,1,0.0008301,3.9311e-10,0,0.00092005,8.1067e-05,1.5557e+08,79.399,0,2.1584e+08,729.67,13677,1491.5,0,1491.5,0,0.00070492,1.1124e-07,0,0.00038298,0.0001316,1.8986e+08,24598,0,9.7497e+07,16638,1491.5,1
4990,4.43,12381,1,12381,1,0.00021276,-1.0276e-08,0,0.0006301,-3.8585e-05,-6.3181e+06,-35.554,0,1.6339e+08,5481.2,12380,15000,1,15000,1,0.0014652,6.7352e-07,0,0.0014652,0.00018249,2.4392e+08,2.3047e+05,0,3.9489e+08,1.1096e+05,14999,12382,1,12382,1,0.00020096,2.1202e-10,0,0.00061036,-3.634e-05,4.9977e+07,53.36,0,1.5592e+08,-2.5221,12381,9753,1,9753,1,-0.00097095,-8.2237e-07,0,1.9551e-05,-0.00027266,-3.9489e+08,-1.2616e+05,0,4.7481e+06,-18263,9752,11091,1,11091,1,-0.00043006,-2.8438e-10,0,0.00029111,-0.00015414,-1.7488e+08,-68.363,0,8.7547e+07,-17.89,11090,13678,1,13678,1,0.00083199,8.3178e-10,0,0.00092214,8.125e-05,1.5592e+08,166.67,0,2.1633e+08,736.01,13677,1491.5,0,1491.5,0,0.00070652,1.1151e-07,0,0.00038385,0.0001319,1.9029e+08,24655,0,9.7718e+07,16681,1491.5,1
4990,4.44,12381,1,12381,1,0.00021324,-1.0428e-08,0,0.00063152,-3.8672e-05,-6.3322e+06,-62.678,0,1.6376e+08,5492.7,12380,15000,1,15000,1,0.0014685,6.7517e-07,0,0.0014685,0.0001829,2.4447e+08,2.3103e+05,0,3.9578e+08,1.112e+05,14999,12382,1,12382,1,0.00020142,-4.0097e-12,0,0.00061173,-3.6422e-05,5.009e+07,-0.97583,0,1.5628e+08,-1.301,12381,9753,1,9753,1,-0.00097313,-8.2405e-07,0,1.9598e-05,-0.00027328,-3.9578e+08,-1.2642e+05,0,4.7596e+06,-18299,9752,11091,1,11091,1,-0.00043103,-2.2511e-10,0,0.00029177,-0.00015448,-1.7527e+08,-45.199,0,8.7744e+07,-8.06,11090,13678,1,13678,1,0.00083387,1.8975e-10,0,0.00092422,8.1433e-05,1.5627e+08,42.543,0,2.1681e+08,730.76,13677,1491.5,0,1491.5,0,0.00070811,1.1174e-07,0,0.00038472,0.0001322,1.9072e+08,24710,0,9.7938e+07,16716,1491.5,1
4990,4.45,12381,1,12381,1,0.00021372,-1.045e-08,0,0.00063294,-3.876e-05,-6.3464e+06,-62.587,0,1.6413e+08,5503.7,12380,15000,1,15000,1,0.0014719,6.7681e-07,0,0.0014719,0.00018332,2.4501e+08,2.3159e+05,0,3.9667e+08,1.1145e+05,14999,12382,1,12382,1,0.00020187,-2.4245e-12,0,0.00061311,-3.6504e-05,5.0204e+07,-0.68105,0,1.5663e+08,-1.5595,12381,9753,1,9753,1,-0.00097532,-8.2574e-07,0,1.9644e-05,-0.0002739,-3.9667e+08,-1.2667e+05,0,4.771e+06,-18343,9752,11091,1,11091,1,-0.000432,-3.0745e-10,0,0.00029243,-0.00015483,-1.7566e+08,-62.657,0,8.7943e+07,-9.8641,11090,13678,1,13678,1,0.00083575,2.1353e-10,0,0.0009263,8.1616e-05,1.5663e+08,44.95,0,2.173e+08,730.57,13677,1491.5,0,1491.5,0,0.00070971,1.1196e-07,0,0.00038559,0.0001325,1.9115e+08,24765,0,9.8158e+07,16752,1491.5,1
4990,4.46,12381,1,12381,1,0.0002142,-1.0502e-08,0,0.00063436,-3.8848e-05,-6.3605e+06,-69.24,0,1.645e+08,5516.4,12380,15000,1,15000,1,0.0014752,6.7827e-07,0,0.0014752,0.00018373,2.4556e+08,2.3209e+05,0,3.9756e+08,1.117e+05,14999,12382,1,12382,1,0.00020233,-5.2797e-12,0,0.00061448,-3.6587e-05,5.0317e+07,-1.1251,0,1.5698e+08,-1.2998,12381,9753,1,9753,1,-0.00097752,-8.2773e-07,0,1.9691e-05,-0.00027451,-3.9756e+08,-1.2698e+05,0,4.7825e+06,-18365,9752,11091,1,11091,1,-0.00043297,-2.7507e-10,0,0.00029309,-0.00015518,-1.7606e+08,-56.838,0,8.8141e+07,-9.0326,11090,13678,1,13678,1,0.00083763,1.9055e-10,0,0.00092839,8.1799e-05,1.5698e+08,40.601,0,2.1778e+08,733.37,13677,1491.5,0,1491.5,0,0.0007113,1.1223e-07,0,0.00038645,0.0001328,1.9158e+08,24821,0,9.8378e+07,16790,1491.5,1
4990,4.47,12381,1,12381,1,0.00021469,-1.0529e-08,0,0.00063579,-3.8935e-05,-6.3747e+06,-70.016,0,1.6486e+08,5530.1,12380,15000,1,15000,1,0.0014785,6.7974e-07,0,0.0014785,0.00018414,2.4611e+08,2.3259e+05,0,3.9845e+08,1.1196e+05,14999,12382,1,12382,1,0.00020279,-1.3611e-12,0,0.00061586,-3.6669e-05,5.043e+07,-0.34315,0,1.5733e+08,-0.36884,12381,9753,1,9753,1,-0.00097971,-8.2977e-07,0,1.9737e-05,-0.00027513,-3.9845e+08,-1.2729e+05,0,4.7939e+06,-18388,9752,11091,1,11091,1,-0.00043394,-2.3833e-10,0,0.00029375,-0.00015553,-1.7645e+08,-51.139,0,8.8339e+07,-8.169,11090,13678,1,13678,1,0.00083951,1.7161e-10,0,0.00093047,8.1982e-05,1.5733e+08,36.118,0,2.1827e+08,736.55,13677,1491.5,0,1491.5,0,0.0007129,1.125e-07,0,0.00038732,0.00013309,1.9201e+08,24878,0,9.8599e+07,16830,1491.5,1
4990,4.48,12381,1,12381,1,0.00021517,-1.0519e-08,0,0.00063721,-3.9023e-05,-6.3888e+06,-62.907,0,1.6523e+08,5542.6,12380,15000,1,15000,1,0.0014818,6.8122e-07,0,0.0014818,0.00018455,2.4665e+08,2.331e+05,0,3.9934e+08,1.1222e+05,14999,12382,1,12382,1,0.00020324,2.1053e-11,0,0.00061724,-3.6752e-05,5.0544e+07,5.3486,0,1.5768e+08,-1.6259,12381,9753,1,9753,1,-0.0009819,-8.3176e-07,0,1.9783e-05,-0.00027574,-3.9934e+08,-1.276e+05,0,4.8054e+06,-18408,9752,11091,1,11091,1,-0.00043491,-2.5938e-10,0,0.00029441,-0.00015588,-1.7685e+08,-54.563,0,8.8537e+07,-10.156,11090,13678,1,13678,1,0.00084139,3.177e-10,0,0.00093256,8.2165e-05,1.5768e+08,67.414,0,2.1876e+08,736.72,13677,1491.5,0,1491.5,0,0.00071449,1.1277e-07,0,0.00038819,0.00013339,1.9244e+08,24934,0,9.8819e+07,16869,1491.5,1
4990,4.49,12381,1,12381,1,0.00021565,-1.0544e-08,0,0.00063863,-3.911e-05,-6.4029e+06,-62.75,0,1.656e+08,5555.4,12380,15000,1,15000,1,0.0014851,6.8275e-07,0,0.0014851,0.00018496,2.472e+08,2.3362e+05,0,4.0023e+08,1.1246e+05,14999,12382,1,12382,1,0.0002037,-1.0451e-12,0,0.00061861,-3.6834e-05,5.0657e+07,-0.25358,0,1.5803e+08,-0.65454,12381,9753,1,9753,1,-0.00098409,-8.3361e-07,0,1.983e-05,-0.00027636,-4.0023e+08,-1.2788e+05,0,4.8168e+06,-18452,9752,11091,1,11091,1,-0.00043587,-1.9286e-10,0,0.00029507,-0.00015623,-1.7724e+08,-38.57,0,8.8735e+07,-7.7729,11090,13678,1,13678,1,0.00084327,2.082e-10,0,0.00093464,8.2348e-05,1.5803e+08,48.008,0,2.1924e+08,739.99,13677,1491.5,0,1491.5,0,0.00071609,1.1302e-07,0,0.00038906,0.00013369,1.9286e+08,24989,0,9.9039e+07,16906,1491.5,1
4990,4.5,12381,1,12381,1,0.00021614,-1.0586e-08,0,0.00064006,-3.9198e-05,-6.4171e+06,-67.058,0,1.6597e+08,5567.9,12380,15000,1,15000,1,0.0014884,6.8433e-07,0,0.0014884,0.00018537,2.4774e+08,2.3417e+05,0,4.0113e+08,1.1272e+05,14999,12382,1,12382,1,0.00020416,-2.98e-11,0,0.00061999,-3.6917e-05,5.0771e+07,-6.65,0,1.5839e+08,-1.2986,12381,9753,1,9753,1,-0.00098628,-8.3539e-07,0,1.9876e-05,-0.00027698,-4.0113e+08,-1.2815e+05,0,4.8283e+06,-18467,9752,11091,1,11091,1,-0.00043684,-3.5805e-10,0,0.00029573,-0.00015658,-1.7763e+08,-71.123,0,8.8933e+07,-8.9874,11090,13678,1,13678,1,0.00084515,2.2531e-10,0,0.00093673,8.2532e-05,1.5838e+08,49.985,0,2.1973e+08,742.12,13677,1491.5,0,1491.5,0,0.00071769,1.1325e-07,0,0.00038992,0.00013399,1.9329e+08,25045,0,9.9259e+07,16944,1491.5,1
4990,4.51,12381,1,12381,1,0.00021662,-1.0584e-08,0,0.00064148,-3.9285e-05,-6.4312e+06,-61.431,0,1.6634e+08,5579.9,12380,15000,1,15000,1,0.0014917,6.8598e-07,0,0.0014917,0.00018579,2.4829e+08,2.3473e+05,0,4.0202e+08,1.1298e+05,14999,12382,1,12382,1,0.00020461,-6.0365e-11,0,0.00062136,-3.6999e-05,5.0884e+07,-14.067,0,1.5874e+08,-2.845,12381,9753,1,9753,1,-0.00098847,-8.3703e-07,0,1.9923e-05,-0.00027759,-4.0202e+08,-1.284e+05,0,4.8398e+06,-18498,9752,11091,1,11091,1,-0.00043781,-5.464e-10,0,0.00029639,-0.00015692,-1.7803e+08,-110.48,0,8.9131e+07,-13.131,11090,13678,1,13678,1,0.00084704,3.1461e-10,0,0.00093881,8.2715e-05,1.5874e+08,70.188,0,2.2021e+08,744.35,13677,1491.5,0,1491.5,0,0.00071928,1.1347e-07,0,0.00039079,0.00013429,1.9372e+08,25100,0,9.948e+07,16983,1491.5,1
4990,4.52,12381,1,12381,1,0.0002171,-1.0614e-08,0,0.00064291,-3.9373e-05,-6.4453e+06,-63.372,0,1.6671e+08,5592.1,12380,15000,1,15000,1,0.001495,6.8742e-07,0,0.001495,0.0001862,2.4884e+08,2.3522e+05,0,4.0291e+08,1.1324e+05,14999,12382,1,12382,1,0.00020507,1.5729e-11,0,0.00062274,-3.7082e-05,5.0997e+07,3.9887,0,1.5909e+08,-1.3963,12381,9753,1,9753,1,-0.00099066,-8.3912e-07,0,1.9969e-05,-0.00027821,-4.0291e+08,-1.2872e+05,0,4.8512e+06,-18536,9752,11091,1,11091,1,-0.00043878,-2.9021e-10,0,0.00029705,-0.00015727,-1.7842e+08,-60.112,0,8.9329e+07,-9.3491,11090,13678,1,13678,1,0.00084892,2.7202e-10,0,0.0009409,8.2898e-05,1.5909e+08,57.274,0,2.207e+08,744.2,13677,1491.5,0,1491.5,0,0.00072088,1.1376e-07,0,0.00039166,0.00013458,1.9415e+08,25156,0,9.97e+07,17020,1491.5,1
4990,4.53,12381,1,12381,1,0.00021758,-1.066e-08,0,0.00064433,-3.9461e-05,-6.4594e+06,-68.649,0,1.6707e+08,5605,12380,15000,1,15000,1,0.0014983,6.8886e-07,0,0.0014983,0.00018661,2.4938e+08,2.3572e+05,0,4.038e+08,1.1349e+05,14999,12382,1,12382,1,0.00020552,1.1224e-11,0,0.00062412,-3.7164e-05,5.1111e+07,2.7026,0,1.5944e+08,-1.5213,12381,9753,1,9753,1,-0.00099285,-8.4114e-07,0,2.0016e-05,-0.00027883,-4.038e+08,-1.2904e+05,0,4.8627e+06,-18558,9752,11091,1,11091,1,-0.00043975,-2.7345e-10,0,0.00029771,-0.00015762,-1.7882e+08,-56.492,0,8.9527e+07,-9.3037,11090,13678,1,13678,1,0.0008508,2.6679e-10,0,0.00094298,8.3081e-05,1.5944e+08,55.991,0,2.2118e+08,745.39,13677,1491.5,0,1491.5,0,0.00072247,1.1403e-07,0,0.00039253,0.00013488,1.9458e+08,25212,0,9.992e+07,17059,1491.5,1
4990,4.54,12381,1,12381,1,0.00021807,-1.0628e-08,0,0.00064575,-3.9548e-05,-6.4736e+06,-56.042,0,1.6744e+08,5615,12380,15000,1,15000,1,0.0015017,6.9062e-07,0,0.0015017,0.00018702,2.4993e+08,2.3632e+05,0,4.0469e+08,1.1373e+05,14999,12382,1,12382,1,0.00020598,4.9257e-12,0,0.00062549,-3.7247e-05,5.1224e+07,1.5051,0,1.5979e+08,-0.79161,12381,9753,1,9753,1,-0.00099504,-8.4254e-07,0,2.0062e-05,-0.00027944,-4.0469e+08,-1.2924e+05,0,4.8742e+06,-18595,9752,11091,1,11091,1,-0.00044072,-2.4014e-10,0,0.00029837,-0.00015797,-1.7921e+08,-49.034,0,8.9725e+07,-11.838,11090,13678,1,13678,1,0.00085268,2.314e-10,0,0.00094507,8.3264e-05,1.5979e+08,52.059,0,2.2167e+08,744.73,13677,1491.5,0,1491.5,0,0.00072407,1.1422e-07,0,0.00039339,0.00013518,1.9501e+08,25266,0,1.0014e+08,17095,1491.5,1
4990,4.55,12381,1,12381,1,0.00021855,-1.0675e-08,0,0.00064718,-3.9636e-05,-6.4877e+06,-61.682,0,1.6781e+08,5629.8,12380,15000,1,15000,1,0.001505,6.9196e-07,0,0.001505,0.00018743,2.5047e+08,2.3678e+05,0,4.0558e+08,1.14e+05,14999,12382,1,12382,1,0.00020644,3.3945e-11,0,0.00062687,-3.7329e-05,5.1338e+07,8.54,0,1.6014e+08,-1.4221,12381,9753,1,9753,1,-0.00099723,-8.4485e-07,0,2.0109e-05,-0.00028006,-4.0558e+08,-1.296e+05,0,4.8857e+06,-18634,9752,11091,1,11091,1,-0.00044169,-2.5281e-10,0,0.00029903,-0.00015832,-1.796e+08,-51.246,0,8.9923e+07,-9.6452,11090,13678,1,13678,1,0.00085456,2.9355e-10,0,0.00094715,8.3447e-05,1.6014e+08,62.006,0,2.2216e+08,749.59,13677,1491.5,0,1491.5,0,0.00072566,1.1453e-07,0,0.00039426,0.00013548,1.9544e+08,25324,0,1.0036e+08,17135,1491.5,1
4990,4.56,12381,1,12381,1,0.00021903,-1.0781e-08,0,0.0006486,-3.9723e-05,-6.5018e+06,-79.445,0,1.6818e+08,5642.1,12380,15000,1,15000,1,0.0015083,6.9361e-07,0,0.0015083,0.00018784,2.5102e+08,2.3734e+05,0,4.0647e+08,1.1425e+05,14999,12382,1,12382,1,0.00020689,-1.5171e-10,0,0.00062824,-3.7412e-05,5.1451e+07,-37.266,0,1.6049e+08,-1.0519,12381,9753,1,9753,1,-0.00099942,-8.4646e-07,0,2.0155e-05,-0.00028067,-4.0647e+08,-1.2984e+05,0,4.8972e+06,-18669,9752,11091,1,11091,1,-0.00044266,-4.9168e-10,0,0.00029969,-0.00015867,-1.8e+08,-97.665,0,9.0122e+07,-9.3242,11090,13678,1,13678,1,0.00085644,1.2451e-10,0,0.00094924,8.363e-05,1.6049e+08,30.135,0,2.2264e+08,750.2,13677,1491.5,0,1491.5,0,0.00072726,1.1474e-07,0,0.00039513,0.00013577,1.9587e+08,25378,0,1.0058e+08,17172,1491.5,1
4990,4.57,12381,1,12381,1,0.00021952,-1.0599e-08,0,0.00065003,-3.9811e-05,-6.516e+06,-34.534,0,1.6855e+08,5650.3,12380,15000,1,15000,1,0.0015116,6.9586e-07,0,0.0015116,0.00018826,2.5156e+08,2.3811e+05,0,4.0736e+08,1.1448e+05,14999,12382,1,12382,1,0.00020735,-8.9538e-11,0,0.00062962,-3.7495e-05,5.1565e+07,-21.168,0,1.6085e+08,-1.4886,12381,9753,1,9753,1,-0.0010016,-8.4685e-07,0,2.0202e-05,-0.00028129,-4.0736e+08,-1.2987e+05,0,4.9088e+06,-18696,9752,11091,1,11091,1,-0.00044363,-4.6281e-10,0,0.00030035,-0.00015902,-1.8039e+08,-92.109,0,9.032e+07,-13.296,11090,13678,1,13678,1,0.00085833,3.4618e-10,0,0.00095133,8.3813e-05,1.6085e+08,79.615,0,2.2313e+08,752.08,13677,1491.5,0,1491.5,0,0.00072886,1.1481e-07,0,0.000396,0.00013607,1.963e+08,25431,0,1.008e+08,17209,1491.5,1
4990,4.58,12381,1,12381,1,0.00022,-1.0805e-08,0,0.00065145,-3.9898e-05,-6.5301e+06,-74.873,0,1.6892e+08,5667,12380,15000,1,15000,1,0.0015149,6.9662e-07,0,0.0015149,0.00018867,2.5211e+08,2.3837e+05,0,4.0825e+08,1.1476e+05,14999,12382,1,12382,1,0.00020781,-6.6885e-11,0,0.000631,-3.7577e-05,5.1678e+07,-15.997,0,1.612e+08,-1.6749,12381,9753,1,9753,1,-0.0010038,-8.5029e-07,0,2.0249e-05,-0.00028191,-4.0825e+08,-1.3043e+05,0,4.9202e+06,-18726,9752,11091,1,11091,1,-0.00044459,-4.1347e-10,0,0.00030101,-0.00015936,-1.8079e+08,-82.422,0,9.0518e+07,-9.0383,11090,13678,1,13678,1,0.00086021,1.6177e-10,0,0.00095341,8.3996e-05,1.612e+08,36.794,0,2.2361e+08,753.83,13677,1491.5,0,1491.5,0,0.00073045,1.1526e-07,0,0.00039686,0.00013637,1.9673e+08,25490,0,1.0102e+08,17248,1491.5,1
4990,4.59,12381,1,12381,1,0.00022048,-1.0658e-08,0,0.00065287,-3.9986e-05,-6.5442e+06,-37.496,0,1.6929e+08,5670.6,12380,15000,1,15000,1,0.0015182,6.9888e-07,0,0.0015182,0.00018908,2.5266e+08,2.3914e+05,0,4.0915e+08,1.1499e+05,14999,12382,1,12382,1,0.00020826,-8.5753e-11,0,0.00063238,-3.766e-05,5.1792e+07,-20.707,0,1.6155e+08,-1.2477,12381,9753,1,9753,1,-0.001006,-8.5066e-07,0,2.0295e-05,-0.00028252,-4.0915e+08,-1.3045e+05,0,4.9318e+06,-18747,9752,11091,1,11091,1,-0.00044557,-4.1347e-10,0,0.00030167,-0.00015971,-1.8118e+08,-79.823,0,9.0717e+07,-15.182,11090,13678,1,13678,1,0.00086209,3.3103e-10,0,0.0009555,8.418e-05,1.6155e+08,78.691,0,2.241e+08,754.45,13677,1491.5,0,1491.5,0,0.00073205,1.1532e-07,0,0.00039773,0.00013667,1.9716e+08,25542,0,1.0124e+08,17279,1491.5,1
4990,4.6,12381,1,12381,1,0.00022097,-1.0822e-08,0,0.00065429,-4.0074e-05,-6.5583e+06,-68.901,0,1.6965e+08,5690.9,12380,15000,1,15000,1,0.0015215,6.9976e-07,0,0.0015215,0.00018949,2.532e+08,2.3945e+05,0,4.1003e+08,1.1525e+05,14999,12382,1,12382,1,0.00020872,-6.7468e-12,0,0.00063375,-3.7742e-05,5.1905e+07,-1.9778,0,1.619e+08,-2.4815,12381,9753,1,9753,1,-0.0010082,-8.5386e-07,0,2.0342e-05,-0.00028314,-4.1003e+08,-1.3097e+05,0,4.9432e+06,-18786,9752,11091,1,11091,1,-0.00044653,-4.5102e-10,0,0.00030233,-0.00016006,-1.8157e+08,-94.66,0,9.0914e+07,-11.99,11090,13678,1,13678,1,0.00086397,3.0314e-10,0,0.00095758,8.4362e-05,1.619e+08,63.585,0,2.2458e+08,757.12,13677,1491.5,0,1491.5,0,0.00073364,1.1574e-07,0,0.0003986,0.00013697,1.9758e+08,25601,0,1.0146e+08,17322,1491.5,1
4990,4.61,12381,1,12381,1,0.00022145,-1.0736e-08,0,0.00065572,-4.0161e-05,-6.5725e+06,-44.606,0,1.7002e+08,5702.1,12380,15000,1,15000,1,0.0015248,7.0147e-07,0,0.0015248,0.0001899,2.5375e+08,2.4003e+05,0,4.1093e+08,1.1551e+05,14999,12382,1,12382,1,0.00020918,1.5572e-11,0,0.00063513,-3.7825e-05,5.2019e+07,4.3725,0,1.6225e+08,-2.0432,12381,9753,1,9753,1,-0.0010104,-8.5533e-07,0,2.0389e-05,-0.00028376,-4.1093e+08,-1.3119e+05,0,4.9548e+06,-18826,9752,11091,1,11091,1,-0.0004475,-3.4893e-10,0,0.00030299,-0.00016041,-1.8197e+08,-71.756,0,9.1113e+07,-11.336,11090,13678,1,13678,1,0.00086585,4.0973e-10,0,0.00095967,8.4545e-05,1.6225e+08,89.812,0,2.2507e+08,758.22,13677,1491.5,0,1491.5,0,0.00073524,1.1594e-07,0,0.00039947,0.00013726,1.9801e+08,25655,0,1.0168e+08,17362,1491.5,1
4990,4.62,12381,1,12381,1,0.00022193,-1.0893e-08,0,0.00065714,-4.0249e-05,-6.5866e+06,-73.909,0,1.7039e+08,5716,12380,15000,1,15000,1,0.0015282,7.0279e-07,0,0.0015282,0.00019031,2.5429e+08,2.4048e+05,0,4.1182e+08,1.1575e+05,14999,12382,1,12382,1,0.00020963,-1.2654e-10,0,0.0006365,-3.7907e-05,5.2132e+07,-31.018,0,1.626e+08,-0.88896,12381,9753,1,9753,1,-0.0010126,-8.5757e-07,0,2.0435e-05,-0.00028437,-4.1182e+08,-1.3154e+05,0,4.9663e+06,-18860,9752,11091,1,11091,1,-0.00044847,-4.6507e-10,0,0.00030365,-0.00016076,-1.8236e+08,-92.473,0,9.131e+07,-8.8847,11090,13678,1,13678,1,0.00086773,1.6494e-10,0,0.00096175,8.4728e-05,1.626e+08,40.195,0,2.2556e+08,759.92,13677,1491.5,0,1491.5,0,0.00073683,1.1624e-07,0,0.00040033,0.00013756,1.9844e+08,25711,0,1.019e+08,17399,1491.5,1
4990,4.63,12381,1,12381,1,0.00022241,-1.0932e-08,0,0.00065856,-4.0336e-05,-6.6007e+06,-77.737,0,1.7076e+08,5728.3,12380,15000,1,15000,1,0.0015315,7.0419e-07,0,0.0015315,0.00019073,2.5484e+08,2.4096e+05,0,4.1271e+08,1.16e+05,14999,12382,1,12382,1,0.00021009,-4.6579e-11,0,0.00063788,-3.799e-05,5.2246e+07,-10.514,0,1.6296e+08,0.84133,12381,9753,1,9753,1,-0.0010148,-8.5972e-07,0,2.0482e-05,-0.00028499,-4.1271e+08,-1.3187e+05,0,4.9778e+06,-18899,9752,11091,1,11091,1,-0.00044944,-2.0265e-10,0,0.00030431,-0.00016111,-1.8276e+08,-47.637,0,9.1508e+07,-8.6613,11090,13678,1,13678,1,0.00086961,9.4664e-11,0,0.00096383,8.4911e-05,1.6296e+08,22.778,0,2.2604e+08,761.23,13677,1491.5,0,1491.5,0,0.00073843,1.1653e-07,0,0.0004012,0.00013786,1.9887e+08,25768,0,1.0212e+08,17437,1491.5,1
4990,4.64,12381,1,12381,1,0.0002229,-1.0925e-08,0,0.00065999,-4.0424e-05,-6.6148e+06,-71.479,0,1.7113e+08,5741.1,12380,15000,1,15000,1,0.0015348,7.0562e-07,0,0.0015348,0.00019114,2.5538e+08,2.4145e+05,0,4.136e+08,1.1627e+05,14999,12382,1,12382,1,0.00021054,1.683e-11,0,0.00063925,-3.8072e-05,5.2359e+07,4.2465,0,1.6331e+08,-1.5109,12381,9753,1,9753,1,-0.0010169,-8.6178e-07,0,2.0528e-05,-0.0002856,-4.136e+08,-1.322e+05,0,4.9893e+06,-18919,9752,11091,1,11091,1,-0.00045041,-2.8026e-10,0,0.00030497,-0.00016146,-1.8315e+08,-59.22,0,9.1706e+07,-10.79,11090,13678,1,13678,1,0.00087149,2.5006e-10,0,0.00096592,8.5094e-05,1.6331e+08,52.863,0,2.2653e+08,763.79,13677,1491.5,0,1491.5,0,0.00074002,1.1681e-07,0,0.00040207,0.00013816,1.993e+08,25824,0,1.0234e+08,17476,1491.5,1
4990,4.65,12381,1,12381,1,0.00022338,-1.079e-08,0,0.00066142,-4.0512e-05,-6.629e+06,-36.211,0,1.715e+08,5748,12380,15000,1,15000,1,0.0015381,7.0803e-07,0,0.0015381,0.00019155,2.5593e+08,2.4227e+05,0,4.1449e+08,1.165e+05,14999,12382,1,12382,1,0.000211,-5.8643e-11,0,0.00064063,-3.8155e-05,5.2473e+07,-14.05,0,1.6366e+08,-2.9509,12381,9753,1,9753,1,-0.0010191,-8.6182e-07,0,2.0575e-05,-0.00028622,-4.1449e+08,-1.3216e+05,0,5.001e+06,-18971,9752,11091,1,11091,1,-0.00045138,-6.6532e-10,0,0.00030563,-0.00016181,-1.8354e+08,-132.71,0,9.1906e+07,-15.539,11090,13678,1,13678,1,0.00087338,4.5995e-10,0,0.00096801,8.5278e-05,1.6366e+08,110.13,0,2.2701e+08,768.9,13677,1491.5,0,1491.5,0,0.00074163,1.1681e-07,0,0.00040294,0.00013846,1.9973e+08,25875,0,1.0256e+08,17512,1491.5,1
4990,4.66,12381,1,12381,1,0.00022386,-1.0961e-08,0,0.00066283,-4.0599e-05,-6.643e+06,-69.082,0,1.7186e+08,5766.3,12380,15000,1,15000,1,0.0015414,7.087e-07,0,0.0015414,0.00019196,2.5648e+08,2.4251e+05,0,4.1538e+08,1.1677e+05,14999,12382,1,12382,1,0.00021146,7.8509e-12,0,0.000642,-3.8237e-05,5.2586e+07,2.088,0,1.6401e+08,-1.1324,12381,9753,1,9753,1,-0.0010213,-8.6546e-07,0,2.0622e-05,-0.00028684,-4.1538e+08,-1.3276e+05,0,5.0124e+06,-18980,9752,11091,1,11091,1,-0.00045235,-2.5468e-10,0,0.00030629,-0.00016215,-1.8394e+08,-53.365,0,9.2103e+07,-9.6614,11090,13678,1,13678,1,0.00087526,2.4103e-10,0,0.00097009,8.546e-05,1.6401e+08,51.958,0,2.275e+08,767.35,13677,1491.5,0,1491.5,0,0.00074322,1.173e-07,0,0.0004038,0.00013875,2.0016e+08,25935,0,1.0278e+08,17551,1491.5,1
4990,4.67,12381,1,12381,1,0.00022435,-1.0981e-08,0,0.00066426,-4.0687e-05,-6.6571e+06,-68.8,0,1.7223e+08,5777.3,12380,15000,1,15000,1,0.0015447,7.1031e-07,0,0.0015447,0.00019237,2.5702e+08,2.4305e+05,0,4.1627e+08,1.1702e+05,14999,12382,1,12382,1,0.00021191,2.0337e-11,0,0.00064338,-3.832e-05,5.27e+07,4.9851,0,1.6436e+08,-1.5091,12381,9753,1,9753,1,-0.0010235,-8.6714e-07,0,2.0669e-05,-0.00028745,-4.1627e+08,-1.3301e+05,0,5.024e+06,-19038,9752,11091,1,11091,1,-0.00045331,-3.0368e-10,0,0.00030695,-0.0001625,-1.8433e+08,-64.045,0,9.2301e+07,-10.721,11090,13678,1,13678,1,0.00087714,2.8475e-10,0,0.00097217,8.5643e-05,1.6436e+08,60.125,0,2.2798e+08,767.46,13677,1491.5,0,1491.5,0,0.00074481,1.1753e-07,0,0.00040467,0.00013905,2.0059e+08,25990,0,1.03e+08,17588,1491.5,1
4990,4.68,12381,1,12381,1,0.00022483,-1.1047e-08,0,0.00066568,-4.0774e-05,-6.6713e+06,-77.91,0,1.726e+08,5791,12380,15000,1,15000,1,0.001548,7.1172e-07,0,0.001548,0.00019278,2.5757e+08,2.4354e+05,0,4.1716e+08,1.1727e+05,14999,12382,1,12382,1,0.00021237,-4.7055e-11,0,0.00064475,-3.8402e-05,5.2813e+07,-11.211,0,1.6471e+08,-0.14579,12381,9753,1,9753,1,-0.0010257,-8.6921e-07,0,2.0715e-05,-0.00028807,-4.1716e+08,-1.3333e+05,0,5.0356e+06,-19065,9752,11091,1,11091,1,-0.00045428,-2.1615e-10,0,0.00030761,-0.00016285,-1.8472e+08,-45.944,0,9.2499e+07,-7.9428,11090,13678,1,13678,1,0.00087902,1.3178e-10,0,0.00097426,8.5826e-05,1.6471e+08,31.004,0,2.2847e+08,768.79,13677,1491.5,0,1491.5,0,0.00074641,1.1781e-07,0,0.00040554,0.00013935,2.0101e+08,26046,0,1.0322e+08,17626,1491.5,1
4990,4.69,12381,1,12381,1,0.00022531,-1.1074e-08,0,0.0006671,-4.0862e-05,-6.6854e+06,-78.924,0,1.7297e+08,5803.7,12380,15000,1,15000,1,0.0015513,7.1334e-07,0,0.0015513,0.0001932,2.5811e+08,2.4409e+05,0,4.1805e+08,1.1753e+05,14999,12382,1,12382,1,0.00021283,-7.1204e-11,0,0.00064613,-3.8485e-05,5.2927e+07,-17.07,0,1.6507e+08,-1.3218,12381,9753,1,9753,1,-0.0010279,-8.7092e-07,0,2.0762e-05,-0.00028868,-4.1805e+08,-1.3359e+05,0,5.0471e+06,-19082,9752,11091,1,11091,1,-0.00045525,-3.821e-10,0,0.00030827,-0.0001632,-1.8512e+08,-76.11,0,9.2697e+07,-8.8743,11090,13678,1,13678,1,0.0008809,1.6444e-10,0,0.00097634,8.6009e-05,1.6507e+08,37.342,0,2.2895e+08,772.16,13677,1491.5,0,1491.5,0,0.000748,1.1804e-07,0,0.00040641,0.00013965,2.0144e+08,26101,0,1.0344e+08,17664,1491.5,1
4990,4.7,12381,1,12381,1,0.00022579,-1.1631e-08,0,0.00066853,-4.095e-05,-6.6994e+06,-196.9,0,1.7334e+08,5818.2,12380,15000,1,15000,1,0.0015547,7.1407e-07,0,0.0015547,0.00019361,2.5866e+08,2.4434e+05,0,4.1894e+08,1.1774e+05,14999,12382,1,12382,1,0.00021328,-4.0524e-10,0,0.0006475,-3.8567e-05,5.304e+07,-86.058,0,1.6542e+08,11.914,12381,9753,1,9753,1,-0.0010301,-8.7428e-07,0,2.0809e-05,-0.0002893,-4.1894e+08,-1.3414e+05,0,5.0587e+06,-19098,9752,11091,1,11091,1,-0.00045622,-1.1943e-09,0,0.00030892,-0.00016355,-1.8551e+08,-274.49,0,9.2895e+07,-6.1968,11090,13678,1,13678,1,0.00088278,4.6434e-11,0,0.00097842,8.6192e-05,1.6542e+08,10.99,0,2.2944e+08,772.35,13677,1491.5,0,1491.5,0,0.0007496,1.185e-07,0,0.00040727,0.00013994,2.0187e+08,26163,0,1.0366e+08,17698,1491.5,1
4990,4.71,12381,1,12381,1,0.00022628,-1.1282e-08,0,0.00066995,-4.1037e-05,-6.7135e+06,-114.54,0,1.737e+08,5833.3,12380,15000,1,15000,1,0.001558,7.1551e-07,0,0.001558,0.00019402,2.592e+08,2.4483e+05,0,4.1983e+08,1.1804e+05,14999,12382,1,12382,1,0.00021374,-1.401e-11,0,0.00064888,-3.865e-05,5.3153e+07,-3.7436,0,1.6577e+08,5.6771,12381,9753,1,9753,1,-0.0010323,-8.7641e-07,0,2.0856e-05,-0.00028992,-4.1983e+08,-1.3447e+05,0,5.0702e+06,-19139,9752,11091,1,11091,1,-0.00045718,-4.8206e-10,0,0.00030958,-0.00016389,-1.859e+08,-102.05,0,9.3093e+07,-3.5701,11090,13678,1,13678,1,0.00088466,3.2352e-10,0,0.0009805,8.6375e-05,1.6577e+08,68.626,0,2.2992e+08,775.57,13677,1491.5,0,1491.5,0,0.00075119,1.1879e-07,0,0.00040814,0.00014024,2.023e+08,26218,0,1.0388e+08,17739,1491.5,1
4990,4.72,12381,1,12381,1,0.00022676,-1.1131e-08,0,0.00067138,-4.1125e-05,-6.7277e+06,-76.488,0,1.7407e+08,5840.9,12380,15000,1,15000,1,0.0015613,7.1791e-07,0,0.0015613,0.00019443,2.5975e+08,2.4566e+05,0,4.2072e+08,1.1828e+05,14999,12382,1,12382,1,0.0002142,-3.0327e-11,0,0.00065026,-3.8733e-05,5.3267e+07,-8.0035,0,1.6612e+08,-2.5468,12381,9753,1,9753,1,-0.0010345,-8.7646e-07,0,2.0902e-05,-0.00029053,-4.2072e+08,-1.3444e+05,0,5.0818e+06,-19179,9752,11091,1,11091,1,-0.00045816,-5.0004e-10,0,0.00031025,-0.00016424,-1.863e+08,-101.69,0,9.3292e+07,-11.905,11090,13678,1,13678,1,0.00088655,2.7376e-10,0,0.0009826,8.6558e-05,1.6612e+08,59.062,0,2.3041e+08,776.97,13677,1491.5,0,1491.5,0,0.00075279,1.1879e-07,0,0.00040901,0.00014054,2.0273e+08,26267,0,1.041e+08,17777,1491.5,1
4990,4.73,12381,1,12381,1,0.00022724,-1.1386e-08,0,0.0006728,-4.1213e-05,-6.7418e+06,-127.75,0,1.7444e+08,5855.4,12380,15000,1,15000,1,0.0015646,7.1907e-07,0,0.0015646,0.00019484,2.6029e+08,2.4605e+05,0,4.2161e+08,1.1853e+05,14999,12382,1,12382,1,0.00021465,-2.5597e-10,0,0.00065163,-3.8815e-05,5.338e+07,-63.475,0,1.6647e+08,-0.69296,12381,9753,1,9753,1,-0.0010367,-8.7913e-07,0,2.0949e-05,-0.00029115,-4.2161e+08,-1.3486e+05,0,5.0934e+06,-19219,9752,11091,1,11091,1,-0.00045912,-4.9218e-10,0,0.0003109,-0.00016459,-1.8669e+08,-99.983,0,9.3489e+07,-7.0307,11090,13678,1,13678,1,0.00088843,-2.2342e-12,0,0.00098468,8.6741e-05,1.6647e+08,-0.75794,0,2.3089e+08,778.5,13677,1491.5,0,1491.5,0,0.00075438,1.1914e-07,0,0.00040988,0.00014084,2.0316e+08,26325,0,1.0432e+08,17815,1491.5,1
4990,4.74,12381,1,12381,1,0.00022773,-1.0969e-08,0,0.00067423,-4.13e-05,-6.756e+06,-30.879,0,1.7481e+08,5862.6,12380,15000,1,15000,1,0.0015679,7.213e-07,0,0.0015679,0.00019526,2.6084e+08,2.4682e+05,0,4.2251e+08,1.1879e+05,14999,12382,1,12382,1,0.00021511,5.1879e-11,0,0.00065301,-3.8898e-05,5.3494e+07,12.553,0,1.6682e+08,-3.5735,12381,9753,1,9753,1,-0.0010388,-8.7951e-07,0,2.0996e-05,-0.00029177,-4.2251e+08,-1.3489e+05,0,5.105e+06,-19262,9752,11091,1,11091,1,-0.0004601,-2.8289e-10,0,0.00031157,-0.00016494,-1.8709e+08,-60.822,0,9.3688e+07,-15.034,11090,13678,1,13678,1,0.00089031,5.4132e-10,0,0.00098677,8.6925e-05,1.6682e+08,119.22,0,2.3138e+08,776.8,13677,1491.5,0,1491.5,0,0.00075598,1.1921e-07,0,0.00041075,0.00014114,2.0359e+08,26378,0,1.0454e+08,17854,1491.5,1
4990,4.75,12381,1,12381,1,0.00022821,-1.0936e-08,0,0.00067565,-4.1388e-05,-6.7701e+06,-18.742,0,1.7518e+08,5876,12380,15000,1,15000,1,0.0015712,7.2265e-07,0,0.0015712,0.00019567,2.6138e+08,2.4728e+05,0,4.234e+08,1.1905e+05,14999,12382,1,12382,1,0.00021557,2.1175e-10,0,0.00065439,-3.8981e-05,5.3608e+07,51.743,0,1.6718e+08,-2.7752,12381,9753,1,9753,1,-0.001041,-8.8178e-07,0,2.1043e-05,-0.00029238,-4.234e+08,-1.3525e+05,0,5.1166e+06,-19289,9752,11091,1,11091,1,-0.00046106,-1.9691e-10,0,0.00031223,-0.00016529,-1.8748e+08,-43.279,0,9.3887e+07,-16.557,11090,13678,1,13678,1,0.0008922,8.3578e-10,0,0.00098886,8.7108e-05,1.6718e+08,170.55,0,2.3187e+08,780.22,13677,1491.5,0,1491.5,0,0.00075758,1.1952e-07,0,0.00041161,0.00014144,2.0402e+08,26436,0,1.0476e+08,17893,1491.5,1
4990,4.76,12381,1,12381,1,0.00022869,-1.1189e-08,0,0.00067707,-4.1476e-05,-6.7841e+06,-69.305,0,1.7555e+08,5889.3,12380,15000,1,15000,1,0.0015745,7.239e-07,0,0.0015745,0.00019608,2.6193e+08,2.477e+05,0,4.2429e+08,1.1929e+05,14999,12382,1,12382,1,0.00021602,4.1047e-11,0,0.00065576,-3.9063e-05,5.3721e+07,10.264,0,1.6753e+08,-1.1507,12381,9753,1,9753,1,-0.0010432,-8.8411e-07,0,2.109e-05,-0.000293,-4.2429e+08,-1.3561e+05,0,5.1282e+06,-19339,9752,11091,1,11091,1,-0.00046203,-2.5089e-10,0,0.00031289,-0.00016564,-1.8788e+08,-54.555,0,9.4084e+07,-10.664,11090,13678,1,13678,1,0.00089408,3.0032e-10,0,0.00099094,8.729e-05,1.6753e+08,62.726,0,2.3235e+08,781.64,13677,1491.5,0,1491.5,0,0.00075917,1.1982e-07,0,0.00041248,0.00014173,2.0445e+08,26490,0,1.0498e+08,17929,1491.5,1
4990,4.77,12381,1,12381,1,0.00022918,-1.1356e-08,0,0.00067849,-4.1563e-05,-6.7982e+06,-101.16,0,1.7591e+08,5903.3,12380,15000,1,15000,1,0.0015778,7.2533e-07,0,0.0015778,0.00019649,2.6248e+08,2.482e+05,0,4.2518e+08,1.1954e+05,14999,12382,1,12382,1,0.00021648,-5.9264e-11,0,0.00065714,-3.9146e-05,5.3835e+07,-14.649,0,1.6788e+08,-1.0444,12381,9753,1,9753,1,-0.0010454,-8.862e-07,0,2.1137e-05,-0.00029361,-4.2518e+08,-1.3594e+05,0,5.1398e+06,-19359,9752,11091,1,11091,1,-0.000463,-4.0173e-10,0,0.00031355,-0.00016599,-1.8827e+08,-82.704,0,9.4282e+07,-8.5875,11090,13678,1,13678,1,0.00089596,7.0391e-11,0,0.00099302,8.7473e-05,1.6788e+08,15.44,0,2.3284e+08,784.19,13677,1491.5,0,1491.5,0,0.00076077,1.201e-07,0,0.00041335,0.00014203,2.0487e+08,26546,0,1.052e+08,17965,1491.5,1
4990,4.78,12381,1,12381,1,0.00022966,-1.129e-08,0,0.00067992,-4.1651e-05,-6.8124e+06,-80.3,0,1.7628e+08,5910.7,12380,15000,1,15000,1,0.0015811,7.2763e-07,0,0.0015811,0.0001969,2.6302e+08,2.4898e+05,0,4.2607e+08,1.1977e+05,14999,12382,1,12382,1,0.00021694,-2.9228e-10,0,0.00065852,-3.9228e-05,5.3949e+07,-71.183,0,1.6823e+08,-1.268,12381,9753,1,9753,1,-0.0010476,-8.8644e-07,0,2.1184e-05,-0.00029423,-4.2607e+08,-1.3593e+05,0,5.1515e+06,-19419,9752,11091,1,11091,1,-0.00046397,-8.569e-10,0,0.00031421,-0.00016634,-1.8866e+08,-167.1,0,9.4481e+07,-12.997,11090,13678,1,13678,1,0.00089784,1.5745e-10,0,0.00099511,8.7657e-05,1.6823e+08,40.123,0,2.3332e+08,786.5,13677,1491.5,0,1491.5,0,0.00076237,1.2013e-07,0,0.00041422,0.00014233,2.053e+08,26596,0,1.0543e+08,18000,1491.5,1
4990,4.79,12381,1,12381,1,0.00023015,-1.1136e-08,0,0.00068134,-4.1739e-05,-6.8265e+06,-41.853,0,1.7665e+08,5924.2,12380,15000,1,15000,1,0.0015845,7.2895e-07,0,0.0015845,0.00019731,2.6357e+08,2.4943e+05,0,4.2696e+08,1.2004e+05,14999,12382,1,12382,1,0.00021739,-7.071e-12,0,0.00065989,-3.9311e-05,5.4062e+07,-1.9151,0,1.6858e+08,-3.0132,12381,9753,1,9753,1,-0.0010498,-8.8874e-07,0,2.1231e-05,-0.00029485,-4.2696e+08,-1.363e+05,0,5.163e+06,-19441,9752,11091,1,11091,1,-0.00046494,-4.6463e-10,0,0.00031487,-0.00016669,-1.8906e+08,-94.688,0,9.4679e+07,-14.398,11090,13678,1,13678,1,0.00089972,4.4522e-10,0,0.0009972,8.784e-05,1.6858e+08,102.47,0,2.3381e+08,787.87,13677,1491.5,0,1491.5,0,0.00076396,1.2045e-07,0,0.00041508,0.00014263,2.0573e+08,26655,0,1.0565e+08,18042,1491.5,1
4990,4.8,12381,1,12381,1,0.00023063,-1.1335e-08,0,0.00068276,-4.1826e-05,-6.8406e+06,-81.31,0,1.7702e+08,5940.2,12380,15000,1,15000,1,0.0015878,7.2998e-07,0,0.0015878,0.00019772,2.6411e+08,2.4979e+05,0,4.2785e+08,1.203e+05,14999,12382,1,12382,1,0.00021785,-3.1784e-11,0,0.00066127,-3.9393e-05,5.4175e+07,-8.2833,0,1.6893e+08,-1.9553,12381,9753,1,9753,1,-0.001052,-8.9161e-07,0,2.1278e-05,-0.00029546,-4.2785e+08,-1.3676e+05,0,5.1746e+06,-19461,9752,11091,1,11091,1,-0.00046591,-4.1209e-10,0,0.00031553,-0.00016703,-1.8945e+08,-85.391,0,9.4877e+07,-11.342,11090,13678,1,13678,1,0.0009016,2.5177e-10,0,0.00099928,8.8022e-05,1.6893e+08,55.575,0,2.3429e+08,791.01,13677,1491.5,0,1491.5,0,0.00076556,1.2083e-07,0,0.00041595,0.00014292,2.0616e+08,26712,0,1.0586e+08,18080,1491.5,1
4990,4.81,12381,1,12381,1,0.00023111,-1.1364e-08,0,0.00068419,-4.1914e-05,-6.8547e+06,-83.244,0,1.7739e+08,5951.6,12380,15000,1,15000,1,0.0015911,7.3141e-07,0,0.0015911,0.00019814,2.6466e+08,2.5028e+05,0,4.2874e+08,1.2055e+05,14999,12382,1,12382,1,0.0002183,2.1152e-11,0,0.00066264,-3.9476e-05,5.4289e+07,5.3671,0,1.6928e+08,-0.29852,12381,9753,1,9753,1,-0.0010542,-8.9361e-07,0,2.1325e-05,-0.00029608,-4.2874e+08,-1.3707e+05,0,5.1863e+06,-19511,9752,11091,1,11091,1,-0.00046687,-2.9808e-10,0,0.00031619,-0.00016738,-1.8984e+08,-67.364,0,9.5075e+07,-11.415,11090,13678,1,13678,1,0.00090348,2.0765e-10,0,0.0010014,8.8205e-05,1.6928e+08,43.971,0,2.3478e+08,789.83,13677,1491.5,0,1491.5,0,0.00076715,1.211e-07,0,0.00041682,0.00014322,2.0659e+08,26768,0,1.0609e+08,18118,1491.5,1
4990,4.82,12381,1,12381,1,0.00023159,-1.1309e-08,0,0.00068561,-4.2001e-05,-6.8688e+06,-65.496,0,1.7776e+08,5964.3,12380,15000,1,15000,1,0.0015944,7.3296e-07,0,0.0015944,0.00019855,2.652e+08,2.508e+05,0,4.2963e+08,1.208e+05,14999,12382,1,12382,1,0.00021876,8.6692e-11,0,0.00066402,-3.9559e-05,5.4403e+07,21.67,0,1.6964e+08,-0.23942,12381,9753,1,9753,1,-0.0010564,-8.9544e-07,0,2.1371e-05,-0.0002967,-4.2963e+08,-1.3735e+05,0,5.1979e+06,-19538,9752,11091,1,11091,1,-0.00046784,-1.9132e-10,0,0.00031685,-0.00016773,-1.9024e+08,-41.88,0,9.5273e+07,-10.604,11090,13678,1,13678,1,0.00090537,2.894e-10,0,0.0010035,8.8388e-05,1.6964e+08,61.107,0,2.3526e+08,791.44,13677,1491.5,0,1491.5,0,0.00076875,1.2135e-07,0,0.00041769,0.00014352,2.0702e+08,26824,0,1.0631e+08,18156,1491.5,1
4990,4.83,12381,1,12381,1,0.00023208,-1.1147e-08,0,0.00068704,-4.2089e-05,-6.8829e+06,-30.464,0,1.7812e+08,5960.6,12380,15000,1,15000,1,0.0015977,7.3424e-07,0,0.0015977,0.00019896,2.6574e+08,2.5124e+05,0,4.3053e+08,1.2097e+05,14999,12382,1,12382,1,0.00021922,4.0184e-10,0,0.00066539,-3.9641e-05,5.4516e+07,97.933,0,1.6999e+08,3.3686,12381,9753,1,9753,1,-0.0010586,-8.9559e-07,0,2.1419e-05,-0.00029731,-4.3053e+08,-1.3748e+05,0,5.2097e+06,-19560,9752,11091,1,11091,1,-0.00046881,-2.2218e-10,0,0.00031751,-0.00016808,-1.9063e+08,-57.106,0,9.5472e+07,-19.968,11090,13678,1,13678,1,0.00090725,1.0496e-09,0,0.0010055,8.8571e-05,1.6999e+08,211.23,0,2.3575e+08,783.38,13677,1491.5,0,1491.5,0,0.00077034,1.2139e-07,0,0.00041855,0.00014382,2.0745e+08,26851,0,1.0653e+08,18170,1491.5,1
4990,4.84,12381,1,12381,1,0.00023256,-1.1119e-08,0,0.00068846,-4.2177e-05,-6.8968e+06,-31.458,0,1.7849e+08,5952.4,12380,15000,1,15000,1,0.001601,7.3626e-07,0,0.001601,0.00019937,2.6626e+08,2.5194e+05,0,4.3142e+08,1.2137e+05,14999,12382,1,12382,1,0.00021968,1.4609e-11,0,0.00066677,-3.9724e-05,5.463e+07,3.1296,0,1.7034e+08,7.3634,12381,9753,1,9753,1,-0.0010608,-8.9425e-07,0,2.147e-05,-0.00029793,-4.3142e+08,-1.3737e+05,0,5.2228e+06,-18812,9752,11091,1,11091,1,-0.00046978,-2.7369e-10,0,0.00031817,-0.00016843,-1.9103e+08,-55.67,0,9.5671e+07,-10.062,11090,13678,1,13678,1,0.00090914,4.5893e-10,0,0.0010076,8.8754e-05,1.7034e+08,104.42,0,2.3623e+08,751.56,13677,1491.5,0,1491.5,0,0.00077194,1.2103e-07,0,0.00041942,0.00014412,2.0788e+08,26833,0,1.0675e+08,18197,1491.5,1
4990,4.85,12381,1,12381,1,0.00023305,-1.1388e-08,0,0.00068989,-4.2266e-05,-6.91e+06,-85.17,0,1.7886e+08,5976.2,12380,15000,1,15000,1,0.0016044,7.3745e-07,0,0.0016044,0.00019978,2.6678e+08,2.5234e+05,0,4.323e+08,1.218e+05,14999,12382,1,12382,1,0.00022014,-3.2563e-11,0,0.00066814,-3.9808e-05,5.4746e+07,-8.1499,0,1.7069e+08,0.36861,12381,9753,1,9753,1,-0.0010629,-8.9919e-07,0,2.1522e-05,-0.00029855,-4.323e+08,-1.3813e+05,0,5.2361e+06,-18467,9752,11091,1,11091,1,-0.00047074,-2.8989e-10,0,0.00031884,-0.00016878,-1.9142e+08,-68.384,0,9.587e+07,-11.233,11090,13678,1,13678,1,0.00091103,1.0264e-10,0,0.0010097,8.8936e-05,1.7069e+08,21.823,0,2.3672e+08,760.31,13677,1491.5,0,1491.5,0,0.00077354,1.2155e-07,0,0.00042029,0.00014441,2.0831e+08,26908,0,1.0696e+08,18262,1491.5,1
4990,4.86,12381,1,12381,1,0.00023355,-1.1214e-08,0,0.00069132,-4.2355e-05,-6.9232e+06,-41.934,0,1.7923e+08,5990.6,12380,15000,1,15000,1,0.0016077,7.3937e-07,0,0.0016077,0.0002002,2.6729e+08,2.53e+05,0,4.332e+08,1.222e+05,14999,12382,1,12382,1,0.00022061,2.9888e-10,0,0.00066952,-3.9892e-05,5.4861e+07,72.82,0,1.7105e+08,-0.2688,12381,9753,1,9753,1,-0.0010651,-9.0189e-07,0,2.1575e-05,-0.00029917,-4.332e+08,-1.3855e+05,0,5.2496e+06,-18221,9752,11091,1,11091,1,-0.00047171,-3.2225e-10,0,0.00031951,-0.00016913,-1.9181e+08,-80.413,0,9.6071e+07,-20.584,11090,13678,1,13678,1,0.00091292,9.4624e-10,0,0.0010118,8.9119e-05,1.7105e+08,185.03,0,2.3721e+08,765.24,13677,1491.5,0,1491.5,0,0.00077514,1.2185e-07,0,0.00042117,0.00014471,2.0873e+08,26975,0,1.0718e+08,18318,1491.5,1
4990,4.87,12381,1,12381,1,0.00023404,-1.1261e-08,0,0.00069275,-4.2444e-05,-6.9364e+06,-44.984,0,1.796e+08,6009.6,12380,15000,1,15000,1,0.001611,7.4138e-07,0,0.001611,0.00020061,2.6781e+08,2.5368e+05,0,4.3408e+08,1.2251e+05,14999,12382,1,12382,1,0.00022107,3.0104e-11,0,0.00067089,-3.9976e-05,5.4976e+07,9.2377,0,1.714e+08,-1.2293,12381,9753,1,9753,1,-0.0010673,-9.0422e-07,0,2.1628e-05,-0.00029979,-4.3408e+08,-1.3891e+05,0,5.2631e+06,-17988,9752,11091,1,11091,1,-0.00047267,-1.7865e-10,0,0.00032017,-0.00016948,-1.922e+08,-38.638,0,9.627e+07,-12.478,11090,13678,1,13678,1,0.00091481,3.5841e-10,0,0.0010139,8.9301e-05,1.714e+08,79.772,0,2.377e+08,769.27,13677,1491.5,0,1491.5,0,0.00077674,1.2213e-07,0,0.00042204,0.00014501,2.0916e+08,27039,0,1.074e+08,18364,1491.5,1
4990,4.88,12381,1,12381,1,0.00023452,-1.1594e-08,0,0.00069417,-4.2533e-05,-6.9496e+06,-112.04,0,1.7996e+08,6029.1,12380,15000,1,15000,1,0.0016144,7.4263e-07,0,0.0016144,0.00020102,2.6832e+08,2.5411e+05,0,4.3497e+08,1.2285e+05,14999,12382,1,12382,1,0.00022153,-9.8259e-11,0,0.00067225,-4.006e-05,5.5091e+07,-22.479,0,1.7175e+08,4.9487,12381,9753,1,9753,1,-0.0010695,-9.0811e-07,0,2.1681e-05,-0.00030041,-4.3497e+08,-1.395e+05,0,5.2767e+06,-17814,9752,11091,1,11091,1,-0.00047363,-5.4317e-10,0,0.00032084,-0.00016983,-1.9259e+08,-117.76,0,9.647e+07,-6.68,11090,13678,1,13678,1,0.0009167,1.906e-10,0,0.001016,8.9483e-05,1.7175e+08,42.448,0,2.3818e+08,763.19,13677,1491.5,0,1491.5,0,0.00077833,1.2259e-07,0,0.0004229,0.00014531,2.0959e+08,27108,0,1.0762e+08,18413,1491.5,1
4990,4.89,12381,1,12381,1,0.00023502,-1.1318e-08,0,0.0006956,-4.2622e-05,-6.9628e+06,-46.859,0,1.8033e+08,6037.6,12380,15000,1,15000,1,0.0016177,7.4508e-07,0,0.0016177,0.00020143,2.6883e+08,2.5495e+05,0,4.3587e+08,1.2316e+05,14999,12382,1,12382,1,0.000222,5.9252e-11,0,0.00067363,-4.0144e-05,5.5207e+07,14.145,0,1.7211e+08,-1.5441,12381,9753,1,9753,1,-0.0010717,-9.0884e-07,0,2.1734e-05,-0.00030103,-4.3587e+08,-1.3962e+05,0,5.2903e+06,-17697,9752,11091,1,11091,1,-0.0004746,-2.387e-10,0,0.00032151,-0.00017018,-1.9299e+08,-53.677,0,9.6671e+07,-13.94,11090,13678,1,13678,1,0.0009186,4.1412e-10,0,0.0010181,8.9665e-05,1.7211e+08,90.055,0,2.3867e+08,765.21,13677,1491.5,0,1491.5,0,0.00077994,1.2267e-07,0,0.00042378,0.00014561,2.1002e+08,27165,0,1.0784e+08,18460,1491.5,1
4990,4.9,12381,1,12381,1,0.00023551,-1.1457e-08,0,0.00069703,-4.2711e-05,-6.976e+06,-69.503,0,1.807e+08,6052.9,12380,15000,1,15000,1,0.001621,7.474e-07,0,0.001621,0.00020184,2.6935e+08,2.5575e+05,0,4.3676e+08,1.2345e+05,14999,12382,1,12382,1,0.00022246,-3.2753e-10,0,0.000675,-4.0228e-05,5.5322e+07,-69.666,0,1.7246e+08,5.6993,12381,9753,1,9753,1,-0.0010739,-9.0993e-07,0,2.1787e-05,-0.00030165,-4.3676e+08,-1.3978e+05,0,5.304e+06,-17584,9752,11091,1,11091,1,-0.00047556,-1.0124e-09,0,0.00032218,-0.00017053,-1.9338e+08,-205.54,0,9.6871e+07,-8.7881,11090,13678,1,13678,1,0.00092049,2.0764e-10,0,0.0010202,8.9847e-05,1.7246e+08,58.364,0,2.3916e+08,758.84,13677,1491.5,0,1491.5,0,0.00078154,1.2281e-07,0,0.00042465,0.00014591,2.1045e+08,27223,0,1.0806e+08,18500,1491.5,1
4990,4.91,12381,1,12381,1,0.000236,-1.1392e-08,0,0.00069846,-4.28e-05,-6.9892e+06,-52.692,0,1.8107e+08,6073,12380,15000,1,15000,1,0.0016243,7.48e-07,0,0.0016243,0.00020225,2.6986e+08,2.5595e+05,0,4.3764e+08,1.2384e+05,14999,12382,1,12382,1,0.00022292,2.026e-10,0,0.00067638,-4.0312e-05,5.5438e+07,49.787,0,1.7281e+08,-2.8385,12381,9753,1,9753,1,-0.0010761,-9.1495e-07,0,2.184e-05,-0.00030226,-4.3764e+08,-1.4055e+05,0,5.3175e+06,-17406,9752,11091,1,11091,1,-0.00047653,-2.2103e-10,0,0.00032285,-0.00017088,-1.9377e+08,-52.174,0,9.7071e+07,-16.551,11090,13678,1,13678,1,0.00092238,7.1005e-10,0,0.0010223,9.003e-05,1.7281e+08,150,0,2.3964e+08,775.16,13677,1491.5,0,1491.5,0,0.00078313,1.2339e-07,0,0.00042552,0.00014621,2.1087e+08,27293,0,1.0828e+08,18559,1491.5,1
4990,4.92,12381,1,12381,1,0.00023649,-1.0997e-08,0,0.00069989,-4.289e-05,-7.0025e+06,42.347,0,1.8144e+08,6078.2,12380,15000,1,15000,1,0.0016276,7.5203e-07,0,0.0016276,0.00020266,2.7037e+08,2.5733e+05,0,4.3854e+08,1.2405e+05,14999,12382,1,12382,1,0.00022339,-6.1058e-11,0,0.00067776,-4.0397e-05,5.5554e+07,-12.538,0,1.7317e+08,-1.8234,12381,9753,1,9753,1,-0.0010783,-9.1173e-07,0,2.1893e-05,-0.00030288,-4.3854e+08,-1.4005e+05,0,5.3313e+06,-17380,9752,11091,1,11091,1,-0.0004775,-1.2251e-09,0,0.00032352,-0.00017124,-1.9416e+08,-238.36,0,9.7272e+07,-25.595,11090,13678,1,13678,1,0.00092428,9.3848e-10,0,0.0010244,9.0213e-05,1.7317e+08,212.86,0,2.4013e+08,777.18,13677,1491.5,0,1491.5,0,0.00078474,1.2303e-07,0,0.00042639,0.00014651,2.113e+08,27338,0,1.085e+08,18590,1491.5,1
4990,4.93,12381,1,12381,1,0.00023698,-1.1533e-08,0,0.00070131,-4.2978e-05,-7.0156e+06,-72.454,0,1.818e+08,6099.1,12380,15000,1,15000,1,0.001631,7.517e-07,0,0.001631,0.00020307,2.7089e+08,2.5722e+05,0,4.3942e+08,1.2441e+05,14999,12382,1,12382,1,0.00022385,5.579e-11,0,0.00067912,-4.048e-05,5.5668e+07,13.799,0,1.7352e+08,0.23427,12381,9753,1,9753,1,-0.0010804,-9.1872e-07,0,2.1947e-05,-0.0003035,-4.3942e+08,-1.4113e+05,0,5.3449e+06,-17218,9752,11091,1,11091,1,-0.00047846,-2.2497e-10,0,0.00032418,-0.00017158,-1.9456e+08,-51.95,0,9.7471e+07,-11.963,11090,13678,1,13678,1,0.00092616,2.2417e-10,0,0.0010265,9.0394e-05,1.7352e+08,49.023,0,2.4062e+08,776.72,13677,1491.5,0,1491.5,0,0.00078633,1.2386e-07,0,0.00042726,0.0001468,2.1173e+08,27410,0,1.0872e+08,18642,1491.5,1
4990,4.94,12381,1,12381,1,0.00023747,-1.1953e-08,0,0.00070274,-4.3067e-05,-7.0287e+06,-158.66,0,1.8217e+08,6113.9,12380,15000,1,15000,1,0.0016343,7.5263e-07,0,0.0016343,0.00020349,2.714e+08,2.5754e+05,0,4.4031e+08,1.2471e+05,14999,12382,1,12382,1,0.00022431,-1.413e-10,0,0.00068049,-4.0563e-05,5.5783e+07,-32.696,0,1.7387e+08,24.876,12381,9753,1,9753,1,-0.0010826,-9.2259e-07,0,2.2001e-05,-0.00030412,-4.4031e+08,-1.4173e+05,0,5.3588e+06,-17142,9752,11091,1,11091,1,-0.00047942,-1.5582e-09,0,0.00032485,-0.00017193,-1.9495e+08,-356.08,0,9.767e+07,-11.078,11090,13678,1,13678,1,0.00092805,1.0697e-09,0,0.0010286,9.0575e-05,1.7387e+08,260.54,0,2.411e+08,761.42,13677,1491.5,0,1491.5,0,0.00078793,1.2437e-07,0,0.00042813,0.0001471,2.1216e+08,27473,0,1.0894e+08,18681,1491.5,1
4990,4.95,12381,1,12381,1,0.00023796,-1.1603e-08,0,0.00070417,-4.3156e-05,-7.0419e+06,-78.034,0,1.8254e+08,6127.8,12380,15000,1,15000,1,0.0016376,7.5485e-07,0,0.0016376,0.0002039,2.7191e+08,2.5829e+05,0,4.412e+08,1.2502e+05,14999,12382,1,12382,1,0.00022478,4.0118e-11,0,0.00068186,-4.0648e-05,5.5899e+07,10.087,0,1.7423e+08,-1.8727,12381,9753,1,9753,1,-0.0010848,-9.2343e-07,0,2.2054e-05,-0.00030474,-4.412e+08,-1.4186e+05,0,5.3724e+06,-17030,9752,11091,1,11091,1,-0.00048039,-2.6573e-10,0,0.00032552,-0.00017229,-1.9534e+08,-61.372,0,9.7871e+07,-12.233,11090,13678,1,13678,1,0.00092995,3.137e-10,0,0.0010307,9.0758e-05,1.7423e+08,64.771,0,2.4159e+08,778.63,13677,1491.5,0,1491.5,0,0.00078953,1.2443e-07,0,0.000429,0.0001474,2.1259e+08,27528,0,1.0916e+08,18732,1491.5,1
4990,4.96,12381,1,12381,1,0.00023845,-1.1694e-08,0,0.0007056,-4.3245e-05,-7.055e+06,-92.818,0,1.8291e+08,6142,12380,15000,1,15000,1,0.001641,7.5656e-07,0,0.001641,0.00020431,2.7242e+08,2.5888e+05,0,4.4209e+08,1.2531e+05,14999,12382,1,12382,1,0.00022525,-3.6004e-11,0,0.00068324,-4.0732e-05,5.6015e+07,-9.6192,0,1.7458e+08,-3.4786,12381,9753,1,9753,1,-0.001087,-9.254e-07,0,2.2107e-05,-0.00030536,-4.4209e+08,-1.4216e+05,0,5.3861e+06,-16958,9752,11091,1,11091,1,-0.00048135,-5.6092e-10,0,0.00032619,-0.00017264,-1.9573e+08,-119.4,0,9.8071e+07,-15.129,11090,13678,1,13678,1,0.00093184,3.2404e-10,0,0.0010328,9.094e-05,1.7458e+08,70.166,0,2.4208e+08,785.91,13677,1491.5,0,1491.5,0,0.00079113,1.2467e-07,0,0.00042987,0.0001477,2.1301e+08,27585,0,1.0937e+08,18775,1491.5,1
4990,4.97,12381,1,12381,1,0.00023894,-1.1583e-08,0,0.00070702,-4.3335e-05,-7.0682e+06,-62.652,0,1.8328e+08,6153.4,12380,15000,1,15000,1,0.0016443,7.5822e-07,0,0.0016443,0.00020472,2.7294e+08,2.5945e+05,0,4.4298e+08,1.2557e+05,14999,12382,1,12382,1,0.00022571,8.93e-11,0,0.00068461,-4.0816e-05,5.613e+07,19.437,0,1.7493e+08,1.6959,12381,9753,1,9753,1,-0.0010892,-9.2742e-07,0,2.2161e-05,-0.00030598,-4.4298e+08,-1.4247e+05,0,5.3999e+06,-16891,9752,11091,1,11091,1,-0.00048231,-1.0976e-10,0,0.00032686,-0.00017299,-1.9612e+08,-26.539,0,9.8271e+07,-10.475,11090,13678,1,13678,1,0.00093373,3.6306e-10,0,0.0010349,9.1122e-05,1.7493e+08,81.087,0,2.4257e+08,776.66,13677,1491.5,0,1491.5,0,0.00079273,1.2496e-07,0,0.00043074,0.000148,2.1344e+08,27644,0,1.0959e+08,18812,1491.5,1
4990,4.98,12381,1,12381,1,0.00023944,-1.1315e-08,0,0.00070846,-4.3424e-05,-7.0814e+06,-1.6292,0,1.8364e+08,6159.9,12380,15000,1,15000,1,0.0016476,7.6021e-07,0,0.0016476,0.00020513,2.7345e+08,2.6013e+05,0,4.4388e+08,1.2587e+05,14999,12382,1,12382,1,0.00022618,6.4143e-10,0,0.00068599,-4.09e-05,5.6246e+07,144.82,0,1.7529e+08,2.5118,12381,9753,1,9753,1,-0.0010914,-9.2872e-07,0,2.2214e-05,-0.00030659,-4.4388e+08,-1.4267e+05,0,5.4137e+06,-16846,9752,11091,1,11091,1,-0.00048328,-2.7844e-10,0,0.00032753,-0.00017334,-1.9652e+08,-80.362,0,9.8473e+07,-24.408,11090,13678,1,13678,1,0.00093563,1.6017e-09,0,0.001037,9.1305e-05,1.7529e+08,323.92,0,2.4306e+08,777.83,13677,1491.5,0,1491.5,0,0.00079434,1.2512e-07,0,0.00043162,0.0001483,2.1387e+08,27701,0,1.0981e+08,18859,1491.5,1
4990,4.99,12381,1,12381,1,0.00023993,-1.1819e-08,0,0.00070988,-4.3513e-05,-7.0945e+06,-104.32,0,1.8401e+08,6179,12380,15000,1,15000,1,0.0016509,7.6177e-07,0,0.0016509,0.00020554,2.7396e+08,2.6066e+05,0,4.4477e+08,1.2611e+05,14999,12382,1,12382,1,0.00022664,-2.0404e-10,0,0.00068735,-4.0984e-05,5.6361e+07,-51.04,0,1.7564e+08,-0.71712,12381,9753,1,9753,1,-0.0010936,-9.3088e-07,0,2.2268e-05,-0.00030721,-4.4477e+08,-1.43e+05,0,5.4275e+06,-16729,9752,11091,1,11091,1,-0.00048424,-4.5013e-10,0,0.00032819,-0.00017369,-1.9691e+08,-92.773,0,9.8672e+07,-11.514,11090,13678,1,13678,1,0.00093752,5.3552e-11,0,0.0010391,9.1487e-05,1.7564e+08,12.933,0,2.4354e+08,781.35,13677,1491.5,0,1491.5,0,0.00079593,1.2538e-07,0,0.00043249,0.00014859,2.143e+08,27756,0,1.1003e+08,18894,1491.5,1
4990,5,12381,1,12381,1,0.00024042,-1.1547e-08,0,0.00071131,-4.3602e-05,-7.1076e+06,-39.56,0,1.8438e+08,6192.2,12380,15000,1,15000,1,0.0016543,7.6341e-07,0,0.0016543,0.00020595,2.7447e+08,2.6122e+05,0,4.4565e+08,1.2643e+05,14999,12382,1,12382,1,0.0002271,1.8164e-10,0,0.00068872,-4.1068e-05,5.6477e+07,44.957,0,1.76e+08,-0.46816,12381,9753,1,9753,1,-0.0010958,-9.3295e-07,0,2.2322e-05,-0.00030783,-4.4565e+08,-1.4332e+05,0,5.4413e+06,-16717,9752,11091,1,11091,1,-0.00048521,-1.4562e-10,0,0.00032886,-0.00017404,-1.973e+08,-35.242,0,9.8872e+07,-14.752,11090,13678,1,13678,1,0.00093941,4.6071e-10,0,0.0010412,9.1669e-05,1.76e+08,99.064,0,2.4403e+08,785.31,13677,1491.5,0,1491.5,0,0.00079753,1.2566e-07,0,0.00043336,0.00014889,2.1473e+08,27814,0,1.1025e+08,18937,1491.5,1
4990,5.01,12381,1,12381,1,0.00024091,-1.1744e-08,0,0.00071273,-4.3691e-05,-7.1207e+06,-77.387,0,1.8475e+08,6211.6,12380,15000,1,15000,1,0.0016576,7.644e-07,0,0.0016576,0.00020636,2.7498e+08,2.6156e+05,0,4.4654e+08,1.2675e+05,14999,12382,1,12382,1,0.00022757,2.1849e-11,0,0.00069009,-4.1152e-05,5.6592e+07,5.9417,0,1.7635e+08,-1.954,12381,9753,1,9753,1,-0.0010979,-9.365e-07,0,2.2376e-05,-0.00030845,-4.4654e+08,-1.4386e+05,0,5.4551e+06,-16644,9752,11091,1,11091,1,-0.00048617,-2.216e-10,0,0.00032953,-0.00017439,-1.9769e+08,-44.368,0,9.9071e+07,-10.1,11090,13678,1,13678,1,0.0009413,2.8424e-10,0,0.0010433,9.185e-05,1.7635e+08,61.744,0,2.4451e+08,785.75,13677,1491.5,0,1491.5,0,0.00079912,1.2608e-07,0,0.00043423,0.00014919,2.1515e+08,27876,0,1.1047e+08,18985,1491.5,1
4990,5.02,12381,1,12381,1,0.0002414,-1.1674e-08,0,0.00071417,-4.378e-05,-7.1339e+06,-57.538,0,1.8511e+08,6218.9,12380,15000,1,15000,1,0.0016609,7.6657e-07,0,0.0016609,0.00020678,2.7549e+08,2.623e+05,0,4.4743e+08,1.27e+05,14999,12382,1,12382,1,0.00022803,1.0591e-10,0,0.00069147,-4.1236e-05,5.6708e+07,26.4,0,1.767e+08,-0.24601,12381,9753,1,9753,1,-0.0011001,-9.3717e-07,0,2.243e-05,-0.00030907,-4.4743e+08,-1.4397e+05,0,5.4691e+06,-16623,9752,11091,1,11091,1,-0.00048713,-1.9311e-10,0,0.0003302,-0.00017474,-1.9808e+08,-46.074,0,9.9272e+07,-12.88,11090,13678,1,13678,1,0.0009432,3.3063e-10,0,0.0010454,9.2033e-05,1.767e+08,72.259,0,2.45e+08,786.23,13677,1491.5,0,1491.5,0,0.00080073,1.2618e-07,0,0.0004351,0.00014949,2.1558e+08,27928,0,1.1069e+08,19021,1491.5,1
4990,5.03,12381,1,12381,1,0.00024189,-1.1785e-08,0,0.00071559,-4.3869e-05,-7.147e+06,-76.904,0,1.8548e+08,6234.6,12380,15000,1,15000,1,0.0016642,7.6849e-07,0,0.0016642,0.00020719,2.76e+08,2.6296e+05,0,4.4832e+08,1.2727e+05,14999,12382,1,12382,1,0.0002285,-1.9734e-10,0,0.00069284,-4.1321e-05,5.6824e+07,-48.093,0,1.7706e+08,-2.6941,12381,9753,1,9753,1,-0.0011023,-9.3846e-07,0,2.2484e-05,-0.00030969,-4.4832e+08,-1.4417e+05,0,5.483e+06,-16567,9752,11091,1,11091,1,-0.0004881,-8.9412e-10,0,0.00033087,-0.00017509,-1.9847e+08,-176.96,0,9.9472e+07,-15.729,11090,13678,1,13678,1,0.00094509,2.9402e-10,0,0.0010475,9.2215e-05,1.7706e+08,70.211,0,2.4549e+08,793.83,13677,1491.5,0,1491.5,0,0.00080233,1.2634e-07,0,0.00043597,0.00014979,2.1601e+08,27983,0,1.1091e+08,19063,1491.5,1
4990,5.04,12381,1,12381,1,0.00024238,-1.1854e-08,0,0.00071702,-4.3959e-05,-7.1601e+06,-86.59,0,1.8585e+08,6239.7,12380,15000,1,15000,1,0.0016676,7.7035e-07,0,0.0016676,0.0002076,2.7651e+08,2.636e+05,0,4.4922e+08,1.2751e+05,14999,12382,1,12382,1,0.00022896,-1.6788e-10,0,0.00069421,-4.1404e-05,5.6939e+07,-40.113,0,1.7741e+08,12.264,12381,9753,1,9753,1,-0.0011045,-9.3976e-07,0,2.2538e-05,-0.00031031,-4.4922e+08,-1.4436e+05,0,5.497e+06,-16591,9752,11091,1,11091,1,-0.00048906,-8.9513e-10,0,0.00033154,-0.00017544,-1.9887e+08,-198.55,0,9.9672e+07,-12.147,11090,13678,1,13678,1,0.00094698,3.8267e-10,0,0.0010496,9.2397e-05,1.7741e+08,86.872,0,2.4597e+08,773.14,13677,1491.5,0,1491.5,0,0.00080392,1.2652e-07,0,0.00043684,0.00015009,2.1644e+08,28033,0,1.1113e+08,19094,1491.5,1
4990,5.05,12381,1,12381,1,0.00024287,-1.1683e-08,0,0.00071845,-4.4048e-05,-7.1732e+06,-43.963,0,1.8622e+08,6257.7,12380,15000,1,15000,1,0.0016709,7.7156e-07,0,0.0016709,0.00020801,2.7702e+08,2.6401e+05,0,4.501e+08,1.278e+05,14999,12382,1,12382,1,0.00022943,-1.0606e-11,0,0.00069558,-4.1489e-05,5.7055e+07,-2.5884,0,1.7776e+08,-1.1542,12381,9753,1,9753,1,-0.0011067,-9.427e-07,0,2.2592e-05,-0.00031092,-4.501e+08,-1.4482e+05,0,5.5108e+06,-16514,9752,11091,1,11091,1,-0.00049002,-2.8564e-10,0,0.00033221,-0.00017579,-1.9926e+08,-57.308,0,9.9873e+07,-11.794,11090,13678,1,13678,1,0.00094888,3.6572e-10,0,0.0010517,9.2579e-05,1.7776e+08,84.88,0,2.4646e+08,788.2,13677,1491.5,0,1491.5,0,0.00080552,1.2689e-07,0,0.00043771,0.00015039,2.1687e+08,28096,0,1.1135e+08,19141,1491.5,1
4990,5.06,12381,1,12381,1,0.00024337,-1.1982e-08,0,0.00071988,-4.4137e-05,-7.1863e+06,-105.97,0,1.8659e+08,6269,12380,15000,1,15000,1,0.0016742,7.7297e-07,0,0.0016742,0.00020842,2.7753e+08,2.645e+05,0,4.5099e+08,1.2806e+05,14999,12382,1,12382,1,0.00022989,-1.5999e-10,0,0.00069695,-4.1573e-05,5.717e+07,-41.549,0,1.7812e+08,-0.35085,12381,9753,1,9753,1,-0.0011089,-9.4504e-07,0,2.2647e-05,-0.00031154,-4.5099e+08,-1.4518e+05,0,5.5248e+06,-16445,9752,11091,1,11091,1,-0.00049099,-4.0774e-10,0,0.00033287,-0.00017614,-1.9965e+08,-91.773,0,1.0007e+08,-13.329,11090,13678,1,13678,1,0.00095077,3.3752e-11,0,0.0010538,9.2761e-05,1.7812e+08,7.991,0,2.4695e+08,789.02,13677,1491.5,0,1491.5,0,0.00080712,1.2717e-07,0,0.00043859,0.00015068,2.1729e+08,28151,0,1.1157e+08,19179,1491.5,1
4990,5.07,12381,1,12381,1,0.00024386,-1.1925e-08,0,0.0007213,-4.4226e-05,-7.1993e+06,-88.022,0,1.8695e+08,6286.7,12380,15000,1,15000,1,0.0016776,7.742e-07,0,0.0016776,0.00020883,2.7804e+08,2.6492e+05,0,4.5188e+08,1.2838e+05,14999,12382,1,12382,1,0.00023036,3.1622e-11,0,0.00069832,-4.1657e-05,5.7286e+07,7.7929,0,1.7847e+08,-0.73315,12381,9753,1,9753,1,-0.0011111,-9.4805e-07,0,2.2701e-05,-0.00031216,-4.5188e+08,-1.4564e+05,0,5.5387e+06,-16416,9752,11091,1,11091,1,-0.00049195,-2.9796e-10,0,0.00033354,-0.00017649,-2.0004e+08,-68.361,0,1.0027e+08,-11.869,11090,13678,1,13678,1,0.00095266,2.1671e-10,0,0.0010558,9.2943e-05,1.7847e+08,44.101,0,2.4743e+08,791.39,13677,1491.5,0,1491.5,0,0.00080872,1.2755e-07,0,0.00043946,0.00015098,2.1772e+08,28213,0,1.1178e+08,19226,1491.5,1
4990,5.08,12381,1,12381,1,0.00024435,-1.1876e-08,0,0.00072273,-4.4315e-05,-7.2124e+06,-72.144,0,1.8732e+08,6300.1,12380,15000,1,15000,1,0.0016809,7.7559e-07,0,0.0016809,0.00020924,2.7855e+08,2.6539e+05,0,4.5277e+08,1.2868e+05,14999,12382,1,12382,1,0.00023082,1.1653e-10,0,0.00069969,-4.1741e-05,5.7401e+07,28.741,0,1.7882e+08,-1.9373,12381,9753,1,9753,1,-0.0011133,-9.5039e-07,0,2.2755e-05,-0.00031278,-4.5277e+08,-1.46e+05,0,5.5527e+06,-16376,9752,11091,1,11091,1,-0.00049291,-2.4462e-10,0,0.00033421,-0.00017684,-2.0043e+08,-55.79,0,1.0047e+08,-13.383,11090,13678,1,13678,1,0.00095455,4.9735e-10,0,0.0010579,9.3125e-05,1.7882e+08,100.66,0,2.4792e+08,793.53,13677,1491.5,0,1491.5,0,0.00081032,1.2784e-07,0,0.00044033,0.00015128,2.1815e+08,28270,0,1.12e+08,19269,1491.5,1
4990,5.09,12381,1,12381,1,0.00024484,-1.1889e-08,0,0.00072416,-4.4404e-05,-7.2255e+06,-70.003,0,1.8769e+08,6312.7,12380,15000,1,15000,1,0.0016842,7.7737e-07,0,0.0016842,0.00020965,2.7906e+08,2.66e+05,0,4.5366e+08,1.2894e+05,14999,12382,1,12382,1,0.00023129,5.5702e-11,0,0.00070107,-4.1825e-05,5.7517e+07,13.748,0,1.7918e+08,-1.564,12381,9753,1,9753,1,-0.0011154,-9.5197e-07,0,2.2809e-05,-0.0003134,-4.5366e+08,-1.4624e+05,0,5.5667e+06,-16347,9752,11091,1,11091,1,-0.00049388,-2.6686e-10,0,0.00033488,-0.0001772,-2.0082e+08,-59.988,0,1.0067e+08,-12.915,11090,13678,1,13678,1,0.00095645,4.0604e-10,0,0.00106,9.3307e-05,1.7918e+08,83.903,0,2.4841e+08,798.69,13677,1491.5,0,1491.5,0,0.00081192,1.2805e-07,0,0.0004412,0.00015158,2.1858e+08,28325,0,1.1222e+08,19308,1491.5,1
4990,5.1,12381,1,12381,1,0.00024533,-1.1773e-08,0,0.00072559,-4.4494e-05,-7.2386e+06,-39.74,0,1.8806e+08,6315.5,12380,15000,1,15000,1,0.0016875,7.7933e-07,0,0.0016875,0.00021007,2.7957e+08,2.6667e+05,0,4.5455e+08,1.292e+05,14999,12382,1,12382,1,0.00023175,2.3087e-10,0,0.00070244,-4.191e-05,5.7633e+07,57.062,0,1.7953e+08,-0.80071,12381,9753,1,9753,1,-0.0011176,-9.5318e-07,0,2.2864e-05,-0.00031402,-4.5455e+08,-1.4641e+05,0,5.5807e+06,-16294,9752,11091,1,11091,1,-0.00049484,-1.9045e-10,0,0.00033555,-0.00017755,-2.0122e+08,-45.44,0,1.0087e+08,-22.658,11090,13678,1,13678,1,0.00095834,6.0452e-10,0,0.0010621,9.3489e-05,1.7953e+08,121.48,0,2.489e+08,781.81,13677,1491.5,0,1491.5,0,0.00081352,1.2823e-07,0,0.00044207,0.00015188,2.19e+08,28381,0,1.1244e+08,19347,1491.5,1
4990,5.11,12381,1,12381,1,0.00024582,-1.1941e-08,0,0.00072702,-4.4583e-05,-7.2516e+06,-70.621,0,1.8842e+08,6338.1,12380,15000,1,15000,1,0.0016909,7.8064e-07,0,0.0016909,0.00021047,2.8008e+08,2.6712e+05,0,4.5544e+08,1.2947e+05,14999,12382,1,12382,1,0.00023222,-1.0624e-10,0,0.00070381,-4.1994e-05,5.7748e+07,-25.128,0,1.7988e+08,-2.5166,12381,9753,1,9753,1,-0.0011198,-9.5565e-07,0,2.2918e-05,-0.00031464,-4.5544e+08,-1.4679e+05,0,5.5947e+06,-16292,9752,11091,1,11091,1,-0.0004958,-6.6772e-10,0,0.00033622,-0.0001779,-2.0161e+08,-136.08,0,1.0107e+08,-17.067,11090,13678,1,13678,1,0.00096023,3.8537e-10,0,0.0010642,9.3671e-05,1.7988e+08,88.555,0,2.4938e+08,802.21,13677,1491.5,0,1491.5,0,0.00081512,1.2851e-07,0,0.00044294,0.00015218,2.1943e+08,28434,0,1.1266e+08,19386,1491.5,1
4990,5.12,12381,1,12381,1,0.00024632,-1.2048e-08,0,0.00072844,-4.4672e-05,-7.2646e+06,-89.702,0,1.8879e+08,6350.2,12380,15000,1,15000,1,0.0016942,7.8224e-07,0,0.0016942,0.00021089,2.8059e+08,2.6767e+05,0,4.5633e+08,1.2974e+05,14999,12382,1,12382,1,0.00023268,-9.0207e-11,0,0.00070518,-4.2078e-05,5.7864e+07,-22.882,0,1.8024e+08,-2.5393,12381,9753,1,9753,1,-0.001122,-9.5757e-07,0,2.2973e-05,-0.00031526,-4.5633e+08,-1.4709e+05,0,5.6088e+06,-16271,9752,11091,1,11091,1,-0.00049676,-6.6737e-10,0,0.00033689,-0.00017825,-2.02e+08,-136.54,0,1.0127e+08,-14.413,11090,13678,1,13678,1,0.00096213,2.5037e-10,0,0.0010663,9.3853e-05,1.8024e+08,58.278,0,2.4987e+08,803.2,13677,1491.5,0,1491.5,0,0.00081671,1.2876e-07,0,0.00044381,0.00015247,2.1986e+08,28491,0,1.1288e+08,19425,1491.5,1
4990,5.13,12381,1,12381,1,0.00024681,-1.1895e-08,0,0.00072988,-4.4762e-05,-7.2777e+06,-50.334,0,1.8916e+08,6355.9,12380,15000,1,15000,1,0.0016975,7.851e-07,0,0.0016975,0.0002113,2.8109e+08,2.6865e+05,0,4.5722e+08,1.2995e+05,14999,12382,1,12382,1,0.00023315,-2.9007e-10,0,0.00070656,-4.2162e-05,5.798e+07,-71.871,0,1.8059e+08,-0.93014,12381,9753,1,9753,1,-0.0011242,-9.5678e-07,0,2.3028e-05,-0.00031587,-4.5722e+08,-1.4692e+05,0,5.623e+06,-16304,9752,11091,1,11091,1,-0.00049773,-1.2035e-09,0,0.00033756,-0.0001786,-2.0239e+08,-239.62,0,1.0148e+08,-18.794,11090,13678,1,13678,1,0.00096403,3.1426e-10,0,0.0010684,9.4035e-05,1.8059e+08,77.063,0,2.5036e+08,793.65,13677,1491.5,0,1491.5,0,0.00081832,1.2866e-07,0,0.00044469,0.00015277,2.2029e+08,28539,0,1.131e+08,19457,1491.5,1
4990,5.14,12381,1,12381,1,0.0002473,-1.1929e-08,0,0.0007313,-4.4851e-05,-7.2907e+06,-54.163,0,1.8953e+08,6373.9,12380,15000,1,15000,1,0.0017008,7.8519e-07,0,0.0017008,0.00021171,2.816e+08,2.6868e+05,0,4.5811e+08,1.303e+05,14999,12382,1,12382,1,0.00023361,2.7331e-10,0,0.00070792,-4.2246e-05,5.8095e+07,68.384,0,1.8094e+08,0.46253,12381,9753,1,9753,1,-0.0011264,-9.6203e-07,0,2.3082e-05,-0.00031649,-4.5811e+08,-1.4777e+05,0,5.637e+06,-16215,9752,11091,1,11091,1,-0.00049869,-1.5066e-10,0,0.00033823,-0.00017895,-2.0278e+08,-36.751,0,1.0167e+08,-14.558,11090,13678,1,13678,1,0.00096592,6.3355e-10,0,0.0010705,9.4217e-05,1.8094e+08,127.8,0,2.5084e+08,792.46,13677,1491.5,0,1491.5,0,0.00081991,1.2933e-07,0,0.00044555,0.00015307,2.2071e+08,28605,0,1.1332e+08,19507,1491.5,1
4990,5.15,12381,1,12381,1,0.00024779,-1.2004e-08,0,0.00073273,-4.494e-05,-7.3038e+06,-66.323,0,1.8989e+08,6385.9,12380,15000,1,15000,1,0.0017042,7.8676e-07,0,0.0017042,0.00021212,2.8211e+08,2.6921e+05,0,4.59e+08,1.3059e+05,14999,12382,1,12382,1,0.00023408,2.4041e-10,0,0.00070929,-4.2331e-05,5.8211e+07,57.443,0,1.813e+08,-1.205,12381,9753,1,9753,1,-0.0011286,-9.6399e-07,0,2.3137e-05,-0.00031711,-4.59e+08,-1.4807e+05,0,5.6511e+06,-16178,9752,11091,1,11091,1,-0.00049965,-3.8442e-10,0,0.0003389,-0.0001793,-2.0317e+08,-92.228,0,1.0188e+08,-19.902,11090,13678,1,13678,1,0.00096781,8.848e-10,0,0.0010726,9.4399e-05,1.813e+08,176.09,0,2.5133e+08,796.26,13677,1491.5,0,1491.5,0,0.00082151,1.2957e-07,0,0.00044643,0.00015337,2.2114e+08,28660,0,1.1353e+08,19548,1491.5,1
4990,5.16,12381,1,12381,1,0.00024828,-1.1853e-08,0,0.00073416,-4.5029e-05,-7.3168e+06,-26.327,0,1.9026e+08,6397.6,12380,15000,1,15000,1,0.0017075,7.8888e-07,0,0.0017075,0.00021253,2.8262e+08,2.6994e+05,0,4.5989e+08,1.3081e+05,14999,12382,1,12382,1,0.00023454,1.6048e-10,0,0.00071067,-4.2415e-05,5.8327e+07,40.273,0,1.8165e+08,-1.3614,12381,9753,1,9753,1,-0.0011308,-9.6479e-07,0,2.3191e-05,-0.00031773,-4.5989e+08,-1.4817e+05,0,5.6652e+06,-16180,9752,11091,1,11091,1,-0.00050062,-8.308e-11,0,0.00033957,-0.00017965,-2.0357e+08,-17.773,0,1.0208e+08,-13.055,11090,13678,1,13678,1,0.00096971,4.7225e-10,0,0.0010747,9.4581e-05,1.8165e+08,106.15,0,2.5182e+08,800.56,13677,1491.5,0,1491.5,0,0.00082311,1.2969e-07,0,0.0004473,0.00015367,2.2157e+08,28713,0,1.1375e+08,19583,1491.5,1
4990,5.17,12381,1,12381,1,0.00024878,-1.2071e-08,0,0.00073559,-4.5118e-05,-7.3298e+06,-70.345,0,1.9063e+08,6413.2,12380,15000,1,15000,1,0.0017108,7.899e-07,0,0.0017108,0.00021294,2.8312e+08,2.7029e+05,0,4.6078e+08,1.3109e+05,14999,12382,1,12382,1,0.00023501,1.5805e-10,0,0.00071203,-4.2499e-05,5.8442e+07,38.941,0,1.82e+08,1.8569,12381,9753,1,9753,1,-0.0011329,-9.6795e-07,0,2.3246e-05,-0.00031835,-4.6078e+08,-1.4867e+05,0,5.6794e+06,-16124,9752,11091,1,11091,1,-0.00050158,-1.8407e-10,0,0.00034024,-0.00018,-2.0396e+08,-45.284,0,1.0228e+08,-12.941,11090,13678,1,13678,1,0.0009716,4.0295e-10,0,0.0010768,9.4763e-05,1.82e+08,83.589,0,2.523e+08,800.45,13677,1491.5,0,1491.5,0,0.00082471,1.3009e-07,0,0.00044817,0.00015397,2.22e+08,28772,0,1.1397e+08,19624,1491.5,1
4990,5.18,12381,1,12381,1,0.00024927,-1.2534e-08,0,0.00073701,-4.5207e-05,-7.3428e+06,-166.51,0,1.91e+08,6430.7,12380,15000,1,15000,1,0.0017142,7.9085e-07,0,0.0017142,0.00021335,2.8363e+08,2.7061e+05,0,4.6167e+08,1.3136e+05,14999,12382,1,12382,1,0.00023547,-2.8196e-10,0,0.0007134,-4.2583e-05,5.8558e+07,-61.444,0,1.8236e+08,6.8923,12381,9753,1,9753,1,-0.0011351,-9.711e-07,0,2.3301e-05,-0.00031897,-4.6167e+08,-1.4917e+05,0,5.6935e+06,-16103,9752,11091,1,11091,1,-0.00050254,-8.8938e-10,0,0.0003409,-0.00018035,-2.0435e+08,-196.4,0,1.0248e+08,-5.5208,11090,13678,1,13678,1,0.00097348,7.1215e-11,0,0.0010789,9.4944e-05,1.8236e+08,18.698,0,2.5279e+08,805.5,13677,1491.5,0,1491.5,0,0.00082631,1.3048e-07,0,0.00044904,0.00015426,2.2242e+08,28830,0,1.1419e+08,19664,1491.5,1
4990,5.19,12381,1,12381,1,0.00024976,-1.2107e-08,0,0.00073844,-4.5297e-05,-7.3558e+06,-69.011,0,1.9136e+08,6439.1,12380,15000,1,15000,1,0.0017175,7.9294e-07,0,0.0017175,0.00021376,2.8414e+08,2.7133e+05,0,4.6256e+08,1.3165e+05,14999,12382,1,12382,1,0.00023594,1.7897e-10,0,0.00071478,-4.2667e-05,5.8674e+07,43.247,0,1.8271e+08,-1.3437,12381,9753,1,9753,1,-0.0011373,-9.7212e-07,0,2.3356e-05,-0.00031959,-4.6256e+08,-1.493e+05,0,5.7077e+06,-16080,9752,11091,1,11091,1,-0.00050351,-2.7778e-10,0,0.00034157,-0.0001807,-2.0474e+08,-65.156,0,1.0268e+08,-16.66,11090,13678,1,13678,1,0.00097538,5.9882e-10,0,0.001081,9.5126e-05,1.8271e+08,121.66,0,2.5328e+08,807.32,13677,1491.5,0,1491.5,0,0.00082791,1.306e-07,0,0.00044991,0.00015456,2.2285e+08,28884,0,1.1441e+08,19707,1491.5,1
4990,5.2,12381,1,12381,1,0.00025025,-1.201e-08,0,0.00073987,-4.5386e-05,-7.3688e+06,-42.124,0,1.9173e+08,6446.9,12380,15000,1,15000,1,0.0017208,7.9481e-07,0,0.0017208,0.00021418,2.8464e+08,2.7197e+05,0,4.6345e+08,1.319e+05,14999,12382,1,12382,1,0.00023641,2.5606e-10,0,0.00071615,-4.2752e-05,5.879e+07,63.987,0,1.8307e+08,-0.17374,12381,9753,1,9753,1,-0.0011395,-9.7345e-07,0,2.3411e-05,-0.00032021,-4.6345e+08,-1.4949e+05,0,5.7219e+06,-16064,9752,11091,1,11091,1,-0.00050447,-1.5424e-10,0,0.00034225,-0.00018105,-2.0513e+08,-37.998,0,1.0288e+08,-17.367,11090,13678,1,13678,1,0.00097728,6.0417e-10,0,0.0010831,9.5308e-05,1.8307e+08,122.54,0,2.5376e+08,804.16,13677,1491.5,0,1491.5,0,0.00082951,1.3079e-07,0,0.00045078,0.00015486,2.2328e+08,28939,0,1.1463e+08,19743,1491.5,1
4990,5.21,12381,1,12381,1,0.00025074,-1.2091e-08,0,0.0007413,-4.5476e-05,-7.3818e+06,-55.071,0,1.921e+08,6464,12380,15000,1,15000,1,0.0017241,7.9595e-07,0,0.0017241,0.00021459,2.8515e+08,2.7236e+05,0,4.6434e+08,1.3219e+05,14999,12382,1,12382,1,0.00023687,3.028e-10,0,0.00071752,-4.2836e-05,5.8905e+07,75.642,0,1.8342e+08,-0.50821,12381,9753,1,9753,1,-0.0011417,-9.763e-07,0,2.3466e-05,-0.00032082,-4.6434e+08,-1.4994e+05,0,5.7361e+06,-16040,9752,11091,1,11091,1,-0.00050543,-1.8845e-10,0,0.00034291,-0.0001814,-2.0552e+08,-47.115,0,1.0308e+08,-16.739,11090,13678,1,13678,1,0.00097917,7.9413e-10,0,0.0010852,9.549e-05,1.8342e+08,160.33,0,2.5425e+08,807.98,13677,1491.5,0,1491.5,0,0.00083111,1.3115e-07,0,0.00045165,0.00015516,2.2371e+08,28996,0,1.1485e+08,19785,1491.5,1
4990,5.22,12381,1,12381,1,0.00025124,-1.2206e-08,0,0.00074273,-4.5565e-05,-7.3948e+06,-74.266,0,1.9247e+08,6477.1,12380,15000,1,15000,1,0.0017275,7.9779e-07,0,0.0017275,0.000215,2.8566e+08,2.7299e+05,0,4.6522e+08,1.3243e+05,14999,12382,1,12382,1,0.00023734,-4.0021e-11,0,0.00071889,-4.292e-05,5.9021e+07,-9.0172,0,1.8377e+08,-1.9946,12381,9753,1,9753,1,-0.0011439,-9.7763e-07,0,2.3521e-05,-0.00032144,-4.6522e+08,-1.5013e+05,0,5.7503e+06,-16013,9752,11091,1,11091,1,-0.00050639,-4.3559e-10,0,0.00034358,-0.00018176,-2.0591e+08,-87.766,0,1.0328e+08,-12.717,11090,13678,1,13678,1,0.00098106,2.7553e-10,0,0.0010873,9.5672e-05,1.8377e+08,63.941,0,2.5474e+08,816.76,13677,1491.5,0,1491.5,0,0.00083271,1.3129e-07,0,0.00045252,0.00015546,2.2414e+08,29048,0,1.1507e+08,19823,1491.5,1
4990,5.23,12381,1,12381,1,0.00025173,-1.2137e-08,0,0.00074416,-4.5655e-05,-7.4078e+06,-55.308,0,1.9284e+08,6486,12380,15000,1,15000,1,0.0017308,7.997e-07,0,0.0017308,0.00021541,2.8616e+08,2.7364e+05,0,4.6611e+08,1.3268e+05,14999,12382,1,12382,1,0.0002378,3.6082e-11,0,0.00072026,-4.3005e-05,5.9137e+07,8.5616,0,1.8413e+08,-1.1414,12381,9753,1,9753,1,-0.0011461,-9.7872e-07,0,2.3577e-05,-0.00032206,-4.6611e+08,-1.5028e+05,0,5.7647e+06,-15998,9752,11091,1,11091,1,-0.00050736,-3.3773e-10,0,0.00034425,-0.00018211,-2.0631e+08,-72.778,0,1.0348e+08,-15.417,11090,13678,1,13678,1,0.00098296,4.0699e-10,0,0.0010894,9.5854e-05,1.8413e+08,92.397,0,2.5522e+08,812.69,13677,1491.5,0,1491.5,0,0.00083431,1.3144e-07,0,0.0004534,0.00015576,2.2456e+08,29101,0,1.1529e+08,19860,1491.5,1
4990,5.24,12381,1,12381,1,0.00025222,-1.2357e-08,0,0.00074558,-4.5744e-05,-7.4207e+06,-99.738,0,1.932e+08,6492.8,12380,15000,1,15000,1,0.0017341,8.0118e-07,0,0.0017341,0.00021582,2.8667e+08,2.7415e+05,0,4.6701e+08,1.3289e+05,14999,12382,1,12382,1,0.00023827,-4.4926e-10,0,0.00072163,-4.3089e-05,5.9253e+07,-106.95,0,1.8448e+08,0.56351,12381,9753,1,9753,1,-0.0011483,-9.791e-07,0,2.3632e-05,-0.00032268,-4.6701e+08,-1.504e+05,0,5.7791e+06,-16012,9752,11091,1,11091,1,-0.00050832,-1.1403e-09,0,0.00034492,-0.00018246,-2.067e+08,-230.08,0,1.0368e+08,-14.796,11090,13678,1,13678,1,0.00098485,1.9032e-10,0,0.0010915,9.6036e-05,1.8448e+08,52.614,0,2.5571e+08,807.06,13677,1491.5,0,1491.5,0,0.00083591,1.3153e-07,0,0.00045427,0.00015606,2.2499e+08,29138,0,1.155e+08,19884,1491.5,1
4990,5.25,12381,1,12381,1,0.00025272,-1.2988e-08,0,0.00074702,-4.5835e-05,-7.4337e+06,-332.25,0,1.9357e+08,6346.8,12380,15000,1,15000,1,0.0017376,8.0076e-07,0,0.0017376,0.00021624,2.8712e+08,2.74e+05,0,4.679e+08,1.3421e+05,14999,12382,1,12382,1,0.00023874,-7.2272e-10,0,0.00072301,-4.3175e-05,5.9371e+07,-185.59,0,1.8484e+08,-17.576,12381,9753,1,9753,1,-0.0011505,-9.6756e-07,0,2.3706e-05,-0.00032334,-4.679e+08,-1.4905e+05,0,5.7999e+06,-10956,9752,11091,1,11091,1,-0.00050928,-5.2031e-09,0,0.0003456,-0.00018281,-2.0709e+08,-1184.8,0,1.0388e+08,-75.73,11090,13678,1,13678,1,0.00098677,1.152e-09,0,0.0010936,9.6218e-05,1.8484e+08,264.91,0,2.562e+08,619.37,13677,1491.5,0,1491.5,0,0.00083752,1.282e-07,0,0.00045515,0.00015636,2.2542e+08,28666,0,1.1572e+08,19903,1491.5,1
4990,5.26,12381,1,12381,1,0.00025326,-1.1962e-08,0,0.00074847,-4.5932e-05,-7.4434e+06,-94.63,0,1.9393e+08,6445.8,12380,15000,1,15000,1,0.0017411,8.046e-07,0,0.0017411,0.00021664,2.8752e+08,2.7532e+05,0,4.6877e+08,1.3603e+05,14999,12382,1,12382,1,0.00023925,-1.3307e-10,0,0.00072434,-4.3266e-05,5.9497e+07,-32.241,0,1.852e+08,28.781,12381,9753,1,9753,1,-0.0011526,-9.8495e-07,0,2.38e-05,-0.00032398,-4.6877e+08,-1.5183e+05,0,5.8269e+06,-7470,9752,11091,1,11091,1,-0.0005102,-1.3944e-09,0,0.00034631,-0.00018317,-2.0746e+08,-350.9,0,1.0409e+08,-13.207,11090,13678,1,13678,1,0.0009887,1.3411e-09,0,0.0010958,9.6392e-05,1.852e+08,291.47,0,2.5661e+08,607.63,13677,1491.5,0,1491.5,0,0.00083912,1.2979e-07,0,0.00045603,0.00015666,2.2583e+08,28861,0,1.1593e+08,20153,1491.5,1
4990,5.27,12381,1,12381,1,0.0002538,-1.1911e-08,0,0.00074993,-4.6031e-05,-7.4534e+06,-65.947,0,1.9429e+08,6501,12380,15000,1,15000,1,0.0017445,8.0981e-07,0,0.0017445,0.00021705,2.8792e+08,2.771e+05,0,4.6966e+08,1.3739e+05,14999,12382,1,12382,1,0.00023977,1.0222e-10,0,0.00072569,-4.3361e-05,5.9625e+07,27.475,0,1.8557e+08,-5.6304,12381,9753,1,9753,1,-0.0011548,-9.9576e-07,0,2.3895e-05,-0.00032462,-4.6966e+08,-1.5348e+05,0,5.8542e+06,-4904.4,9752,11091,1,11091,1,-0.00051114,-3.5727e-10,0,0.00034704,-0.00018354,-2.0785e+08,-72.412,0,1.043e+08,-17.771,11090,13678,1,13678,1,0.00099067,5.686e-10,0,0.0010979,9.6569e-05,1.8557e+08,110.88,0,2.5703e+08,633.61,13677,1491.5,0,1491.5,0,0.00084075,1.3059e-07,0,0.00045693,0.00015696,2.2625e+08,29030,0,1.1614e+08,20358,1491.5,1
4990,5.28,12381,1,12381,1,0.00025435,-1.1468e-08,0,0.00075139,-4.613e-05,-7.4632e+06,44.648,0,1.9466e+08,6552,12380,15000,1,15000,1,0.001748,8.1454e-07,0,0.001748,0.00021746,2.8831e+08,2.7872e+05,0,4.7055e+08,1.3857e+05,14999,12382,1,12382,1,0.00024028,6.2317e-10,0,0.00072704,-4.3455e-05,5.9754e+07,134.53,0,1.8593e+08,12.191,12381,9753,1,9753,1,-0.001157,-1.0054e-06,0,2.3991e-05,-0.00032525,-4.7055e+08,-1.5495e+05,0,5.882e+06,-2760.2,9752,11091,1,11091,1,-0.00051207,4.6091e-11,0,0.00034777,-0.0001839,-2.0822e+08,13.41,0,1.0452e+08,-15.816,11090,13678,1,13678,1,0.00099264,1.6144e-09,0,0.0011001,9.6746e-05,1.8593e+08,383.04,0,2.5744e+08,613.68,13677,1491.5,0,1491.5,0,0.00084238,1.3145e-07,0,0.00045783,0.00015726,2.2667e+08,29192,0,1.1635e+08,20530,1491.5,1
4990,5.29,12381,1,12381,1,0.00025489,-1.2392e-08,0,0.00075285,-4.6229e-05,-7.4729e+06,-144.1,0,1.9502e+08,6594.7,12380,15000,1,15000,1,0.0017514,8.1939e-07,0,0.0017514,0.00021787,2.8871e+08,2.8038e+05,0,4.7143e+08,1.3956e+05,14999,12382,1,12382,1,0.0002408,-5.4452e-10,0,0.00072838,-4.3549e-05,5.9883e+07,-113.74,0,1.863e+08,1.6426,12381,9753,1,9753,1,-0.0011591,-1.0136e-06,0,2.4089e-05,-0.00032589,-4.7143e+08,-1.5604e+05,0,5.91e+06,-893.58,9752,11091,1,11091,1,-0.00051301,-1.1161e-09,0,0.00034849,-0.00018427,-2.086e+08,-233.42,0,1.0473e+08,-13.124,11090,13678,1,13678,1,0.00099461,9.7416e-11,0,0.0011023,9.6922e-05,1.863e+08,27.003,0,2.5786e+08,626.31,13677,1491.5,0,1491.5,0,0.000844,1.3196e-07,0,0.00045872,0.00015757,2.2709e+08,29326,0,1.1656e+08,20676,1491.5,1
4990,5.3,12381,1,12381,1,0.00025544,-1.2049e-08,0,0.00075431,-4.6328e-05,-7.4827e+06,-61.905,0,1.9538e+08,6630.1,12380,15000,1,15000,1,0.0017548,8.2367e-07,0,0.0017548,0.00021827,2.891e+08,2.8184e+05,0,4.7232e+08,1.4051e+05,14999,12382,1,12382,1,0.00024132,1.4137e-10,0,0.00072973,-4.3643e-05,6.0013e+07,36.497,0,1.8667e+08,-1.6811,12381,9753,1,9753,1,-0.0011613,-1.0217e-06,0,2.4187e-05,-0.00032653,-4.7232e+08,-1.5712e+05,0,5.9383e+06,-220.58,9752,11091,1,11091,1,-0.00051394,-2.8423e-10,0,0.00034922,-0.00018463,-2.0898e+08,-64.489,0,1.0494e+08,-15.039,11090,13678,1,13678,1,0.00099659,4.0414e-10,0,0.0011045,9.7099e-05,1.8667e+08,81.276,0,2.5828e+08,620.2,13677,1491.5,0,1491.5,0,0.00084563,1.3255e-07,0,0.00045962,0.00015787,2.2751e+08,29458,0,1.1677e+08,20819,1491.5,1
4990,5.31,12381,1,12381,1,0.00025599,-1.2054e-08,0,0.00075577,-4.6427e-05,-7.4924e+06,-51.255,0,1.9574e+08,6667.8,12380,15000,1,15000,1,0.0017583,8.2752e-07,0,0.0017583,0.00021868,2.895e+08,2.8316e+05,0,4.732e+08,1.4137e+05,14999,12382,1,12382,1,0.00024184,-1.706e-11,0,0.00073108,-4.3737e-05,6.0141e+07,-3.4262,0,1.8704e+08,16.217,12381,9753,1,9753,1,-0.0011635,-1.0293e-06,0,2.4286e-05,-0.00032717,-4.732e+08,-1.5813e+05,0,5.9668e+06,-287.49,9752,11091,1,11091,1,-0.00051487,-8.874e-10,0,0.00034994,-0.000185,-2.0936e+08,-232.7,0,1.0516e+08,-14.719,11090,13678,1,13678,1,0.00099855,1.1052e-09,0,0.0011067,9.7274e-05,1.8704e+08,236.36,0,2.5869e+08,607.82,13677,1491.5,0,1491.5,0,0.00084725,1.3315e-07,0,0.00046051,0.00015817,2.2793e+08,29578,0,1.1698e+08,20942,1491.5,1
4990,5.32,12381,1,12381,1,0.00025653,-1.2507e-08,0,0.00075723,-4.6527e-05,-7.5021e+06,-143.37,0,1.961e+08,6706.4,12380,15000,1,15000,1,0.0017617,8.304e-07,0,0.0017617,0.00021909,2.8989e+08,2.8415e+05,0,4.7409e+08,1.4224e+05,14999,12382,1,12382,1,0.00024236,-1.8782e-10,0,0.00073242,-4.3831e-05,6.027e+07,-42.941,0,1.874e+08,13.954,12381,9753,1,9753,1,-0.0011657,-1.0383e-06,0,2.4386e-05,-0.00032781,-4.7409e+08,-1.5951e+05,0,5.9954e+06,-302.41,9752,11091,1,11091,1,-0.0005158,-1.3557e-09,0,0.00035067,-0.00018536,-2.0974e+08,-334.59,0,1.0537e+08,-14.352,11090,13678,1,13678,1,0.0010005,9.4402e-10,0,0.0011088,9.745e-05,1.874e+08,214.38,0,2.591e+08,607.83,13677,1491.5,0,1491.5,0,0.00084887,1.3387e-07,0,0.00046141,0.00015848,2.2835e+08,29696,0,1.1719e+08,21071,1491.5,1
4990,5.33,12381,1,12381,1,0.00025708,-1.2191e-08,0,0.00075869,-4.6626e-05,-7.5119e+06,-65.078,0,1.9647e+08,6736.3,12380,15000,1,15000,1,0.0017651,8.3429e-07,0,0.0017651,0.0002195,2.9028e+08,2.8548e+05,0,4.7497e+08,1.4301e+05,14999,12382,1,12382,1,0.00024288,6.3726e-11,0,0.00073377,-4.3926e-05,6.04e+07,17.558,0,1.8777e+08,-7.2352,12381,9753,1,9753,1,-0.0011678,-1.0435e-06,0,2.4486e-05,-0.00032844,-4.7497e+08,-1.603e+05,0,6.0241e+06,-208.32,9752,11091,1,11091,1,-0.00051674,-7.4132e-10,0,0.0003514,-0.00018573,-2.1012e+08,-157.38,0,1.0558e+08,-23.725,11090,13678,1,13678,1,0.0010025,7.345e-10,0,0.001111,9.7627e-05,1.8777e+08,152.23,0,2.5952e+08,623.41,13677,1491.5,0,1491.5,0,0.0008505,1.3417e-07,0,0.00046231,0.00015878,2.2877e+08,29794,0,1.174e+08,21188,1491.5,1
4990,5.34,12381,1,12381,1,0.00025763,-1.1916e-08,0,0.00076015,-4.6725e-05,-7.5215e+06,2.226,0,1.9683e+08,6766.5,12380,15000,1,15000,1,0.0017686,8.3658e-07,0,0.0017686,0.00021991,2.9067e+08,2.8626e+05,0,4.7586e+08,1.4381e+05,14999,12382,1,12382,1,0.0002434,5.6975e-10,0,0.00073511,-4.402e-05,6.0529e+07,124.52,0,1.8814e+08,12.539,12381,9753,1,9753,1,-0.00117,-1.0521e-06,0,2.4586e-05,-0.00032908,-4.7586e+08,-1.6162e+05,0,6.0529e+06,-368.11,9752,11091,1,11091,1,-0.00051766,-6.784e-11,0,0.00035212,-0.00018609,-2.105e+08,-18.26,0,1.058e+08,-20.743,11090,13678,1,13678,1,0.0010045,1.5654e-09,0,0.0011132,9.7802e-05,1.8814e+08,369.1,0,2.5993e+08,586.79,13677,1491.5,0,1491.5,0,0.00085212,1.3496e-07,0,0.0004632,0.00015908,2.2918e+08,29908,0,1.1761e+08,21305,1491.5,1
4990,5.35,12381,1,12381,1,0.00025818,-1.26e-08,0,0.00076161,-4.6825e-05,-7.5312e+06,-137.88,0,1.9719e+08,6784.5,12380,15000,1,15000,1,0.001772,8.4162e-07,0,0.001772,0.00022032,2.9107e+08,2.8799e+05,0,4.7674e+08,1.4433e+05,14999,12382,1,12382,1,0.00024392,-6.4526e-10,0,0.00073646,-4.4115e-05,6.0659e+07,-166.2,0,1.8851e+08,0.46933,12381,9753,1,9753,1,-0.0011722,-1.0527e-06,0,2.4688e-05,-0.00032972,-4.7674e+08,-1.6172e+05,0,6.0821e+06,-265.99,9752,11091,1,11091,1,-0.0005186,-1.4248e-09,0,0.00035285,-0.00018646,-2.1088e+08,-277.35,0,1.0601e+08,-18.077,11090,13678,1,13678,1,0.0010064,4.4651e-11,0,0.0011154,9.7979e-05,1.8851e+08,13.353,0,2.6035e+08,600.42,13677,1491.5,0,1491.5,0,0.00085375,1.3475e-07,0,0.0004641,0.00015939,2.296e+08,29976,0,1.1782e+08,21381,1491.5,1
4990,5.36,12381,1,12381,1,0.00025872,-1.1842e-08,0,0.00076307,-4.6924e-05,-7.5408e+06,35.074,0,1.9755e+08,6816.7,12380,15000,1,15000,1,0.0017754,8.4447e-07,0,0.0017754,0.00022073,2.9145e+08,2.8896e+05,0,4.7763e+08,1.4506e+05,14999,12382,1,12382,1,0.00024444,3.3404e-10,0,0.00073781,-4.421e-05,6.0788e+07,67.983,0,1.8888e+08,3.7816,12381,9753,1,9753,1,-0.0011744,-1.0594e-06,0,2.4789e-05,-0.00033035,-4.7763e+08,-1.6274e+05,0,6.1113e+06,-261.06,9752,11091,1,11091,1,-0.00051953,1.1043e-10,0,0.00035358,-0.00018682,-2.1126e+08,30.96,0,1.0623e+08,-16.524,11090,13678,1,13678,1,0.0010084,7.3863e-10,0,0.0011176,9.8155e-05,1.8888e+08,165.03,0,2.6076e+08,603.68,13677,1491.5,0,1491.5,0,0.00085537,1.3537e-07,0,0.000465,0.00015969,2.3002e+08,30082,0,1.1803e+08,21488,1491.5,1
4990,5.37,12381,1,12381,1,0.00025927,-1.2491e-08,0,0.00076453,-4.7024e-05,-7.5503e+06,-99.328,0,1.9791e+08,6847.5,12380,15000,1,15000,1,0.0017789,8.4657e-07,0,0.0017789,0.00022114,2.9184e+08,2.8968e+05,0,4.7851e+08,1.4572e+05,14999,12382,1,12382,1,0.00024496,-9.6021e-11,0,0.00073915,-4.4304e-05,6.0917e+07,-23.712,0,1.8924e+08,-4.4832,12381,9753,1,9753,1,-0.0011765,-1.0661e-06,0,2.4891e-05,-0.00033099,-4.7851e+08,-1.6378e+05,0,6.1405e+06,-218.27,9752,11091,1,11091,1,-0.00052046,-8.7062e-10,0,0.00035431,-0.00018719,-2.1163e+08,-184.79,0,1.0644e+08,-17.814,11090,13678,1,13678,1,0.0010104,2.4974e-10,0,0.0011197,9.833e-05,1.8924e+08,56.389,0,2.6117e+08,614.37,13677,1491.5,0,1491.5,0,0.000857,1.3592e-07,0,0.00046589,0.00015999,2.3044e+08,30172,0,1.1824e+08,21585,1491.5,1
4990,5.38,12381,1,12381,1,0.00025982,-1.2377e-08,0,0.00076599,-4.7123e-05,-7.5599e+06,-69.744,0,1.9827e+08,6869.9,12380,15000,1,15000,1,0.0017823,8.4947e-07,0,0.0017823,0.00022154,2.9223e+08,2.9067e+05,0,4.7939e+08,1.4634e+05,14999,12382,1,12382,1,0.00024548,2.6339e-11,0,0.0007405,-4.4399e-05,6.1047e+07,7.1192,0,1.8961e+08,-4.2422,12381,9753,1,9753,1,-0.0011787,-1.0709e-06,0,2.4993e-05,-0.00033163,-4.7939e+08,-1.6451e+05,0,6.1699e+06,-217.37,9752,11091,1,11091,1,-0.00052139,-6.2918e-10,0,0.00035504,-0.00018755,-2.1201e+08,-136.48,0,1.0665e+08,-19.279,11090,13678,1,13678,1,0.0010124,5.3724e-10,0,0.0011219,9.8506e-05,1.8961e+08,120.34,0,2.6158e+08,606.82,13677,1491.5,0,1491.5,0,0.00085862,1.3628e-07,0,0.00046679,0.0001603,2.3085e+08,30255,0,1.1845e+08,21678,1491.5,1
4990,5.39,12381,1,12381,1,0.00026037,-1.2429e-08,0,0.00076745,-4.7223e-05,-7.5694e+06,-74.209,0,1.9863e+08,6895,12380,15000,1,15000,1,0.0017857,8.5186e-07,0,0.0017857,0.00022195,2.9262e+08,2.9149e+05,0,4.8027e+08,1.4693e+05,14999,12382,1,12382,1,0.000246,4.9486e-11,0,0.00074184,-4.4494e-05,6.1176e+07,12.357,0,1.8998e+08,-5.4381,12381,9753,1,9753,1,-0.0011809,-1.076e-06,0,2.5096e-05,-0.00033226,-4.8027e+08,-1.653e+05,0,6.1994e+06,-211.1,9752,11091,1,11091,1,-0.00052232,-6.9368e-10,0,0.00035576,-0.00018792,-2.1239e+08,-157.83,0,1.0687e+08,-22.333,11090,13678,1,13678,1,0.0010143,7.0361e-10,0,0.0011241,9.8682e-05,1.8998e+08,158.61,0,2.6199e+08,609.91,13677,1491.5,0,1491.5,0,0.00086024,1.3671e-07,0,0.00046769,0.0001606,2.3127e+08,30337,0,1.1866e+08,21764,1491.5,1
4990,5.4,12381,1,12381,1,0.00026091,-1.2529e-08,0,0.0007689,-4.7322e-05,-7.5789e+06,-90.348,0,1.9899e+08,6918.9,12380,15000,1,15000,1,0.0017892,8.5422e-07,0,0.0017892,0.00022236,2.93e+08,2.923e+05,0,4.8116e+08,1.4751e+05,14999,12382,1,12382,1,0.00024652,9.1954e-11,0,0.00074318,-4.4588e-05,6.1306e+07,21.61,0,1.9035e+08,0.32952,12381,9753,1,9753,1,-0.0011831,-1.0812e-06,0,2.5199e-05,-0.0003329,-4.8116e+08,-1.6609e+05,0,6.2291e+06,-217.87,9752,11091,1,11091,1,-0.00052325,-2.681e-10,0,0.00035649,-0.00018828,-2.1277e+08,-63.961,0,1.0708e+08,-13.402,11090,13678,1,13678,1,0.0010163,2.9971e-10,0,0.0011263,9.8857e-05,1.9035e+08,62.342,0,2.624e+08,604.99,13677,1491.5,0,1491.5,0,0.00086186,1.3715e-07,0,0.00046858,0.0001609,2.3169e+08,30418,0,1.1887e+08,21848,1491.5,1
4990,5.41,12381,1,12381,1,0.00026147,-8.7667e-09,0,0.0007704,-4.7424e-05,-7.5891e+06,745.87,0,1.9936e+08,6891.9,12380,15000,1,15000,1,0.0017925,8.6116e-07,0,0.0017925,0.00022279,2.9337e+08,2.9467e+05,0,4.8208e+08,1.4802e+05,14999,12382,1,12382,1,0.00024706,2.3023e-09,0,0.00074457,-4.4687e-05,6.144e+07,536.87,0,1.9073e+08,-37.621,12381,9753,1,9753,1,-0.0011853,-1.075e-06,0,2.5301e-05,-0.00033352,-4.8208e+08,-1.6515e+05,0,6.2583e+06,-371.91,9752,11091,1,11091,1,-0.00052418,-2.6758e-09,0,0.00035725,-0.00018866,-2.1315e+08,-618.61,0,1.073e+08,-127.32,11090,13678,1,13678,1,0.0010183,9.2747e-09,0,0.0011285,9.9037e-05,1.9073e+08,2186.5,0,2.6283e+08,548.61,13677,1491.5,0,1491.5,0,0.00086353,1.3648e-07,0,0.0004695,0.00016121,2.3212e+08,30503,0,1.1909e+08,21935,1491.5,1
4990,5.42,12381,1,12381,1,0.00026201,-1.2692e-08,0,0.00077183,-4.7522e-05,-7.5978e+06,-101.89,0,1.9972e+08,6967.1,12380,15000,1,15000,1,0.001796,8.5977e-07,0,0.001796,0.00022318,2.9377e+08,2.942e+05,0,4.8292e+08,1.4857e+05,14999,12382,1,12382,1,0.00024757,-1.5983e-10,0,0.00074587,-4.4778e-05,6.1566e+07,-37.587,0,1.9108e+08,4.906,12381,9753,1,9753,1,-0.0011874,-1.0894e-06,0,2.5405e-05,-0.00033417,-4.8292e+08,-1.6736e+05,0,6.2882e+06,-212.62,9752,11091,1,11091,1,-0.0005251,-9.4153e-10,0,0.00035795,-0.00018902,-2.1352e+08,-202.56,0,1.0751e+08,-11.589,11090,13678,1,13678,1,0.0010202,4.9815e-10,0,0.0011306,9.9208e-05,1.9108e+08,134.99,0,2.6322e+08,602.62,13677,1491.5,0,1491.5,0,0.00086511,1.3783e-07,0,0.00047037,0.00016151,2.3252e+08,30588,0,1.1929e+08,22001,1491.5,1
4990,5.43,12381,1,12381,1,0.00026256,-1.2444e-08,0,0.00077328,-4.7621e-05,-7.6073e+06,-52.711,0,2.0008e+08,6981.8,12380,15000,1,15000,1,0.0017994,8.62e-07,0,0.0017994,0.00022358,2.9416e+08,2.9496e+05,0,4.8381e+08,1.4912e+05,14999,12382,1,12382,1,0.00024809,1.3593e-10,0,0.00074721,-4.4873e-05,6.1695e+07,29.504,0,1.9145e+08,0.29163,12381,9753,1,9753,1,-0.0011896,-1.0932e-06,0,2.5511e-05,-0.00033481,-4.8381e+08,-1.6794e+05,0,6.3186e+06,-224.3,9752,11091,1,11091,1,-0.00052603,-1.4145e-10,0,0.00035868,-0.00018938,-2.139e+08,-32.626,0,1.0772e+08,-14.037,11090,13678,1,13678,1,0.0010222,4.3493e-10,0,0.0011328,9.9384e-05,1.9145e+08,99.906,0,2.6363e+08,599.65,13677,1491.5,0,1491.5,0,0.00086674,1.3812e-07,0,0.00047127,0.00016181,2.3294e+08,30645,0,1.195e+08,22084,1491.5,1
4990,5.44,12381,1,12381,1,0.00026311,-1.2394e-08,0,0.00077474,-4.7721e-05,-7.6167e+06,-35.325,0,2.0044e+08,6999.1,12380,15000,1,15000,1,0.0018029,8.6464e-07,0,0.0018029,0.00022399,2.9454e+08,2.9586e+05,0,4.8469e+08,1.4963e+05,14999,12382,1,12382,1,0.00024861,2.6472e-11,0,0.00074855,-4.4967e-05,6.1825e+07,6.022,0,1.9182e+08,1.354,12381,9753,1,9753,1,-0.0011917,-1.0964e-06,0,2.5616e-05,-0.00033545,-4.8469e+08,-1.6843e+05,0,6.3487e+06,-245.84,9752,11091,1,11091,1,-0.00052696,-1.3666e-10,0,0.00035941,-0.00018975,-2.1428e+08,-26.503,0,1.0794e+08,-13.576,11090,13678,1,13678,1,0.0010242,2.9982e-10,0,0.001135,9.9559e-05,1.9182e+08,75.819,0,2.6404e+08,593.53,13677,1491.5,0,1491.5,0,0.00086836,1.3836e-07,0,0.00047217,0.00016211,2.3336e+08,30711,0,1.1971e+08,22155,1491.5,1
4990,5.45,12381,1,12381,1,0.00026366,-1.291e-08,0,0.00077621,-4.7821e-05,-7.6261e+06,-145.08,0,2.008e+08,7011.5,12380,15000,1,15000,1,0.0018063,8.675e-07,0,0.0018063,0.0002244,2.9492e+08,2.9684e+05,0,4.8558e+08,1.5014e+05,14999,12382,1,12382,1,0.00024913,-6.0196e-10,0,0.00074989,-4.5062e-05,6.1955e+07,-132.86,0,1.9219e+08,7.5539,12381,9753,1,9753,1,-0.0011939,-1.0989e-06,0,2.5721e-05,-0.00033608,-4.8558e+08,-1.6881e+05,0,6.379e+06,-290.25,9752,11091,1,11091,1,-0.00052788,-1.3678e-09,0,0.00036014,-0.00019011,-2.1465e+08,-302.04,0,1.0815e+08,-17.47,11090,13678,1,13678,1,0.0010262,5.2765e-12,0,0.0011372,9.9734e-05,1.9219e+08,1.5666,0,2.6445e+08,572.61,13677,1491.5,0,1491.5,0,0.00086999,1.3849e-07,0,0.00047306,0.00016242,2.3377e+08,30772,0,1.1992e+08,22219,1491.5,1
4990,5.46,12381,1,12381,1,0.00026421,-1.3193e-08,0,0.00077766,-4.7921e-05,-7.6354e+06,-203.07,0,2.0116e+08,7041,12380,15000,1,15000,1,0.0018097,8.6884e-07,0,0.0018097,0.00022481,2.953e+08,2.973e+05,0,4.8646e+08,1.5073e+05,14999,12382,1,12382,1,0.00024965,-6.5567e-10,0,0.00075123,-4.5157e-05,6.2084e+07,-140.9,0,1.9255e+08,6.4882,12381,9753,1,9753,1,-0.0011961,-1.1052e-06,0,2.5826e-05,-0.00033672,-4.8646e+08,-1.6979e+05,0,6.4093e+06,-248.42,9752,11091,1,11091,1,-0.00052881,-1.4483e-09,0,0.00036087,-0.00019048,-2.1503e+08,-355.26,0,1.0837e+08,-10.39,11090,13678,1,13678,1,0.0010281,-3.6543e-11,0,0.0011393,9.9909e-05,1.9255e+08,-8.746,0,2.6486e+08,586.87,13677,1491.5,0,1491.5,0,0.0008716,1.3911e-07,0,0.00047396,0.00016272,2.3419e+08,30855,0,1.2013e+08,22300,1491.5,1
4990,5.47,12381,1,12381,1,0.00026477,-1.3139e-08,0,0.00077917,-4.8024e-05,-7.6455e+06,-193.26,0,2.0153e+08,7004.8,12380,15000,1,15000,1,0.0018132,8.7558e-07,0,0.0018132,0.00022524,2.9568e+08,2.996e+05,0,4.8738e+08,1.511e+05,14999,12382,1,12382,1,0.0002502,3.6496e-11,0,0.00075263,-4.5257e-05,6.222e+07,11.336,0,1.9294e+08,-37.161,12381,9753,1,9753,1,-0.0011984,-1.0976e-06,0,2.5931e-05,-0.00033736,-4.8738e+08,-1.6861e+05,0,6.4394e+06,-551.13,9752,11091,1,11091,1,-0.00052976,-8.8997e-09,0,0.00036163,-0.00019085,-2.1541e+08,-1996.1,0,1.0859e+08,-130.32,11090,13678,1,13678,1,0.0010302,4.9537e-09,0,0.0011416,0.00010009,1.9293e+08,1136.2,0,2.6528e+08,556.08,13677,1491.5,0,1491.5,0,0.00087328,1.3809e-07,0,0.00047488,0.00016303,2.3462e+08,30924,0,1.2034e+08,22355,1491.5,1
4990,5.48,12381,1,12381,1,0.00026531,-1.2445e-08,0,0.00078058,-4.8121e-05,-7.654e+06,-28.246,0,2.0188e+08,7089.9,12380,15000,1,15000,1,0.0018166,8.7322e-07,0,0.0018166,0.00022562,2.9606e+08,2.988e+05,0,4.8822e+08,1.5183e+05,14999,12382,1,12382,1,0.00025071,4.3949e-10,0,0.00075392,-4.5348e-05,6.2346e+07,101.35,0,1.9329e+08,5.8837,12381,9753,1,9753,1,-0.0012004,-1.1138e-06,0,2.6037e-05,-0.00033799,-4.8822e+08,-1.711e+05,0,6.4699e+06,-198.21,9752,11091,1,11091,1,-0.00053066,-4.5562e-10,0,0.00036233,-0.00019121,-2.1578e+08,-123.53,0,1.088e+08,-11.997,11090,13678,1,13678,1,0.0010321,1.3495e-09,0,0.0011437,0.00010026,1.9329e+08,311.45,0,2.6567e+08,595.4,13677,1491.5,0,1491.5,0,0.00087485,1.3993e-07,0,0.00047575,0.00016332,2.3502e+08,31018,0,1.2054e+08,22446,1491.5,1
4990,5.49,12381,1,12381,1,0.00026586,-1.2727e-08,0,0.00078204,-4.8221e-05,-7.6634e+06,-82.289,0,2.0224e+08,7100.8,12380,15000,1,15000,1,0.00182,8.7485e-07,0,0.00182,0.00022603,2.9644e+08,2.9936e+05,0,4.891e+08,1.5234e+05,14999,12382,1,12382,1,0.00025123,9.4816e-11,0,0.00075525,-4.5443e-05,6.2475e+07,22.245,0,1.9366e+08,-2.6479,12381,9753,1,9753,1,-0.0012026,-1.1171e-06,0,2.6144e-05,-0.00033863,-4.891e+08,-1.716e+05,0,6.5004e+06,-214.68,9752,11091,1,11091,1,-0.00053159,-4.5173e-10,0,0.00036306,-0.00019157,-2.1616e+08,-102,0,1.0901e+08,-16.883,11090,13678,1,13678,1,0.001034,6.6701e-10,0,0.0011459,0.00010043,1.9366e+08,157.43,0,2.6608e+08,595.99,13677,1491.5,0,1491.5,0,0.00087647,1.4015e-07,0,0.00047665,0.00016363,2.3544e+08,31060,0,1.2075e+08,22516,1491.5,1
4990,5.5,12381,1,12381,1,0.00026642,-1.2456e-08,0,0.00078351,-4.8322e-05,-7.6728e+06,-18.392,0,2.026e+08,7100.1,12380,15000,1,15000,1,0.0018235,8.791e-07,0,0.0018235,0.00022644,2.9681e+08,3.0081e+05,0,4.8999e+08,1.527e+05,14999,12382,1,12382,1,0.00025175,-3.2358e-11,0,0.0007566,-4.5538e-05,6.2606e+07,-8.0826,0,1.9403e+08,-0.58541,12381,9753,1,9753,1,-0.0012048,-1.1153e-06,0,2.6251e-05,-0.00033927,-4.8999e+08,-1.7133e+05,0,6.5314e+06,-288.3,9752,11091,1,11091,1,-0.00053252,-4.4371e-10,0,0.00036379,-0.00019194,-2.1654e+08,-101.02,0,1.0923e+08,-21.206,11090,13678,1,13678,1,0.001036,3.2265e-10,0,0.0011481,0.00010061,1.9403e+08,81.411,0,2.6649e+08,557.29,13677,1491.5,0,1491.5,0,0.00087811,1.3987e-07,0,0.00047755,0.00016393,2.3586e+08,31104,0,1.2096e+08,22565,1491.5,1
4990,5.51,12381,1,12381,1,0.00026696,-1.2604e-08,0,0.00078496,-4.8421e-05,-7.682e+06,-45.417,0,2.0296e+08,7132.9,12380,15000,1,15000,1,0.0018269,8.7964e-07,0,0.0018269,0.00022685,2.9719e+08,3.0099e+05,0,4.9086e+08,1.5332e+05,14999,12382,1,12382,1,0.00025228,2.6682e-10,0,0.00075793,-4.5633e-05,6.2736e+07,63.92,0,1.944e+08,-1.7713,12381,9753,1,9753,1,-0.0012069,-1.1231e-06,0,2.6358e-05,-0.0003399,-4.9086e+08,-1.7252e+05,0,6.562e+06,-232.83,9752,11091,1,11091,1,-0.00053344,-1.4238e-10,0,0.00036452,-0.00019231,-2.1691e+08,-33.188,0,1.0944e+08,-14.352,11090,13678,1,13678,1,0.001038,7.0158e-10,0,0.0011502,0.00010078,1.944e+08,150.1,0,2.6689e+08,586.85,13677,1491.5,0,1491.5,0,0.00087972,1.4066e-07,0,0.00047844,0.00016423,2.3627e+08,31192,0,1.2117e+08,22645,1491.5,1
4990,5.52,12381,1,12381,1,0.00026752,-1.299e-08,0,0.00078643,-4.8522e-05,-7.6912e+06,-125.42,0,2.0332e+08,7136.5,12380,15000,1,15000,1,0.0018303,8.836e-07,0,0.0018303,0.00022726,2.9757e+08,3.0235e+05,0,4.9175e+08,1.537e+05,14999,12382,1,12382,1,0.0002528,-7.1817e-10,0,0.00075928,-4.5729e-05,6.2867e+07,-178.2,0,1.9477e+08,0.57165,12381,9753,1,9753,1,-0.0012091,-1.1215e-06,0,2.6466e-05,-0.00034054,-4.9175e+08,-1.7228e+05,0,6.593e+06,-292.74,9752,11091,1,11091,1,-0.00053437,-1.6767e-09,0,0.00036526,-0.00019267,-2.1729e+08,-331.37,0,1.0965e+08,-21.088,11090,13678,1,13678,1,0.00104,7.6997e-11,0,0.0011524,0.00010096,1.9476e+08,23.351,0,2.673e+08,555.37,13677,1491.5,0,1491.5,0,0.00088135,1.4039e-07,0,0.00047934,0.00016454,2.3669e+08,31233,0,1.2138e+08,22693,1491.5,1
4990,5.53,12381,1,12381,1,0.00026807,-1.2748e-08,0,0.00078789,-4.8622e-05,-7.7004e+06,-69.014,0,2.0368e+08,7152.7,12380,15000,1,15000,1,0.0018338,8.8621e-07,0,0.0018338,0.00022766,2.9794e+08,3.0324e+05,0,4.9263e+08,1.5416e+05,14999,12382,1,12382,1,0.00025333,-5.2333e-10,0,0.00076062,-4.5825e-05,6.2998e+07,-131,0,1.9513e+08,3.328,12381,9753,1,9753,1,-0.0012113,-1.1239e-06,0,2.6574e-05,-0.00034118,-4.9263e+08,-1.7265e+05,0,6.624e+06,-297.97,9752,11091,1,11091,1,-0.00053529,-1.2439e-09,0,0.00036599,-0.00019304,-2.1767e+08,-253.9,0,1.0987e+08,-19.386,11090,13678,1,13678,1,0.001042,1.3579e-10,0,0.0011546,0.00010114,1.9513e+08,35.477,0,2.6771e+08,552.18,13677,1491.5,0,1491.5,0,0.00088298,1.406e-07,0,0.00048024,0.00016484,2.3711e+08,31298,0,1.2159e+08,22754,1491.5,1
4990,5.54,12381,1,12381,1,0.00026862,-1.256e-08,0,0.00078934,-4.8722e-05,-7.7096e+06,-22.264,0,2.0404e+08,7183.1,12380,15000,1,15000,1,0.0018372,8.858e-07,0,0.0018372,0.00022807,2.9831e+08,3.031e+05,0,4.9351e+08,1.5477e+05,14999,12382,1,12382,1,0.00025385,4.7327e-10,0,0.00076195,-4.592e-05,6.3128e+07,114.62,0,1.955e+08,-2.6377,12381,9753,1,9753,1,-0.0012134,-1.1332e-06,0,2.6681e-05,-0.00034181,-4.9351e+08,-1.7408e+05,0,6.6548e+06,-253.9,9752,11091,1,11091,1,-0.00053621,-2.0979e-10,0,0.00036672,-0.0001934,-2.1804e+08,-48.752,0,1.1008e+08,-20.814,11090,13678,1,13678,1,0.0010439,1.2536e-09,0,0.0011568,0.00010131,1.955e+08,254.53,0,2.6811e+08,574.31,13677,1491.5,0,1491.5,0,0.00088459,1.4156e-07,0,0.00048114,0.00016514,2.3752e+08,31385,0,1.218e+08,22839,1491.5,1
4990,5.55,12381,1,12381,1,0.00026918,-1.2676e-08,0,0.00079081,-4.8823e-05,-7.7188e+06,-42.898,0,2.044e+08,7184.7,12380,15000,1,15000,1,0.0018406,8.8921e-07,0,0.0018406,0.00022848,2.9869e+08,3.0427e+05,0,4.9439e+08,1.551e+05,14999,12382,1,12382,1,0.00025438,6.8785e-11,0,0.0007633,-4.6016e-05,6.3259e+07,14.572,0,1.9587e+08,0.19017,12381,9753,1,9753,1,-0.0012156,-1.1321e-06,0,2.679e-05,-0.00034245,-4.9439e+08,-1.7391e+05,0,6.6861e+06,-269.08,9752,11091,1,11091,1,-0.00053715,-5.7152e-10,0,0.00036745,-0.00019377,-2.1842e+08,-137.12,0,1.103e+08,-20.653,11090,13678,1,13678,1,0.0010459,4.0576e-10,0,0.001159,0.00010148,1.9587e+08,102.06,0,2.6852e+08,557.33,13677,1491.5,0,1491.5,0,0.00088622,1.4135e-07,0,0.00048204,0.00016545,2.3794e+08,31420,0,1.2201e+08,22880,1491.5,1
4990,5.56,12381,1,12381,1,0.00026973,-1.282e-08,0,0.00079226,-4.8923e-05,-7.7278e+06,-68.059,0,2.0476e+08,7214.9,12380,15000,1,15000,1,0.001844,8.8998e-07,0,0.001844,0.00022888,2.9906e+08,3.0453e+05,0,4.9527e+08,1.5565e+05,14999,12382,1,12382,1,0.0002549,8.4221e-11,0,0.00076463,-4.6111e-05,6.3389e+07,21.487,0,1.9624e+08,-3.5391,12381,9753,1,9753,1,-0.0012178,-1.1385e-06,0,2.6898e-05,-0.00034309,-4.9527e+08,-1.749e+05,0,6.7172e+06,-230.57,9752,11091,1,11091,1,-0.00053806,-5.516e-10,0,0.00036818,-0.00019414,-2.1879e+08,-120.63,0,1.1051e+08,-17.385,11090,13678,1,13678,1,0.0010479,5.3983e-10,0,0.0011611,0.00010166,1.9624e+08,121.45,0,2.6892e+08,583.08,13677,1491.5,0,1491.5,0,0.00088784,1.42e-07,0,0.00048293,0.00016575,2.3835e+08,31498,0,1.2221e+08,22955,1491.5,1
4990,5.57,12381,1,12381,1,0.00027028,-1.3327e-08,0,0.00079371,-4.9023e-05,-7.7369e+06,-176.59,0,2.0512e+08,7232.9,12380,15000,1,15000,1,0.0018475,8.913e-07,0,0.0018475,0.00022929,2.9943e+08,3.0498e+05,0,4.9615e+08,1.5612e+05,14999,12382,1,12382,1,0.00025543,-3.9243e-10,0,0.00076596,-4.6206e-05,6.3519e+07,-86.535,0,1.966e+08,3.0923,12381,9753,1,9753,1,-0.0012199,-1.1424e-06,0,2.7007e-05,-0.00034373,-4.9615e+08,-1.7548e+05,0,6.7486e+06,-236.66,9752,11091,1,11091,1,-0.00053898,-8.4669e-10,0,0.00036891,-0.0001945,-2.1917e+08,-184.82,0,1.1073e+08,-10.106,11090,13678,1,13678,1,0.0010498,-7.1471e-11,0,0.0011633,0.00010183,1.966e+08,-16.041,0,2.6932e+08,579.52,13677,1491.5,0,1491.5,0,0.00088946,1.4237e-07,0,0.00048382,0.00016605,2.3876e+08,31553,0,1.2242e+08,23014,1491.5,1
4990,5.58,12381,1,12381,1,0.00027086,-1.0528e-08,0,0.00079525,-4.9129e-05,-7.7471e+06,411.43,0,2.055e+08,7194.7,12380,15000,1,15000,1,0.0018508,9.0333e-07,0,0.0018508,0.00022973,2.9979e+08,3.091e+05,0,4.9711e+08,1.5684e+05,14999,12382,1,12382,1,0.00025599,3.2034e-10,0,0.00076739,-4.6309e-05,6.366e+07,78.78,0,1.97e+08,-39.4,12381,9753,1,9753,1,-0.0012223,-1.1189e-06,0,2.7116e-05,-0.00034435,-4.9711e+08,-1.7188e+05,0,6.7799e+06,-921.23,9752,11091,1,11091,1,-0.00053994,-1.126e-08,0,0.00036971,-0.00019489,-2.1955e+08,-2513.8,0,1.1096e+08,-183.21,11090,13678,1,13678,1,0.0010519,1.0121e-08,0,0.0011656,0.00010202,1.9699e+08,2266.3,0,2.6975e+08,602.54,13677,1491.5,0,1491.5,0,0.00089117,1.3999e-07,0,0.00048477,0.00016637,2.392e+08,31626,0,1.2264e+08,23116,1491.5,1
4990,5.59,12381,1,12381,1,0.00027141,-9.8946e-09,0,0.00079664,-4.923e-05,-7.754e+06,438.01,0,2.0583e+08,7107.2,12380,15000,1,15000,1,0.0018548,8.9359e-07,0,0.0018548,0.0002301,3.001e+08,3.0577e+05,0,4.9791e+08,1.6258e+05,14999,12382,1,12382,1,0.00025651,2.4216e-09,0,0.00076861,-4.6403e-05,6.3788e+07,551.34,0,1.9735e+08,52.267,12381,9753,1,9753,1,-0.0012242,-1.1223e-06,0,2.7284e-05,-0.00034508,-4.9791e+08,-1.7426e+05,0,6.8313e+06,-711.46,9752,11091,1,11091,1,-0.00054079,1.7217e-10,0,0.00037041,-0.00019523,-2.199e+08,41.217,0,1.1117e+08,-18.381,11090,13678,1,13678,1,0.0010538,5.4237e-09,0,0.0011677,0.00010217,1.9735e+08,1122.3,0,2.7009e+08,180.02,13677,1491.5,0,1491.5,0,0.0008927,1.3821e-07,0,0.00048562,0.00016665,2.3958e+08,30833,0,1.2283e+08,23669,1491.5,1
4990,5.6,12381,1,12381,1,0.00027213,-1.27e-08,0,0.0007982,-4.936e-05,-7.7587e+06,-174.64,0,2.0617e+08,7225.6,12380,15000,1,15000,1,0.0018588,9.1041e-07,0,0.0018588,0.0002305,3.0031e+08,3.1152e+05,0,4.9877e+08,1.6934e+05,14999,12382,1,12382,1,0.00025719,-6.6584e-10,0,0.00076988,-4.6527e-05,6.3957e+07,-153.08,0,1.9776e+08,13.082,12381,9753,1,9753,1,-0.0012264,-1.1557e-06,0,2.7528e-05,-0.00034583,-4.9877e+08,-1.7941e+05,0,6.9067e+06,-864.12,9752,11091,1,11091,1,-0.00054164,-1.9964e-09,0,0.00037131,-0.00019565,-2.2025e+08,-394.64,0,1.1142e+08,-45.865,11090,13678,1,13678,1,0.001056,4.149e-10,0,0.0011701,0.00010233,1.9776e+08,126.2,0,2.7035e+08,74.903,13677,1491.5,0,1491.5,0,0.00089441,1.3875e-07,0,0.0004866,0.00016697,2.3997e+08,31071,0,1.2302e+08,24658,1491.5,1
4990,5.61,12381,1,12381,1,0.00027286,-1.3434e-08,0,0.00079975,-4.9494e-05,-7.7616e+06,-312.4,0,2.0649e+08,7440.2,12380,15000,1,15000,1,0.0018628,9.2737e-07,0,0.0018628,0.0002309,3.0049e+08,3.1732e+05,0,4.9963e+08,1.7548e+05,14999,12382,1,12382,1,0.00025789,-1.7008e-09,0,0.0007711,-4.6655e-05,6.4132e+07,-398.73,0,1.9817e+08,37.552,12381,9753,1,9753,1,-0.0012285,-1.2132e-06,0,2.7786e-05,-0.00034656,-4.9963e+08,-1.8791e+05,0,6.9865e+06,-1115.1,9752,11091,1,11091,1,-0.00054242,-6.2579e-09,0,0.00037223,-0.00019605,-2.2056e+08,-1536.5,0,1.1168e+08,-77.002,11090,13678,1,13678,1,0.0010582,4.3254e-09,0,0.0011725,0.00010248,1.9816e+08,949.4,0,2.7056e+08,258.03,13677,1491.5,0,1491.5,0,0.00089609,1.428e-07,0,0.00048757,0.00016729,2.4034e+08,31748,0,1.2319e+08,25613,1491.5,1
4990,5.62,12381,1,12381,1,0.00027362,-1.1778e-08,0,0.00080135,-4.9631e-05,-7.7655e+06,91.771,0,2.0683e+08,7592.4,12380,15000,1,15000,1,0.0018667,9.4965e-07,0,0.0018667,0.0002313,3.0065e+08,3.2495e+05,0,5.0051e+08,1.8081e+05,14999,12382,1,12382,1,0.00025862,-4.0118e-10,0,0.00077239,-4.6789e-05,6.4313e+07,-116.21,0,1.986e+08,-39.75,12381,9753,1,9753,1,-0.0012306,-1.2464e-06,0,2.8046e-05,-0.00034728,-5.0051e+08,-1.9244e+05,0,7.0668e+06,-1206,9752,11091,1,11091,1,-0.00054327,-2.9639e-09,0,0.00037318,-0.00019648,-2.2091e+08,-627.23,0,1.1195e+08,-155.12,11090,13678,1,13678,1,0.0010605,2.1843e-09,0,0.0011751,0.00010264,1.9859e+08,461.43,0,2.708e+08,33.26,13677,1491.5,0,1491.5,0,0.00089784,1.4432e-07,0,0.00048858,0.00016761,2.4073e+08,32274,0,1.2338e+08,26458,1491.5,1
4990,5.63,12381,1,12381,1,0.00027439,-9.8347e-09,0,0.00080298,-4.9771e-05,-7.7691e+06,571.34,0,2.0718e+08,7765.4,12380,15000,1,15000,1,0.0018705,9.705e-07,0,0.0018705,0.00023172,3.0081e+08,3.3208e+05,0,5.0141e+08,1.8558e+05,14999,12382,1,12382,1,0.00025936,1.2779e-09,0,0.00077369,-4.6927e-05,6.4499e+07,335.63,0,1.9903e+08,-63.746,12381,9753,1,9753,1,-0.0012329,-1.2789e-06,0,2.8305e-05,-0.00034798,-5.0141e+08,-1.9683e+05,0,7.1464e+06,-1174.9,9752,11091,1,11091,1,-0.0005441,-6.4133e-09,0,0.00037415,-0.00019691,-2.2125e+08,-1494.2,0,1.1222e+08,-202.43,11090,13678,1,13678,1,0.0010628,9.7067e-09,0,0.0011776,0.0001028,1.9903e+08,2218,0,2.7102e+08,62.016,13677,1491.5,0,1491.5,0,0.00089961,1.4651e-07,0,0.0004896,0.00016794,2.4112e+08,32897,0,1.2356e+08,27189,1491.5,1
4990,5.64,12381,1,12381,1,0.00027514,-1.3509e-08,0,0.00080451,-4.9906e-05,-7.7708e+06,-174.48,0,2.075e+08,7999.9,12380,15000,1,15000,1,0.0018744,9.7961e-07,0,0.0018744,0.0002321,3.0099e+08,3.352e+05,0,5.0223e+08,1.8977e+05,14999,12382,1,12382,1,0.00026008,-5.587e-10,0,0.00077487,-4.7056e-05,6.4676e+07,-153.09,0,1.9944e+08,51.005,12381,9753,1,9753,1,-0.0012349,-1.3346e-06,0,2.8568e-05,-0.00034871,-5.0223e+08,-2.054e+05,0,7.2271e+06,-1061.8,9752,11091,1,11091,1,-0.00054488,-2.1527e-09,0,0.00037507,-0.00019732,-2.2156e+08,-426.15,0,1.1248e+08,-19.647,11090,13678,1,13678,1,0.001065,6.0587e-10,0,0.00118,0.00010295,1.9944e+08,154.68,0,2.7121e+08,128.58,13677,1491.5,0,1491.5,0,0.00090128,1.5095e-07,0,0.00049056,0.00016825,2.4148e+08,33456,0,1.2373e+08,27833,1491.5,1
4990,5.65,12381,1,12381,1,0.00027587,-1.1764e-08,0,0.00080603,-5.0039e-05,-7.7735e+06,224.02,0,2.0782e+08,8160.1,12380,15000,1,15000,1,0.0018782,9.8367e-07,0,0.0018782,0.0002325,3.0115e+08,3.3659e+05,0,5.031e+08,1.9411e+05,14999,12382,1,12382,1,0.00026078,3.5602e-09,0,0.00077607,-4.7184e-05,6.485e+07,851.21,0,1.9985e+08,28.865,12381,9753,1,9753,1,-0.001237,-1.3848e-06,0,2.8838e-05,-0.00034941,-5.031e+08,-2.1345e+05,0,7.3098e+06,-1121.5,9752,11091,1,11091,1,-0.00054565,-6.2067e-10,0,0.00037599,-0.00019772,-2.2188e+08,-155.45,0,1.1274e+08,-64.962,11090,13678,1,13678,1,0.0010672,7.999e-09,0,0.0011824,0.00010309,1.9984e+08,1693.7,0,2.7141e+08,223.26,13677,1491.5,0,1491.5,0,0.00090294,1.5575e-07,0,0.00049152,0.00016856,2.4185e+08,33939,0,1.2391e+08,28497,1491.5,1
4990,5.66,12381,1,12381,1,0.00027662,-1.3905e-08,0,0.00080765,-5.0177e-05,-7.7773e+06,-206.83,0,2.0816e+08,8221.8,12380,15000,1,15000,1,0.0018821,1.003e-06,0,0.0018821,0.0002329,3.0132e+08,3.4319e+05,0,5.0395e+08,1.9805e+05,14999,12382,1,12382,1,0.0002615,-6.8774e-10,0,0.00077736,-4.7318e-05,6.5031e+07,-147.1,0,2.0027e+08,-7.6466,12381,9753,1,9753,1,-0.0012391,-1.3907e-06,0,2.9108e-05,-0.00035013,-5.0395e+08,-2.1404e+05,0,7.3921e+06,-1301,9752,11091,1,11091,1,-0.0005465,-2.1324e-09,0,0.00037694,-0.00019815,-2.2222e+08,-362.69,0,1.1301e+08,-110.24,11090,13678,1,13678,1,0.0010695,1.4329e-10,0,0.0011849,0.00010325,2.0027e+08,45.692,0,2.7165e+08,42.602,13677,1491.5,0,1491.5,0,0.0009047,1.5432e-07,0,0.00049253,0.00016889,2.4224e+08,34125,0,1.2409e+08,29079,1491.5,1
4990,5.67,12381,1,12381,1,0.00027739,-1.3707e-08,0,0.00080923,-5.0315e-05,-7.7799e+06,-151.04,0,2.0849e+08,8362.4,12380,15000,1,15000,1,0.0018859,1.0158e-06,0,0.0018859,0.0002333,3.0147e+08,3.4757e+05,0,5.0481e+08,2.0206e+05,14999,12382,1,12382,1,0.00026224,-9.5773e-11,0,0.0007786,-4.7452e-05,6.5213e+07,-21.016,0,2.007e+08,-2.0051,12381,9753,1,9753,1,-0.0012412,-1.4213e-06,0,2.9383e-05,-0.00035085,-5.0481e+08,-2.1857e+05,0,7.4763e+06,-1230.7,9752,11091,1,11091,1,-0.00054731,-5.7619e-10,0,0.00037789,-0.00019857,-2.2255e+08,-132.34,0,1.1327e+08,-72.202,11090,13678,1,13678,1,0.0010718,1.4052e-10,0,0.0011874,0.00010341,2.007e+08,35.449,0,2.7185e+08,10.463,13677,1491.5,0,1491.5,0,0.00090642,1.5655e-07,0,0.00049353,0.00016921,2.4261e+08,34564,0,1.2427e+08,29626,1491.5,1
4990,5.68,12381,1,12381,1,0.00027814,-1.7274e-08,0,0.00081079,-5.0453e-05,-7.7825e+06,-917.73,0,2.0882e+08,8473.7,12380,15000,1,15000,1,0.0018898,1.0255e-06,0,0.0018898,0.0002337,3.0164e+08,3.5089e+05,0,5.0569e+08,2.0577e+05,14999,12382,1,12382,1,0.00026296,-4.0403e-09,0,0.00077984,-4.7585e-05,6.5394e+07,-950.75,0,2.0112e+08,-7.7081,12381,9753,1,9753,1,-0.0012434,-1.451e-06,0,2.9659e-05,-0.00035157,-5.0569e+08,-2.2314e+05,0,7.5603e+06,-1328.4,9752,11091,1,11091,1,-0.00054809,-6.4204e-09,0,0.00037883,-0.00019898,-2.2287e+08,-1375.9,0,1.1354e+08,-87.605,11090,13678,1,13678,1,0.001074,-1.4666e-09,0,0.0011899,0.00010356,2.0112e+08,-346.19,0,2.7205e+08,46.578,13677,1491.5,0,1491.5,0,0.00090812,1.5852e-07,0,0.00049451,0.00016953,2.4298e+08,34929,0,1.2445e+08,30126,1491.5,1
4990,5.69,12381,1,12381,1,0.0002789,-1.3309e-08,0,0.00081238,-5.059e-05,-7.7854e+06,-47.389,0,2.0915e+08,8585.2,12380,15000,1,15000,1,0.0018936,1.0384e-06,0,0.0018936,0.00023409,3.0178e+08,3.5532e+05,0,5.0654e+08,2.0943e+05,14999,12382,1,12382,1,0.00026369,-1.248e-10,0,0.00078108,-4.7719e-05,6.5575e+07,-34.733,0,2.0154e+08,6.7717,12381,9753,1,9753,1,-0.0012455,-1.4687e-06,0,2.9938e-05,-0.00035227,-5.0654e+08,-2.2575e+05,0,7.6452e+06,-1306.6,9752,11091,1,11091,1,-0.00054891,-1.2785e-09,0,0.00037978,-0.00019941,-2.232e+08,-355.13,0,1.1381e+08,-84.847,11090,13678,1,13678,1,0.0010763,1.2435e-09,0,0.0011924,0.00010371,2.0154e+08,231.6,0,2.7226e+08,60.888,13677,1491.5,0,1491.5,0,0.00090984,1.5968e-07,0,0.00049551,0.00016985,2.4336e+08,35236,0,1.2463e+08,30627,1491.5,1
4990,5.7,12381,1,12381,1,0.00027965,-1.3634e-08,0,0.00081395,-5.0728e-05,-7.788e+06,-72.161,0,2.0948e+08,8693,12380,15000,1,15000,1,0.0018974,1.0476e-06,0,0.0018974,0.00023449,3.0194e+08,3.5847e+05,0,5.0739e+08,2.1281e+05,14999,12382,1,12382,1,0.00026442,1.9742e-10,0,0.00078232,-4.7852e-05,6.5756e+07,39.36,0,2.0196e+08,3.4277,12381,9753,1,9753,1,-0.0012476,-1.4943e-06,0,3.0213e-05,-0.00035297,-5.0739e+08,-2.297e+05,0,7.7291e+06,-1288.7,9752,11091,1,11091,1,-0.00054971,-6.7781e-10,0,0.00038073,-0.00019983,-2.2353e+08,-180.72,0,1.1407e+08,-54.97,11090,13678,1,13678,1,0.0010785,1.2464e-09,0,0.0011949,0.00010386,2.0196e+08,242.46,0,2.7246e+08,26.881,13677,1491.5,0,1491.5,0,0.00091155,1.6159e-07,0,0.00049649,0.00017016,2.4373e+08,35571,0,1.2481e+08,31080,1491.5,1
4990,5.71,12381,1,12381,1,0.00028041,-1.3928e-08,0,0.00081552,-5.0866e-05,-7.7906e+06,-110.16,0,2.0981e+08,8780.9,12380,15000,1,15000,1,0.0019013,1.0567e-06,0,0.0019013,0.00023489,3.0209e+08,3.6158e+05,0,5.0825e+08,2.1601e+05,14999,12382,1,12382,1,0.00026515,1.6287e-11,0,0.00078356,-4.7986e-05,6.5938e+07,3.8852,0,2.0238e+08,3.3518,12381,9753,1,9753,1,-0.0012497,-1.5142e-06,0,3.0493e-05,-0.00035369,-5.0825e+08,-2.328e+05,0,7.814e+06,-1328.7,9752,11091,1,11091,1,-0.00055051,-1.163e-09,0,0.00038168,-0.00020025,-2.2385e+08,-283.18,0,1.1434e+08,-61.813,11090,13678,1,13678,1,0.0010808,1.127e-09,0,0.0011973,0.00010401,2.0238e+08,256.21,0,2.7267e+08,32.513,13677,1491.5,0,1491.5,0,0.00091327,1.6289e-07,0,0.00049749,0.00017048,2.4411e+08,35839,0,1.2498e+08,31510,1491.5,1
4990,5.72,12381,1,12381,1,0.00028117,-1.4e-08,0,0.00081711,-5.1005e-05,-7.7933e+06,-106.46,0,2.1014e+08,8859,12380,15000,1,15000,1,0.0019051,1.0665e-06,0,0.0019051,0.00023528,3.0224e+08,3.6494e+05,0,5.0912e+08,2.1915e+05,14999,12382,1,12382,1,0.00026588,-2.8306e-10,0,0.0007848,-4.812e-05,6.612e+07,-55.359,0,2.028e+08,-0.74387,12381,9753,1,9753,1,-0.0012518,-1.5312e-06,0,3.0775e-05,-0.0003544,-5.0912e+08,-2.3539e+05,0,7.8996e+06,-1387,9752,11091,1,11091,1,-0.00055131,-1.4064e-09,0,0.00038263,-0.00020067,-2.2418e+08,-329.55,0,1.1461e+08,-81.698,11090,13678,1,13678,1,0.0010831,5.9433e-10,0,0.0011998,0.00010417,2.028e+08,148.04,0,2.7287e+08,28.824,13677,1491.5,0,1491.5,0,0.00091499,1.6387e-07,0,0.00049848,0.0001708,2.4449e+08,36089,0,1.2516e+08,31935,1491.5,1
4990,5.73,12381,1,12381,1,0.00028194,-1.6225e-08,0,0.00081868,-5.1144e-05,-7.7958e+06,-578.7,0,2.1047e+08,8936.7,12380,15000,1,15000,1,0.001909,1.075e-06,0,0.001909,0.00023568,3.0239e+08,3.6784e+05,0,5.0998e+08,2.2205e+05,14999,12382,1,12382,1,0.00026662,-2.8252e-09,0,0.00078604,-4.8255e-05,6.6303e+07,-662.61,0,2.0323e+08,-13.103,12381,9753,1,9753,1,-0.0012539,-1.5504e-06,0,3.1059e-05,-0.00035511,-5.0998e+08,-2.384e+05,0,7.9856e+06,-1475.4,9752,11091,1,11091,1,-0.00055209,-6.2827e-09,0,0.00038359,-0.00020108,-2.245e+08,-1361.2,0,1.1488e+08,-134.76,11090,13678,1,13678,1,0.0010853,-3.1856e-10,0,0.0012023,0.00010431,2.0322e+08,-70.155,0,2.7307e+08,74.736,13677,1491.5,0,1491.5,0,0.0009167,1.6503e-07,0,0.00049947,0.00017112,2.4486e+08,36353,0,1.2534e+08,32332,1491.5,1
4990,5.74,12381,1,12381,1,0.00028269,-1.6033e-08,0,0.00082024,-5.1281e-05,-7.798e+06,-541.84,0,2.1079e+08,9027.1,12380,15000,1,15000,1,0.0019128,1.0825e-06,0,0.0019128,0.00023608,3.0253e+08,3.7041e+05,0,5.1084e+08,2.251e+05,14999,12382,1,12382,1,0.00026734,-2.5359e-09,0,0.00078725,-4.8388e-05,6.6483e+07,-585.51,0,2.0365e+08,11.149,12381,9753,1,9753,1,-0.001256,-1.5691e-06,0,3.1346e-05,-0.00035582,-5.1084e+08,-2.4134e+05,0,8.0724e+06,-1568.6,9752,11091,1,11091,1,-0.00055288,-6.3914e-09,0,0.00038453,-0.0002015,-2.2482e+08,-1525.3,0,1.1514e+08,-104.84,11090,13678,1,13678,1,0.0010876,4.8094e-10,0,0.0012047,0.00010446,2.0364e+08,89.726,0,2.7326e+08,134.57,13677,1491.5,0,1491.5,0,0.0009184,1.6637e-07,0,0.00050045,0.00017144,2.4523e+08,36599,0,1.2552e+08,32712,1491.5,1
4990,5.75,12381,1,12381,1,0.00028346,-1.3385e-08,0,0.00082182,-5.142e-05,-7.8008e+06,47.874,0,2.1112e+08,9082.9,12380,15000,1,15000,1,0.0019166,1.0916e-06,0,0.0019166,0.00023647,3.0267e+08,3.7351e+05,0,5.1168e+08,2.2805e+05,14999,12382,1,12382,1,0.00026808,7.5403e-11,0,0.0007885,-4.8523e-05,6.6667e+07,20.919,0,2.0407e+08,-18.374,12381,9753,1,9753,1,-0.0012581,-1.5824e-06,0,3.1633e-05,-0.00035652,-5.1168e+08,-2.4341e+05,0,8.1589e+06,-1559.7,9752,11091,1,11091,1,-0.0005537,-6.7538e-10,0,0.00038548,-0.00020192,-2.2515e+08,-208.7,0,1.1541e+08,-86.305,11090,13678,1,13678,1,0.0010899,2.3458e-09,0,0.0012072,0.00010462,2.0407e+08,389.46,0,2.7347e+08,41.646,13677,1491.5,0,1491.5,0,0.00092012,1.6727e-07,0,0.00050145,0.00017176,2.456e+08,36802,0,1.2569e+08,33089,1491.5,1
4990,5.76,12381,1,12381,1,0.00028422,-1.4125e-08,0,0.00082339,-5.1559e-05,-7.8029e+06,-76.511,0,2.1145e+08,9171.5,12380,15000,1,15000,1,0.0019204,1.0973e-06,0,0.0019204,0.00023686,3.0281e+08,3.7548e+05,0,5.1254e+08,2.3081e+05,14999,12382,1,12382,1,0.00026881,1.5886e-10,0,0.00078972,-4.8657e-05,6.6848e+07,37.306,0,2.0449e+08,0.15143,12381,9753,1,9753,1,-0.0012602,-1.602e-06,0,3.1918e-05,-0.00035722,-5.1254e+08,-2.4657e+05,0,8.2449e+06,-1482.6,9752,11091,1,11091,1,-0.00055449,-5.6437e-10,0,0.00038643,-0.00020234,-2.2547e+08,-158.67,0,1.1568e+08,-61.291,11090,13678,1,13678,1,0.0010921,1.197e-09,0,0.0012097,0.00010477,2.0449e+08,224.17,0,2.7366e+08,39.956,13677,1491.5,0,1491.5,0,0.00092182,1.6873e-07,0,0.00050244,0.00017208,2.4597e+08,37027,0,1.2587e+08,33431,1491.5,1
4990,5.77,12381,1,12381,1,0.00028498,-1.4287e-08,0,0.00082497,-5.1698e-05,-7.8054e+06,-95.356,0,2.1178e+08,9227.9,12380,15000,1,15000,1,0.0019242,1.1045e-06,0,0.0019242,0.00023726,3.0295e+08,3.7794e+05,0,5.1339e+08,2.3352e+05,14999,12382,1,12382,1,0.00026955,2.5845e-12,0,0.00079096,-4.8792e-05,6.7031e+07,0.91506,0,2.0491e+08,-11.315,12381,9753,1,9753,1,-0.0012623,-1.6148e-06,0,3.2207e-05,-0.00035793,-5.1339e+08,-2.4863e+05,0,8.3319e+06,-1518.3,9752,11091,1,11091,1,-0.00055529,-7.2956e-10,0,0.00038738,-0.00020276,-2.258e+08,-147.08,0,1.1594e+08,-59.149,11090,13678,1,13678,1,0.0010944,7.9642e-10,0,0.0012122,0.00010492,2.0491e+08,148.97,0,2.7386e+08,5.3491,13677,1491.5,0,1491.5,0,0.00092354,1.6944e-07,0,0.00050343,0.0001724,2.4635e+08,37199,0,1.2605e+08,33774,1491.5,1
4990,5.78,12381,1,12381,1,0.00028577,-1.4042e-08,0,0.00082661,-5.1842e-05,-7.8085e+06,-29.827,0,2.1212e+08,9165.5,12380,15000,1,15000,1,0.001928,1.1196e-06,0,0.001928,0.00023769,3.0308e+08,3.8311e+05,0,5.1431e+08,2.3645e+05,14999,12382,1,12382,1,0.00027031,-1.0538e-09,0,0.00079227,-4.8934e-05,6.7222e+07,-274.83,0,2.0536e+08,-131.06,12381,9753,1,9753,1,-0.0012646,-1.607e-06,0,3.2497e-05,-0.00035863,-5.1431e+08,-2.4707e+05,0,8.4193e+06,-2453.8,9752,11091,1,11091,1,-0.00055611,-1.3249e-08,0,0.00038839,-0.0002032,-2.2613e+08,-3038.3,0,1.1623e+08,-326.8,11090,13678,1,13678,1,0.0010968,8.8323e-09,0,0.0012148,0.00010507,2.0535e+08,2093.5,0,2.7416e+08,21.377,13677,1491.5,0,1491.5,0,0.00092533,1.6827e-07,0,0.00050447,0.00017273,2.4674e+08,37434,0,1.2624e+08,34169,1491.5,1
4990,5.79,12381,1,12381,1,0.00028652,-1.4324e-08,0,0.00082812,-5.1979e-05,-7.8092e+06,-75.943,0,2.1243e+08,9413,12380,15000,1,15000,1,0.0019318,1.1189e-06,0,0.0019318,0.00023805,3.0322e+08,3.8285e+05,0,5.151e+08,2.3863e+05,14999,12382,1,12382,1,0.00027104,2.8436e-10,0,0.0007934,-4.9065e-05,6.7402e+07,75.069,0,2.0576e+08,58.987,12381,9753,1,9753,1,-0.0012665,-1.6505e-06,0,3.2788e-05,-0.00035934,-5.151e+08,-2.5417e+05,0,8.5067e+06,-1470.6,9752,11091,1,11091,1,-0.00055686,-1.0265e-09,0,0.00038931,-0.00020361,-2.2644e+08,-276.28,0,1.1648e+08,-25.01,11090,13678,1,13678,1,0.0010989,1.6807e-09,0,0.0012172,0.00010522,2.0576e+08,354.05,0,2.7455e+08,159.73,13677,1491.5,0,1491.5,0,0.00092696,1.7222e-07,0,0.00050542,0.00017303,2.4708e+08,37710,0,1.264e+08,34394,1491.5,1
4990,5.8,12381,1,12381,1,0.00028728,-1.2848e-08,0,0.0008297,-5.2118e-05,-7.8121e+06,264.53,0,2.1276e+08,9386.8,12380,15000,1,15000,1,0.0019356,1.1277e-06,0,0.0019356,0.00023845,3.0335e+08,3.8586e+05,0,5.1596e+08,2.4116e+05,14999,12382,1,12382,1,0.00027177,3.2379e-10,0,0.00079465,-4.9199e-05,6.7584e+07,61.873,0,2.0618e+08,-18.976,12381,9753,1,9753,1,-0.0012686,-1.6485e-06,0,3.3081e-05,-0.00036005,-5.1596e+08,-2.5391e+05,0,8.5948e+06,-1719.2,9752,11091,1,11091,1,-0.00055766,-1.4267e-09,0,0.00039026,-0.00020403,-2.2676e+08,-371.68,0,1.1675e+08,-121.9,11090,13678,1,13678,1,0.0011012,2.8003e-09,0,0.0012197,0.00010537,2.0618e+08,731.83,0,2.7496e+08,29.919,13677,1491.5,0,1491.5,0,0.00092868,1.714e-07,0,0.00050642,0.00017335,2.4746e+08,37751,0,1.2658e+08,34724,1491.5,1
4990,5.81,12381,1,12381,1,0.00028805,-1.4872e-08,0,0.00083127,-5.2257e-05,-7.8139e+06,-168.48,0,2.1308e+08,9480.2,12380,15000,1,15000,1,0.0019395,1.1308e-06,0,0.0019395,0.00023884,3.0349e+08,3.8692e+05,0,5.1681e+08,2.435e+05,14999,12382,1,12382,1,0.0002725,-1.4818e-10,0,0.00079586,-4.9333e-05,6.7766e+07,-45.41,0,2.066e+08,23.399,12381,9753,1,9753,1,-0.0012707,-1.6706e-06,0,3.3376e-05,-0.00036076,-5.1681e+08,-2.5755e+05,0,8.6831e+06,-1648.5,9752,11091,1,11091,1,-0.00055844,-1.3253e-09,0,0.00039121,-0.00020444,-2.2708e+08,-257.72,0,1.1702e+08,-63.054,11090,13678,1,13678,1,0.0011034,8.7754e-10,0,0.0012222,0.00010552,2.066e+08,163.39,0,2.7537e+08,77.476,13677,1491.5,0,1491.5,0,0.00093038,1.7322e-07,0,0.0005074,0.00017367,2.4783e+08,37956,0,1.2675e+08,35013,1491.5,1
4990,5.82,12381,1,12381,1,0.00028882,-1.4565e-08,0,0.00083284,-5.2397e-05,-7.8161e+06,-104.96,0,2.1341e+08,9526.4,12380,15000,1,15000,1,0.0019433,1.1358e-06,0,0.0019433,0.00023923,3.0362e+08,3.8864e+05,0,5.1766e+08,2.4588e+05,14999,12382,1,12382,1,0.00027324,2.3778e-10,0,0.00079708,-4.9468e-05,6.7949e+07,49.415,0,2.0702e+08,14.642,12381,9753,1,9753,1,-0.0012728,-1.6818e-06,0,3.3675e-05,-0.00036147,-5.1766e+08,-2.5945e+05,0,8.7725e+06,-1677.7,9752,11091,1,11091,1,-0.00055923,-1.0927e-09,0,0.00039216,-0.00020486,-2.274e+08,-234.61,0,1.1729e+08,-77.808,11090,13678,1,13678,1,0.0011057,1.8106e-09,0,0.0012246,0.00010567,2.0702e+08,393.37,0,2.7578e+08,66.792,13677,1491.5,0,1491.5,0,0.00093209,1.7391e-07,0,0.00050839,0.00017399,2.482e+08,38078,0,1.2693e+08,35317,1491.5,1
4990,5.83,12381,1,12381,1,0.00028959,-1.4471e-08,0,0.00083441,-5.2537e-05,-7.8182e+06,-70.254,0,2.1373e+08,9561.3,12380,15000,1,15000,1,0.0019472,1.1428e-06,0,0.0019472,0.00023963,3.0374e+08,3.9104e+05,0,5.1851e+08,2.4813e+05,14999,12382,1,12382,1,0.00027398,-5.0214e-10,0,0.00079831,-4.9604e-05,6.8133e+07,-126.31,0,2.0744e+08,-19.541,12381,9753,1,9753,1,-0.0012749,-1.6875e-06,0,3.3973e-05,-0.00036218,-5.1851e+08,-2.6039e+05,0,8.8617e+06,-1698.8,9752,11091,1,11091,1,-0.00056002,-1.6953e-09,0,0.00039312,-0.00020529,-2.2772e+08,-316.9,0,1.1755e+08,-80.064,11090,13678,1,13678,1,0.001108,3.8111e-10,0,0.0012271,0.00010581,2.0744e+08,106.31,0,2.7619e+08,16.079,13677,1491.5,0,1491.5,0,0.0009338,1.7396e-07,0,0.00050939,0.00017431,2.4857e+08,38185,0,1.271e+08,35599,1491.5,1
4990,5.84,12381,1,12381,1,0.00029036,-1.4158e-08,0,0.00083599,-5.2678e-05,-7.8201e+06,1.6307,0,2.1406e+08,9619.9,12380,15000,1,15000,1,0.001951,1.1475e-06,0,0.001951,0.00024002,3.0387e+08,3.9264e+05,0,5.1937e+08,2.5035e+05,14999,12382,1,12382,1,0.00027472,8.1648e-10,0,0.00079952,-4.974e-05,6.8318e+07,180.71,0,2.0787e+08,0.85871,12381,9753,1,9753,1,-0.001277,-1.7028e-06,0,3.4271e-05,-0.00036288,-5.1937e+08,-2.629e+05,0,8.9508e+06,-1742.7,9752,11091,1,11091,1,-0.0005608,-3.3446e-11,0,0.00039408,-0.00020571,-2.2804e+08,-8.5432,0,1.1782e+08,-75.096,11090,13678,1,13678,1,0.0011102,1.9789e-09,0,0.0012296,0.00010596,2.0787e+08,405.49,0,2.7659e+08,38.729,13677,1491.5,0,1491.5,0,0.00093551,1.7521e-07,0,0.00051038,0.00017463,2.4894e+08,38366,0,1.2728e+08,35875,1491.5,1
4990,5.85,12381,1,12381,1,0.00029112,-1.4421e-08,0,0.00083755,-5.2818e-05,-7.8219e+06,-42.606,0,2.1438e+08,9674,12380,15000,1,15000,1,0.0019548,1.1523e-06,0,0.0019548,0.00024041,3.04e+08,3.9429e+05,0,5.2022e+08,2.5257e+05,14999,12382,1,12382,1,0.00027546,5.0461e-10,0,0.00080074,-4.9876e-05,6.8502e+07,114.85,0,2.0829e+08,6.4571,12381,9753,1,9753,1,-0.0012791,-1.7146e-06,0,3.4571e-05,-0.00036359,-5.2022e+08,-2.6487e+05,0,9.0402e+06,-1747.1,9752,11091,1,11091,1,-0.00056158,-3.1987e-10,0,0.00039504,-0.00020612,-2.2835e+08,-66.235,0,1.1809e+08,-69.261,11090,13678,1,13678,1,0.0011125,1.6419e-09,0,0.0012321,0.00010611,2.0829e+08,375.22,0,2.77e+08,33.632,13677,1491.5,0,1491.5,0,0.00093721,1.7599e-07,0,0.00051137,0.00017494,2.493e+08,38502,0,1.2745e+08,36150,1491.5,1
4990,5.86,12381,1,12381,1,0.0002919,-1.4643e-08,0,0.00083913,-5.2959e-05,-7.8239e+06,-87.044,0,2.1471e+08,9702.9,12380,15000,1,15000,1,0.0019586,1.1576e-06,0,0.0019586,0.00024081,3.0412e+08,3.9611e+05,0,5.2107e+08,2.5463e+05,14999,12382,1,12382,1,0.00027621,4.1668e-10,0,0.00080197,-5.0013e-05,6.8688e+07,97.564,0,2.0871e+08,-12.085,12381,9753,1,9753,1,-0.0012812,-1.7226e-06,0,3.4873e-05,-0.0003643,-5.2107e+08,-2.6623e+05,0,9.1301e+06,-1796.2,9752,11091,1,11091,1,-0.00056237,-7.2358e-10,0,0.00039601,-0.00020655,-2.2867e+08,-146.38,0,1.1836e+08,-85.481,11090,13678,1,13678,1,0.0011148,1.611e-09,0,0.0012346,0.00010626,2.0871e+08,391.51,0,2.7741e+08,11.013,13677,1491.5,0,1491.5,0,0.00093893,1.7638e-07,0,0.00051236,0.00017526,2.4967e+08,38610,0,1.2763e+08,36409,1491.5,1
4990,5.87,12381,1,12381,1,0.00029267,-1.4314e-08,0,0.00084071,-5.31e-05,-7.8257e+06,-9.9225,0,2.1503e+08,9752.3,12380,15000,1,15000,1,0.0019625,1.1625e-06,0,0.0019625,0.0002412,3.0424e+08,3.9778e+05,0,5.2192e+08,2.5666e+05,14999,12382,1,12382,1,0.00027695,8.4397e-10,0,0.00080318,-5.015e-05,6.8874e+07,187.7,0,2.0914e+08,-0.51983,12381,9753,1,9753,1,-0.0012833,-1.7331e-06,0,3.5176e-05,-0.00036501,-5.2192e+08,-2.6797e+05,0,9.2203e+06,-1826.2,9752,11091,1,11091,1,-0.00056315,-2.5117e-10,0,0.00039697,-0.00020697,-2.2899e+08,-65.29,0,1.1863e+08,-81.639,11090,13678,1,13678,1,0.0011171,2.4462e-09,0,0.0012371,0.00010641,2.0914e+08,598.2,0,2.7781e+08,34.948,13677,1491.5,0,1491.5,0,0.00094064,1.7712e-07,0,0.00051336,0.00017558,2.5004e+08,38744,0,1.278e+08,36659,1491.5,1
4990,5.88,12381,1,12381,1,0.00029345,-1.4416e-08,0,0.00084229,-5.3242e-05,-7.8274e+06,-24.054,0,2.1535e+08,9793.7,12380,15000,1,15000,1,0.0019663,1.1674e-06,0,0.0019663,0.0002416,3.0436e+08,3.9944e+05,0,5.2277e+08,2.5864e+05,14999,12382,1,12382,1,0.0002777,7.4833e-10,0,0.0008044,-5.0287e-05,6.9059e+07,162.64,0,2.0956e+08,1.883,12381,9753,1,9753,1,-0.0012854,-1.7425e-06,0,3.548e-05,-0.00036572,-5.2277e+08,-2.6954e+05,0,9.3106e+06,-1855.7,9752,11091,1,11091,1,-0.00056393,-3.6448e-10,0,0.00039794,-0.00020739,-2.2931e+08,-99.707,0,1.189e+08,-92.098,11090,13678,1,13678,1,0.0011193,2.7087e-09,0,0.0012396,0.00010656,2.0956e+08,669.68,0,2.7822e+08,46.874,13677,1491.5,0,1491.5,0,0.00094235,1.7771e-07,0,0.00051435,0.0001759,2.5041e+08,38864,0,1.2798e+08,36904,1491.5,1
4990,5.89,12381,1,12381,1,0.00029423,-1.438e-08,0,0.00084386,-5.3384e-05,-7.8292e+06,-8.3915,0,2.1568e+08,9828.9,12380,15000,1,15000,1,0.0019701,1.1728e-06,0,0.0019701,0.00024199,3.0448e+08,4.0129e+05,0,5.2362e+08,2.6076e+05,14999,12382,1,12382,1,0.00027845,7.4335e-10,0,0.00080562,-5.0424e-05,6.9246e+07,166.31,0,2.0999e+08,-2.6594,12381,9753,1,9753,1,-0.0012875,-1.7503e-06,0,3.5785e-05,-0.00036643,-5.2362e+08,-2.7085e+05,0,9.4013e+06,-1902.1,9752,11091,1,11091,1,-0.00056471,-4.425e-10,0,0.00039891,-0.00020781,-2.2963e+08,-97.82,0,1.1917e+08,-94.696,11090,13678,1,13678,1,0.0011216,2.5229e-09,0,0.0012421,0.0001067,2.0999e+08,620.83,0,2.7863e+08,33.386,13677,1491.5,0,1491.5,0,0.00094406,1.7811e-07,0,0.00051535,0.00017622,2.5078e+08,38976,0,1.2815e+08,37154,1491.5,1
4990,5.9,12381,1,12381,1,0.000295,-1.4952e-08,0,0.00084543,-5.3525e-05,-7.8308e+06,-123.31,0,2.16e+08,9877.1,12380,15000,1,15000,1,0.001974,1.178e-06,0,0.001974,0.00024238,3.0459e+08,4.0307e+05,0,5.2446e+08,2.6297e+05,14999,12382,1,12382,1,0.0002792,-1.6633e-10,0,0.00080683,-5.0561e-05,6.9431e+07,-39.058,0,2.1041e+08,-7.514,12381,9753,1,9753,1,-0.0012895,-1.7585e-06,0,3.6091e-05,-0.00036713,-5.2446e+08,-2.722e+05,0,9.4922e+06,-1924,9752,11091,1,11091,1,-0.00056549,-1.317e-09,0,0.00039987,-0.00020824,-2.2994e+08,-214.23,0,1.1944e+08,-75.915,11090,13678,1,13678,1,0.0011239,2.5346e-10,0,0.0012445,0.00010685,2.1041e+08,83.448,0,2.7903e+08,33.093,13677,1491.5,0,1491.5,0,0.00094576,1.7852e-07,0,0.00051634,0.00017653,2.5114e+08,39093,0,1.2833e+08,37388,1491.5,1
4990,5.91,12381,1,12381,1,0.00029578,-1.5189e-08,0,0.00084701,-5.3667e-05,-7.8324e+06,-181.54,0,2.1632e+08,9910,12380,15000,1,15000,1,0.0019778,1.1823e-06,0,0.0019778,0.00024277,3.0471e+08,4.0455e+05,0,5.2531e+08,2.6509e+05,14999,12382,1,12382,1,0.00027994,-1.6895e-10,0,0.00080804,-5.0698e-05,6.9617e+07,-34.902,0,2.1083e+08,4.4308,12381,9753,1,9753,1,-0.0012916,-1.768e-06,0,3.64e-05,-0.00036784,-5.2531e+08,-2.7379e+05,0,9.5834e+06,-1946.3,9752,11091,1,11091,1,-0.00056627,-8.1517e-10,0,0.00040083,-0.00020866,-2.3026e+08,-161.57,0,1.1971e+08,-81.436,11090,13678,1,13678,1,0.0011261,2.5534e-10,0,0.001247,0.000107,2.1083e+08,65.091,0,2.7944e+08,20.411,13677,1491.5,0,1491.5,0,0.00094747,1.7918e-07,0,0.00051734,0.00017685,2.5151e+08,39211,0,1.285e+08,37612,1491.5,1
4990,5.92,12381,1,12381,1,0.00029656,-1.4733e-08,0,0.00084858,-5.3809e-05,-7.834e+06,-76.987,0,2.1665e+08,9946.2,12380,15000,1,15000,1,0.0019816,1.1875e-06,0,0.0019816,0.00024316,3.0482e+08,4.0632e+05,0,5.2616e+08,2.6732e+05,14999,12382,1,12382,1,0.00028069,-1.1413e-10,0,0.00080925,-5.0836e-05,6.9803e+07,-25.504,0,2.1126e+08,-9.3915,12381,9753,1,9753,1,-0.0012937,-1.7747e-06,0,3.6709e-05,-0.00036855,-5.2616e+08,-2.7492e+05,0,9.6749e+06,-1969.5,9752,11091,1,11091,1,-0.00056704,-6.9209e-10,0,0.0004018,-0.00020908,-2.3057e+08,-126.87,0,1.1998e+08,-81.307,11090,13678,1,13678,1,0.0011284,3.3471e-10,0,0.0012495,0.00010714,2.1126e+08,84.177,0,2.7984e+08,12.412,13677,1491.5,0,1491.5,0,0.00094918,1.7951e-07,0,0.00051833,0.00017717,2.5187e+08,39313,0,1.2868e+08,37850,1491.5,1
4990,5.93,12381,1,12381,1,0.00029735,-1.6675e-08,0,0.0008502,-5.3953e-05,-7.8359e+06,-499.81,0,2.1698e+08,9926.5,12380,15000,1,15000,1,0.0019855,1.1968e-06,0,0.0019855,0.00024357,3.0493e+08,4.0953e+05,0,5.2704e+08,2.6955e+05,14999,12382,1,12382,1,0.00028146,-3.2237e-09,0,0.00081051,-5.0977e-05,6.9995e+07,-774.63,0,2.1169e+08,-62.69,12381,9753,1,9753,1,-0.0012959,-1.7706e-06,0,3.7018e-05,-0.00036926,-5.2704e+08,-2.7417e+05,0,9.7662e+06,-2180.1,9752,11091,1,11091,1,-0.00056782,-9.0317e-09,0,0.0004028,-0.00020951,-2.3089e+08,-1988.2,0,1.2026e+08,-220.61,11090,13678,1,13678,1,0.0011308,6.0164e-10,0,0.0012521,0.00010729,2.1169e+08,162.85,0,2.8025e+08,33.643,13677,1491.5,0,1491.5,0,0.00095093,1.785e-07,0,0.00051935,0.0001775,2.5225e+08,39416,0,1.2886e+08,38089,1491.5,1
4990,5.94,12381,1,12381,1,0.00029813,-1.1772e-08,0,0.00085175,-5.4095e-05,-7.8369e+06,569.05,0,2.1729e+08,10032,12380,15000,1,15000,1,0.0019892,1.1981e-06,0,0.0019892,0.00024395,3.0502e+08,4.0995e+05,0,5.2786e+08,2.7163e+05,14999,12382,1,12382,1,0.00028221,2.9993e-09,0,0.0008117,-5.1115e-05,7.0181e+07,637.94,0,2.1211e+08,0.23271,12381,9753,1,9753,1,-0.0012979,-1.7942e-06,0,3.7329e-05,-0.00036996,-5.2786e+08,-2.7804e+05,0,9.8582e+06,-2180,9752,11091,1,11091,1,-0.00056858,-1.1122e-10,0,0.00040376,-0.00020993,-2.312e+08,-33.781,0,1.2053e+08,-100.42,11090,13678,1,13678,1,0.001133,7.135e-09,0,0.0012546,0.00010744,2.1211e+08,1507,0,2.8065e+08,99.005,13677,1491.5,0,1491.5,0,0.00095261,1.8108e-07,0,0.00052034,0.00017781,2.5261e+08,39620,0,1.2903e+08,38304,1491.5,1
4990,5.95,12381,1,12381,1,0.0002989,-1.5092e-08,0,0.00085332,-5.4237e-05,-7.8383e+06,-117.39,0,2.1761e+08,10064,12380,15000,1,15000,1,0.0019931,1.2e-06,0,0.0019931,0.00024434,3.0515e+08,4.1061e+05,0,5.287e+08,2.7347e+05,14999,12382,1,12382,1,0.00028296,2.417e-10,0,0.00081289,-5.1251e-05,7.0366e+07,51.511,0,2.1253e+08,9.5747,12381,9753,1,9753,1,-0.0013,-1.8021e-06,0,3.7637e-05,-0.00037067,-5.287e+08,-2.7951e+05,0,9.9489e+06,-2043.3,9752,11091,1,11091,1,-0.00056936,-1.2077e-09,0,0.00040472,-0.00021035,-2.3152e+08,-268.33,0,1.208e+08,-77.358,11090,13678,1,13678,1,0.0011353,1.4689e-09,0,0.001257,0.00010758,2.1253e+08,380.63,0,2.8105e+08,56.787,13677,1491.5,0,1491.5,0,0.00095431,1.814e-07,0,0.00052133,0.00017813,2.5297e+08,39662,0,1.292e+08,38492,1491.5,1
4990,5.96,12381,1,12381,1,0.00029968,-1.4644e-08,0,0.00085489,-5.4379e-05,-7.8396e+06,-31.845,0,2.1793e+08,10093,12380,15000,1,15000,1,0.0019969,1.2035e-06,0,0.0019969,0.00024473,3.0525e+08,4.118e+05,0,5.2955e+08,2.7551e+05,14999,12382,1,12382,1,0.00028371,5.9712e-10,0,0.00081409,-5.1388e-05,7.0553e+07,147.48,0,2.1296e+08,11.917,12381,9753,1,9753,1,-0.001302,-1.8087e-06,0,3.7954e-05,-0.00037138,-5.2955e+08,-2.8072e+05,0,1.0042e+07,-2093.6,9752,11091,1,11091,1,-0.00057013,-4.0001e-10,0,0.00040569,-0.00021077,-2.3183e+08,-81.252,0,1.2107e+08,-84.084,11090,13678,1,13678,1,0.0011375,1.8259e-09,0,0.0012595,0.00010773,2.1295e+08,430.33,0,2.8145e+08,51.551,13677,1491.5,0,1491.5,0,0.00095602,1.8181e-07,0,0.00052232,0.00017844,2.5334e+08,39731,0,1.2937e+08,38708,1491.5,1
4990,5.97,12381,1,12381,1,0.00030047,-1.4936e-08,0,0.00085646,-5.4522e-05,-7.8411e+06,-91.705,0,2.1825e+08,10112,12380,15000,1,15000,1,0.0020008,1.2083e-06,0,0.0020008,0.00024512,3.0535e+08,4.1344e+05,0,5.3039e+08,2.7751e+05,14999,12382,1,12382,1,0.00028446,-1.9392e-10,0,0.0008153,-5.1527e-05,7.074e+07,-42.51,0,2.1338e+08,-7.2782,12381,9753,1,9753,1,-0.0013041,-1.8123e-06,0,3.8269e-05,-0.00037209,-5.3039e+08,-2.8139e+05,0,1.0135e+07,-2150.3,9752,11091,1,11091,1,-0.00057091,-1.0141e-09,0,0.00040666,-0.00021119,-2.3215e+08,-164.63,0,1.2134e+08,-91.207,11090,13678,1,13678,1,0.0011398,2.1196e-10,0,0.001262,0.00010788,2.1338e+08,64.045,0,2.8185e+08,20.883,13677,1491.5,0,1491.5,0,0.00095773,1.8179e-07,0,0.00052332,0.00017876,2.537e+08,39792,0,1.2955e+08,38920,1491.5,1
4990,5.98,12381,1,12381,1,0.00030125,-1.4593e-08,0,0.00085804,-5.4666e-05,-7.8423e+06,-20.489,0,2.1857e+08,10146,12380,15000,1,15000,1,0.0020046,1.2122e-06,0,0.0020046,0.00024551,3.0545e+08,4.1478e+05,0,5.3124e+08,2.7948e+05,14999,12382,1,12382,1,0.00028522,4.3953e-10,0,0.00081651,-5.1665e-05,7.0928e+07,98.353,0,2.1381e+08,6.6542,12381,9753,1,9753,1,-0.0013062,-1.8211e-06,0,3.8586e-05,-0.00037281,-5.3124e+08,-2.8287e+05,0,1.0228e+07,-2183.5,9752,11091,1,11091,1,-0.00057168,-1.7834e-10,0,0.00040763,-0.00021162,-2.3246e+08,-34.631,0,1.2162e+08,-94.004,11090,13678,1,13678,1,0.0011421,1.5164e-09,0,0.0012645,0.00010802,2.138e+08,330.68,0,2.8226e+08,34.924,13677,1491.5,0,1491.5,0,0.00095944,1.8245e-07,0,0.00052432,0.00017908,2.5407e+08,39901,0,1.2972e+08,39128,1491.5,1
4990,5.99,12381,1,12381,1,0.00030205,-1.6896e-08,0,0.00085966,-5.4812e-05,-7.8441e+06,-519.6,0,2.189e+08,10095,12380,15000,1,15000,1,0.0020085,1.2223e-06,0,0.0020085,0.00024592,3.0556e+08,4.1822e+05,0,5.3212e+08,2.8145e+05,14999,12382,1,12382,1,0.000286,-3.1796e-09,0,0.00081777,-5.1809e-05,7.1122e+07,-762.99,0,2.1425e+08,-73.313,12381,9753,1,9753,1,-0.0013084,-1.8113e-06,0,3.8903e-05,-0.00037352,-5.3212e+08,-2.8121e+05,0,1.0321e+07,-2404.5,9752,11091,1,11091,1,-0.00057246,-9.6155e-09,0,0.00040864,-0.00021205,-2.3278e+08,-2087.9,0,1.219e+08,-229.67,11090,13678,1,13678,1,0.0011445,8.0923e-10,0,0.0012671,0.00010817,2.1424e+08,214.51,0,2.8267e+08,36.738,13677,1491.5,0,1491.5,0,0.0009612,1.8087e-07,0,0.00052534,0.00017941,2.5444e+08,39964,0,1.299e+08,39333,1491.5,1
4990,6,12381,1,12381,1,0.00030284,-1.42e-08,0,0.00086121,-5.4954e-05,-7.8444e+06,48.713,0,2.1921e+08,10240,12380,15000,1,15000,1,0.0020123,1.2215e-06,0,0.0020123,0.00024629,3.0565e+08,4.1796e+05,0,5.3293e+08,2.8324e+05,14999,12382,1,12382,1,0.00028674,5.7885e-10,0,0.00081892,-5.1945e-05,7.1308e+07,149.5,0,2.1466e+08,31.412,12381,9753,1,9753,1,-0.0013104,-1.8393e-06,0,3.9224e-05,-0.00037422,-5.3293e+08,-2.8579e+05,0,1.0415e+07,-2229.1,9752,11091,1,11091,1,-0.00057321,-4.0889e-10,0,0.0004096,-0.00021247,-2.3308e+08,-107.31,0,1.2216e+08,-65.665,11090,13678,1,13678,1,0.0011467,3.2896e-09,0,0.0012695,0.00010831,2.1466e+08,607.31,0,2.8306e+08,108.76,13677,1491.5,0,1491.5,0,0.00096286,1.8384e-07,0,0.00052632,0.00017972,2.5479e+08,40174,0,1.3007e+08,39514,1491.5,1
4990,6.01,12381,1,12381,1,0.00030362,-1.4671e-08,0,0.00086278,-5.5097e-05,-7.8458e+06,-30.309,0,2.1953e+08,10242,12380,15000,1,15000,1,0.0020161,1.2241e-06,0,0.0020161,0.00024668,3.0574e+08,4.1885e+05,0,5.3377e+08,2.8518e+05,14999,12382,1,12382,1,0.0002875,6.3355e-10,0,0.00082012,-5.2084e-05,7.1495e+07,129.59,0,2.1508e+08,1.1721,12381,9753,1,9753,1,-0.0013124,-1.8422e-06,0,3.9541e-05,-0.00037493,-5.3377e+08,-2.8648e+05,0,1.0508e+07,-2237.7,9752,11091,1,11091,1,-0.00057398,-3.3693e-10,0,0.00041057,-0.00021289,-2.334e+08,-96.814,0,1.2244e+08,-86.437,11090,13678,1,13678,1,0.001149,1.5958e-09,0,0.001272,0.00010846,2.1508e+08,346.56,0,2.8346e+08,22.166,13677,1491.5,0,1491.5,0,0.00096457,1.8375e-07,0,0.00052732,0.00018004,2.5516e+08,40179,0,1.3024e+08,39728,1491.5,1
4990,6.02,12381,1,12381,1,0.00030441,-1.4511e-08,0,0.00086436,-5.5241e-05,-7.8469e+06,11.346,0,2.1985e+08,10257,12380,15000,1,15000,1,0.00202,1.2283e-06,0,0.00202,0.00024707,3.0584e+08,4.2028e+05,0,5.3462e+08,2.8695e+05,14999,12382,1,12382,1,0.00028826,5.0127e-10,0,0.00082133,-5.2224e-05,7.1685e+07,116.19,0,2.1551e+08,2.238,12381,9753,1,9753,1,-0.0013145,-1.8451e-06,0,3.9861e-05,-0.00037564,-5.3462e+08,-2.8707e+05,0,1.0602e+07,-2306.3,9752,11091,1,11091,1,-0.00057475,-3.296e-10,0,0.00041155,-0.00021332,-2.3371e+08,-94.257,0,1.2271e+08,-95.695,11090,13678,1,13678,1,0.0011513,1.5477e-09,0,0.0012746,0.0001086,2.1551e+08,371.99,0,2.8386e+08,16.269,13677,1491.5,0,1491.5,0,0.00096628,1.8379e-07,0,0.00052832,0.00018035,2.5552e+08,40232,0,1.3041e+08,39909,1491.5,1
4990,6.03,12381,1,12381,1,0.00030519,-1.5203e-08,0,0.00086592,-5.5384e-05,-7.8476e+06,-137.66,0,2.2017e+08,10305,12380,15000,1,15000,1,0.0020238,1.2297e-06,0,0.0020238,0.00024746,3.0594e+08,4.2076e+05,0,5.3546e+08,2.8873e+05,14999,12382,1,12382,1,0.00028901,3.657e-10,0,0.0008225,-5.2362e-05,7.1872e+07,84.477,0,2.1593e+08,21.212,12381,9753,1,9753,1,-0.0013166,-1.8579e-06,0,4.0183e-05,-0.00037636,-5.3546e+08,-2.8928e+05,0,1.0696e+07,-2362.7,9752,11091,1,11091,1,-0.0005755,-2.2452e-09,0,0.00041252,-0.00021373,-2.3401e+08,-489.23,0,1.2298e+08,-67.659,11090,13678,1,13678,1,0.0011535,2.6909e-09,0,0.001277,0.00010875,2.1593e+08,578.75,0,2.8425e+08,73.791,13677,1491.5,0,1491.5,0,0.00096797,1.8492e-07,0,0.00052931,0.00018067,2.5588e+08,40345,0,1.3058e+08,40092,1491.5,1
4990,6.04,12381,1,12381,1,0.00030597,-1.312e-08,0,0.00086748,-5.5527e-05,-7.8487e+06,327.86,0,2.2048e+08,10311,12380,15000,1,15000,1,0.0020276,1.2334e-06,0,0.0020276,0.00024785,3.0602e+08,4.2202e+05,0,5.363e+08,2.9079e+05,14999,12382,1,12382,1,0.00028976,9.9206e-10,0,0.00082369,-5.25e-05,7.2059e+07,226.36,0,2.1635e+08,-15.131,12381,9753,1,9753,1,-0.0013186,-1.8598e-06,0,4.0505e-05,-0.00037706,-5.363e+08,-2.8974e+05,0,1.079e+07,-2471.3,9752,11091,1,11091,1,-0.00057626,-4.1935e-10,0,0.00041349,-0.00021415,-2.3432e+08,-94.339,0,1.2325e+08,-117.77,11090,13678,1,13678,1,0.0011558,4.2185e-09,0,0.0012795,0.00010889,2.1635e+08,956.17,0,2.8465e+08,76.286,13677,1491.5,0,1491.5,0,0.00096966,1.8488e-07,0,0.0005303,0.00018098,2.5624e+08,40374,0,1.3075e+08,40305,1491.5,1
4990,6.05,12381,1,12381,1,0.00030678,-1.5341e-08,0,0.00086909,-5.5674e-05,-7.85e+06,-154.93,0,2.2081e+08,10313,12380,15000,1,15000,1,0.0020315,1.2373e-06,0,0.0020315,0.00024824,3.0612e+08,4.2338e+05,0,5.3715e+08,2.923e+05,14999,12382,1,12382,1,0.00029054,5.1097e-11,0,0.00082493,-5.2642e-05,7.2251e+07,13.724,0,2.1679e+08,-20.039,12381,9753,1,9753,1,-0.0013207,-1.8631e-06,0,4.0828e-05,-0.00037778,-5.3715e+08,-2.9036e+05,0,1.0884e+07,-2475.9,9752,11091,1,11091,1,-0.00057704,-1.3193e-09,0,0.00041448,-0.00021459,-2.3464e+08,-252.33,0,1.2353e+08,-123.15,11090,13678,1,13678,1,0.0011581,5.5662e-10,0,0.0012821,0.00010904,2.1679e+08,114.12,0,2.8506e+08,2.8962,13677,1491.5,0,1491.5,0,0.0009714,1.8483e-07,0,0.00053131,0.00018131,2.5661e+08,40423,0,1.3093e+08,40468,1491.5,1
4990,6.06,12381,1,12381,1,0.00030757,-1.563e-08,0,0.00087066,-5.5819e-05,-7.8506e+06,-229.78,0,2.2113e+08,10361,12380,15000,1,15000,1,0.0020354,1.2404e-06,0,0.0020354,0.00024863,3.062e+08,4.2443e+05,0,5.3799e+08,2.9406e+05,14999,12382,1,12382,1,0.0002913,-2.0217e-10,0,0.00082611,-5.2782e-05,7.2442e+07,-39.611,0,2.1721e+08,2.7771,12381,9753,1,9753,1,-0.0013228,-1.8718e-06,0,4.1157e-05,-0.00037849,-5.3799e+08,-2.9184e+05,0,1.098e+07,-2464.5,9752,11091,1,11091,1,-0.00057779,-1.5504e-09,0,0.00041547,-0.00021501,-2.3495e+08,-340.04,0,1.238e+08,-89.261,11090,13678,1,13678,1,0.0011604,2.6166e-10,0,0.0012846,0.00010918,2.1721e+08,66.128,0,2.8545e+08,23.466,13677,1491.5,0,1491.5,0,0.00097311,1.8548e-07,0,0.00053231,0.00018162,2.5697e+08,40521,0,1.311e+08,40648,1491.5,1
4990,6.07,12381,1,12381,1,0.00030836,-1.4947e-08,0,0.00087223,-5.5964e-05,-7.8514e+06,-86.324,0,2.2144e+08,10391,12380,15000,1,15000,1,0.0020392,1.2433e-06,0,0.0020392,0.00024902,3.0629e+08,4.254e+05,0,5.3883e+08,2.9585e+05,14999,12382,1,12382,1,0.00029207,4.4322e-10,0,0.0008273,-5.2923e-05,7.2632e+07,93.898,0,2.1764e+08,3.5128,12381,9753,1,9753,1,-0.0013249,-1.8782e-06,0,4.1483e-05,-0.0003792,-5.3883e+08,-2.93e+05,0,1.1075e+07,-2511.9,9752,11091,1,11091,1,-0.00057855,-7.6093e-10,0,0.00041645,-0.00021544,-2.3525e+08,-182.1,0,1.2408e+08,-87.475,11090,13678,1,13678,1,0.0011627,1.676e-09,0,0.0012871,0.00010933,2.1764e+08,372.19,0,2.8585e+08,26.106,13677,1491.5,0,1491.5,0,0.00097481,1.8593e-07,0,0.00053331,0.00018194,2.5733e+08,40588,0,1.3127e+08,40836,1491.5,1
4990,6.08,12381,1,12381,1,0.00030916,-1.5361e-08,0,0.00087381,-5.6108e-05,-7.8521e+06,-173.7,0,2.2176e+08,10414,12380,15000,1,15000,1,0.002043,1.2459e-06,0,0.002043,0.00024941,3.0637e+08,4.2632e+05,0,5.3967e+08,2.9753e+05,14999,12382,1,12382,1,0.00029283,1.916e-10,0,0.00082849,-5.3063e-05,7.2822e+07,39.73,0,2.1806e+08,4.3865,12381,9753,1,9753,1,-0.0013269,-1.8846e-06,0,4.181e-05,-0.00037991,-5.3967e+08,-2.9417e+05,0,1.117e+07,-2564,9752,11091,1,11091,1,-0.00057931,-1.8577e-09,0,0.00041743,-0.00021586,-2.3556e+08,-433.3,0,1.2435e+08,-89.334,11090,13678,1,13678,1,0.001165,1.9923e-09,0,0.0012896,0.00010947,2.1806e+08,457.89,0,2.8625e+08,42.009,13677,1491.5,0,1491.5,0,0.00097651,1.8636e-07,0,0.00053431,0.00018226,2.5769e+08,40656,0,1.3144e+08,41010,1491.5,1
4990,6.09,12381,1,12381,1,0.00030996,-1.5314e-08,0,0.00087539,-5.6254e-05,-7.853e+06,-163.14,0,2.2208e+08,10428,12380,15000,1,15000,1,0.0020469,1.25e-06,0,0.0020469,0.0002498,3.0646e+08,4.2771e+05,0,5.4051e+08,2.9928e+05,14999,12382,1,12382,1,0.0002936,-1.8122e-10,0,0.0008297,-5.3204e-05,7.3013e+07,-38.858,0,2.1849e+08,-5.4741,12381,9753,1,9753,1,-0.001329,-1.8871e-06,0,4.2139e-05,-0.00038062,-5.4051e+08,-2.9468e+05,0,1.1265e+07,-2600.9,9752,11091,1,11091,1,-0.00058007,-1.2209e-09,0,0.00041842,-0.00021629,-2.3587e+08,-291.64,0,1.2463e+08,-98.237,11090,13678,1,13678,1,0.0011673,6.267e-10,0,0.0012921,0.00010961,2.1849e+08,168.91,0,2.8665e+08,13.227,13677,1491.5,0,1491.5,0,0.00097823,1.8632e-07,0,0.00053532,0.00018258,2.5805e+08,40700,0,1.3162e+08,41194,1491.5,1
4990,6.1,12381,1,12381,1,0.00031076,-1.5264e-08,0,0.00087699,-5.6401e-05,-7.8537e+06,-154.94,0,2.224e+08,10440,12380,15000,1,15000,1,0.0020508,1.254e-06,0,0.0020508,0.00025019,3.0654e+08,4.2909e+05,0,5.4136e+08,3.0093e+05,14999,12382,1,12382,1,0.00029438,-3.0953e-11,0,0.0008309,-5.3346e-05,7.3206e+07,-8.6165,0,2.1892e+08,-10.59,12381,9753,1,9753,1,-0.0013311,-1.8905e-06,0,4.247e-05,-0.00038134,-5.4136e+08,-2.9531e+05,0,1.1361e+07,-2641.4,9752,11091,1,11091,1,-0.00058084,-7.8735e-10,0,0.00041941,-0.00021672,-2.3619e+08,-179.62,0,1.249e+08,-116.87,11090,13678,1,13678,1,0.0011696,6.3837e-10,0,0.0012946,0.00010976,2.1892e+08,156.51,0,2.8705e+08,6.4919,13677,1491.5,0,1491.5,0,0.00097996,1.8642e-07,0,0.00053633,0.0001829,2.5841e+08,40760,0,1.3179e+08,41364,1491.5,1
4990,6.11,12381,1,12381,1,0.00031156,-1.468e-08,0,0.00087857,-5.6547e-05,-7.8543e+06,-25.145,0,2.2272e+08,10471,12380,15000,1,15000,1,0.0020546,1.2575e-06,0,0.0020546,0.00025058,3.0661e+08,4.3027e+05,0,5.422e+08,3.026e+05,14999,12382,1,12382,1,0.00029515,8.0419e-10,0,0.0008321,-5.3489e-05,7.3399e+07,173.45,0,2.1936e+08,-3.5687,12381,9753,1,9753,1,-0.0013331,-1.8967e-06,0,4.2801e-05,-0.00038205,-5.422e+08,-2.9637e+05,0,1.1457e+07,-2652.1,9752,11091,1,11091,1,-0.00058159,-4.3712e-10,0,0.00042041,-0.00021714,-2.3649e+08,-122.3,0,1.2518e+08,-118.31,11090,13678,1,13678,1,0.0011719,2.2284e-09,0,0.0012971,0.0001099,2.1935e+08,510.04,0,2.8744e+08,26.698,13677,1491.5,0,1491.5,0,0.00098167,1.8686e-07,0,0.00053733,0.00018322,2.5878e+08,40843,0,1.3196e+08,41537,1491.5,1
4990,6.12,12381,1,12381,1,0.00031236,-1.5094e-08,0,0.00088014,-5.6693e-05,-7.8547e+06,-104.81,0,2.2303e+08,10510,12380,15000,1,15000,1,0.0020584,1.2598e-06,0,0.0020584,0.00025096,3.0669e+08,4.3108e+05,0,5.4303e+08,3.0426e+05,14999,12382,1,12382,1,0.00029592,1.8051e-10,0,0.00083328,-5.3629e-05,7.359e+07,44.363,0,2.1978e+08,5.2933,12381,9753,1,9753,1,-0.0013352,-1.9043e-06,0,4.3132e-05,-0.00038276,-5.4303e+08,-2.9774e+05,0,1.1553e+07,-2686.6,9752,11091,1,11091,1,-0.00058234,-6.7835e-10,0,0.00042139,-0.00021757,-2.368e+08,-128,0,1.2545e+08,-87.356,11090,13678,1,13678,1,0.0011742,1.0774e-09,0,0.0012996,0.00011004,2.1978e+08,264.83,0,2.8783e+08,30.41,13677,1491.5,0,1491.5,0,0.00098336,1.8741e-07,0,0.00053833,0.00018353,2.5913e+08,40921,0,1.3213e+08,41708,1491.5,1
4990,6.13,12381,1,12381,1,0.00031315,-1.8346e-08,0,0.0008817,-5.6838e-05,-7.855e+06,-836.77,0,2.2334e+08,10461,12380,15000,1,15000,1,0.0020624,1.2626e-06,0,0.0020624,0.00025136,3.0678e+08,4.3203e+05,0,5.4389e+08,3.0655e+05,14999,12382,1,12382,1,0.00029669,-4.102e-09,0,0.00083445,-5.377e-05,7.3781e+07,-881.35,0,2.202e+08,-17.291,12381,9753,1,9753,1,-0.0013373,-1.9026e-06,0,4.3472e-05,-0.00038349,-5.4389e+08,-2.9539e+05,0,1.1651e+07,-3007.5,9752,11091,1,11091,1,-0.00058306,-9.9865e-09,0,0.00042238,-0.00021798,-2.3709e+08,-2363.9,0,1.2573e+08,-279.56,11090,13678,1,13678,1,0.0011764,9.2011e-10,0,0.0013021,0.00011018,2.202e+08,201.4,0,2.8822e+08,162.13,13677,1491.5,0,1491.5,0,0.00098506,1.8644e-07,0,0.00053932,0.00018385,2.5949e+08,40838,0,1.323e+08,41884,1491.5,1
4990,6.14,12381,1,12381,1,0.00031397,-1.3262e-08,0,0.00088327,-5.6988e-05,-7.8551e+06,105.28,0,2.2365e+08,10436,12380,15000,1,15000,1,0.0020668,1.2665e-06,0,0.0020668,0.00025174,3.068e+08,4.3337e+05,0,5.4471e+08,3.1734e+05,14999,12382,1,12382,1,0.00029746,2.2651e-09,0,0.0008356,-5.3912e-05,7.3974e+07,456,0,2.2061e+08,-12.009,12381,9753,1,9753,1,-0.0013393,-1.9217e-06,0,4.3894e-05,-0.0003843,-5.4471e+08,-2.9805e+05,0,1.1775e+07,-4900.6,9752,11091,1,11091,1,-0.0005838,-1.5111e-09,0,0.00042337,-0.00021841,-2.3739e+08,-443.75,0,1.2601e+08,-224.69,11090,13678,1,13678,1,0.0011787,7.2116e-09,0,0.0013046,0.00011032,2.2061e+08,1379.4,0,2.886e+08,95.551,13677,1491.5,0,1491.5,0,0.00098675,1.8571e-07,0,0.00054033,0.00018416,2.5983e+08,40490,0,1.3246e+08,43151,1491.5,1
4990,6.15,12381,1,12381,1,0.00031494,-1.3569e-08,0,0.00088496,-5.7165e-05,-7.8532e+06,63.102,0,2.2394e+08,10505,12380,15000,1,15000,1,0.0020712,1.2899e-06,0,0.0020712,0.00025212,3.0677e+08,4.4136e+05,0,5.4553e+08,3.2859e+05,14999,12382,1,12382,1,0.0002984,-9.4918e-10,0,0.00083673,-5.4085e-05,7.4207e+07,-187.03,0,2.2098e+08,-61.224,12381,9753,1,9753,1,-0.0013413,-1.9565e-06,0,4.4365e-05,-0.00038512,-5.4553e+08,-3.0311e+05,0,1.1914e+07,-6359.3,9752,11091,1,11091,1,-0.00058447,-3.3061e-09,0,0.00042454,-0.00021888,-2.3766e+08,-758.15,0,1.2632e+08,-377.98,11090,13678,1,13678,1,0.0011813,2.0441e-09,0,0.0013074,0.00011045,2.2097e+08,523.77,0,2.8897e+08,29.793,13677,1491.5,0,1491.5,0,0.00098855,1.865e-07,0,0.00054142,0.0001845,2.6017e+08,40857,0,1.3262e+08,44680,1491.5,1
4990,6.16,12381,1,12381,1,0.00031596,-1.3317e-08,0,0.00088668,-5.735e-05,-7.85e+06,164.01,0,2.2423e+08,10742,12380,15000,1,15000,1,0.0020756,1.3164e-06,0,0.0020756,0.0002525,3.0671e+08,4.5044e+05,0,5.4636e+08,3.3924e+05,14999,12382,1,12382,1,0.00029939,-2.0609e-10,0,0.00083785,-5.4267e-05,7.4452e+07,-50.158,0,2.2134e+08,-73.254,12381,9753,1,9753,1,-0.0013434,-2.0259e-06,0,4.4851e-05,-0.00038593,-5.4636e+08,-3.1317e+05,0,1.2056e+07,-7254.1,9752,11091,1,11091,1,-0.00058512,-2.2345e-09,0,0.00042576,-0.00021937,-2.3793e+08,-519.98,0,1.2665e+08,-364.65,11090,13678,1,13678,1,0.0011839,3.5199e-09,0,0.0013102,0.00011057,2.2134e+08,675.65,0,2.8933e+08,-0.021871,13677,1491.5,0,1491.5,0,0.00099038,1.9129e-07,0,0.00054253,0.00018484,2.6049e+08,41771,0,1.3277e+08,46142,1491.5,1
4990,6.17,12381,1,12381,1,0.000317,-1.2833e-08,0,0.00088845,-5.7541e-05,-7.8469e+06,349.08,0,2.2453e+08,10972,12380,15000,1,15000,1,0.0020799,1.3466e-06,0,0.0020799,0.00025289,3.0665e+08,4.6077e+05,0,5.4719e+08,3.4994e+05,14999,12382,1,12382,1,0.0003004,4.9382e-10,0,0.000839,-5.4456e-05,7.4705e+07,123.08,0,2.2172e+08,-116.6,12381,9753,1,9753,1,-0.0013454,-2.0889e-06,0,4.5339e-05,-0.00038673,-5.4719e+08,-3.2196e+05,0,1.2199e+07,-7717.8,9752,11091,1,11091,1,-0.00058577,-5.1336e-09,0,0.00042701,-0.00021987,-2.3819e+08,-1239.6,0,1.27e+08,-422.77,11090,13678,1,13678,1,0.0011866,8.4829e-09,0,0.0013132,0.00011069,2.2172e+08,1943.2,0,2.8969e+08,-4.2107,13677,1491.5,0,1491.5,0,0.00099226,1.9572e-07,0,0.00054368,0.00018519,2.6083e+08,42735,0,1.3293e+08,47521,1491.5,1
4990,6.18,12381,1,12381,1,0.00031804,-1.6218e-08,0,0.00089015,-5.7729e-05,-7.8421e+06,-279.64,0,2.248e+08,11329,12380,15000,1,15000,1,0.0020843,1.3721e-06,0,0.0020843,0.00025327,3.066e+08,4.6948e+05,0,5.4802e+08,3.5984e+05,14999,12382,1,12382,1,0.00030141,-2.8269e-09,0,0.00084006,-5.4641e-05,7.4956e+07,-566.81,0,2.2208e+08,0.38596,12381,9753,1,9753,1,-0.0013474,-2.168e-06,0,4.5834e-05,-0.00038754,-5.4802e+08,-3.3342e+05,0,1.2343e+07,-8109.7,9752,11091,1,11091,1,-0.00058638,-6.9234e-09,0,0.00042825,-0.00022035,-2.3844e+08,-1688.5,0,1.2733e+08,-361.34,11090,13678,1,13678,1,0.0011892,1.4162e-09,0,0.001316,0.00011081,2.2207e+08,352.03,0,2.9004e+08,102.83,13677,1491.5,0,1491.5,0,0.00099406,2.0126e-07,0,0.00054479,0.00018552,2.6114e+08,43767,0,1.3307e+08,48766,1491.5,1
4990,6.19,12381,1,12381,1,0.00031907,-1.3483e-08,0,0.00089187,-5.7917e-05,-7.8385e+06,357.81,0,2.2509e+08,11563,12380,15000,1,15000,1,0.0020886,1.399e-06,0,0.0020886,0.00025364,3.0652e+08,4.7869e+05,0,5.4883e+08,3.6988e+05,14999,12382,1,12382,1,0.00030241,1.1053e-09,0,0.00084116,-5.4825e-05,7.5205e+07,225.63,0,2.2244e+08,4.0349,12381,9753,1,9753,1,-0.0013495,-2.2295e-06,0,4.6336e-05,-0.00038834,-5.4883e+08,-3.421e+05,0,1.2489e+07,-8492.2,9752,11091,1,11091,1,-0.00058702,-2.2457e-09,0,0.00042948,-0.00022084,-2.387e+08,-641.56,0,1.2767e+08,-426.72,11090,13678,1,13678,1,0.0011918,4.5293e-09,0,0.0013189,0.00011093,2.2244e+08,1087.3,0,2.9039e+08,75.959,13677,1491.5,0,1491.5,0,0.00099589,2.0582e-07,0,0.00054592,0.00018586,2.6146e+08,44684,0,1.3322e+08,50018,1491.5,1
4990,6.2,12381,1,12381,1,0.00032009,-1.5828e-08,0,0.00089356,-5.8104e-05,-7.8339e+06,-59.482,0,2.2536e+08,11908,12380,15000,1,15000,1,0.002093,1.4184e-06,0,0.002093,0.00025402,3.0646e+08,4.8532e+05,0,5.4965e+08,3.7926e+05,14999,12382,1,12382,1,0.0003034,1.8676e-10,0,0.00084221,-5.5007e-05,7.545e+07,43.913,0,2.2279e+08,44.642,12381,9753,1,9753,1,-0.0013515,-2.3079e-06,0,4.6837e-05,-0.00038915,-5.4965e+08,-3.537e+05,0,1.2635e+07,-8538.4,9752,11091,1,11091,1,-0.00058763,-1.7628e-09,0,0.00043069,-0.00022131,-2.3894e+08,-449.21,0,1.2799e+08,-284.06,11090,13678,1,13678,1,0.0011944,2.4482e-09,0,0.0013217,0.00011104,2.2279e+08,508.82,0,2.9073e+08,160.03,13677,1491.5,0,1491.5,0,0.00099768,2.1184e-07,0,0.00054702,0.00018619,2.6177e+08,45636,0,1.3336e+08,51161,1491.5,1
4990,6.21,12381,1,12381,1,0.00032113,-1.555e-08,0,0.0008953,-5.8293e-05,-7.8305e+06,55.347,0,2.2565e+08,12038,12380,15000,1,15000,1,0.0020974,1.444e-06,0,0.0020974,0.00025441,3.0639e+08,4.9408e+05,0,5.5048e+08,3.8935e+05,14999,12382,1,12382,1,0.00030441,-2.4347e-09,0,0.00084334,-5.5194e-05,7.5701e+07,-538.88,0,2.2316e+08,-1.5135,12381,9753,1,9753,1,-0.0013535,-2.3461e-06,0,4.7346e-05,-0.00038995,-5.5048e+08,-3.5875e+05,0,1.2782e+07,-8962.4,9752,11091,1,11091,1,-0.00058826,-6.0287e-09,0,0.00043194,-0.00022181,-2.392e+08,-1318.5,0,1.2833e+08,-505.47,11090,13678,1,13678,1,0.0011971,1.4554e-09,0,0.0013246,0.00011116,2.2316e+08,375.02,0,2.9108e+08,79.818,13677,1491.5,0,1491.5,0,0.00099953,2.1389e-07,0,0.00054815,0.00018654,2.621e+08,46263,0,1.3352e+08,52333,1491.5,1
4990,6.22,12381,1,12381,1,0.00032216,-1.657e-08,0,0.00089699,-5.8481e-05,-7.8258e+06,-111.88,0,2.2593e+08,12362,12380,15000,1,15000,1,0.0021018,1.462e-06,0,0.0021018,0.00025478,3.0631e+08,5.0025e+05,0,5.5129e+08,3.9836e+05,14999,12382,1,12382,1,0.0003054,-2.5111e-10,0,0.00084437,-5.5376e-05,7.5949e+07,-66.178,0,2.2351e+08,25.811,12381,9753,1,9753,1,-0.0013555,-2.424e-06,0,4.7859e-05,-0.00039076,-5.5129e+08,-3.7035e+05,0,1.2931e+07,-9052,9752,11091,1,11091,1,-0.00058887,-1.499e-09,0,0.00043316,-0.00022228,-2.3945e+08,-393.35,0,1.2866e+08,-302.99,11090,13678,1,13678,1,0.0011997,3.3262e-09,0,0.0013274,0.00011128,2.2351e+08,547.45,0,2.9142e+08,135.22,13677,1491.5,0,1491.5,0,0.0010013,2.2023e-07,0,0.00054926,0.00018687,2.624e+08,47221,0,1.3366e+08,53357,1491.5,1
4990,6.23,12381,1,12381,1,0.0003232,-1.7589e-08,0,0.00089874,-5.8671e-05,-7.8223e+06,-290.99,0,2.2622e+08,12457,12380,15000,1,15000,1,0.0021061,1.4857e-06,0,0.0021061,0.00025517,3.0623e+08,5.0836e+05,0,5.5213e+08,4.0757e+05,14999,12382,1,12382,1,0.00030642,-2.908e-09,0,0.00084551,-5.5565e-05,7.6201e+07,-670.96,0,2.2388e+08,-83.621,12381,9753,1,9753,1,-0.0013576,-2.4551e-06,0,4.8374e-05,-0.00039157,-5.5213e+08,-3.7436e+05,0,1.308e+07,-9329.5,9752,11091,1,11091,1,-0.0005895,-9.6911e-09,0,0.00043442,-0.00022278,-2.3971e+08,-2193,0,1.29e+08,-411.36,11090,13678,1,13678,1,0.0012023,2.3779e-09,0,0.0013303,0.0001114,2.2388e+08,565.48,0,2.9171e+08,43.879,13677,1491.5,0,1491.5,0,0.0010032,2.2168e-07,0,0.0005504,0.00018721,2.6273e+08,47752,0,1.3381e+08,54404,1491.5,1
4990,6.24,12381,1,12381,1,0.00032423,-1.627e-08,0,0.00090042,-5.8859e-05,-7.8173e+06,40.06,0,2.2649e+08,12776,12380,15000,1,15000,1,0.0021105,1.5021e-06,0,0.0021105,0.00025554,3.0615e+08,5.1395e+05,0,5.5292e+08,4.1647e+05,14999,12382,1,12382,1,0.00030742,1.8801e-10,0,0.00084653,-5.5748e-05,7.645e+07,45.825,0,2.2423e+08,41.755,12381,9753,1,9753,1,-0.0013595,-2.5244e-06,0,4.8895e-05,-0.00039237,-5.5292e+08,-3.8467e+05,0,1.323e+07,-9420.8,9752,11091,1,11091,1,-0.0005901,-1.1681e-09,0,0.00043564,-0.00022326,-2.3995e+08,-373.23,0,1.2933e+08,-328.12,11090,13678,1,13678,1,0.0012049,4.0876e-09,0,0.0013331,0.00011151,2.2423e+08,653.73,0,2.9164e+08,139.82,13677,1491.5,0,1491.5,0,0.0010049,2.2727e-07,0,0.0005515,0.00018754,2.6304e+08,48580,0,1.3395e+08,55389,1491.5,1
4990,6.25,12381,1,12381,1,0.00032527,-1.6932e-08,0,0.00090215,-5.9049e-05,-7.8135e+06,-53.845,0,2.2677e+08,12892,12380,15000,1,15000,1,0.0021148,1.5194e-06,0,0.0021148,0.00025591,3.0607e+08,5.1988e+05,0,5.5374e+08,4.2528e+05,14999,12382,1,12382,1,0.00030842,7.0901e-10,0,0.00084764,-5.5933e-05,7.6699e+07,120.65,0,2.2459e+08,-26.891,12381,9753,1,9753,1,-0.0013615,-2.5653e-06,0,4.9413e-05,-0.00039317,-5.5374e+08,-3.9049e+05,0,1.3379e+07,-9773.8,9752,11091,1,11091,1,-0.00059072,-3.3818e-09,0,0.00043687,-0.00022375,-2.402e+08,-893.83,0,1.2967e+08,-411.54,11090,13678,1,13678,1,0.0012076,3.967e-09,0,0.001336,0.00011163,2.2459e+08,797.03,0,2.916e+08,67.418,13677,1491.5,0,1491.5,0,0.0010068,2.299e-07,0,0.00055262,0.00018788,2.6336e+08,49104,0,1.341e+08,56395,1491.5,1
4990,6.26,12381,1,12381,1,0.00032631,-1.7224e-08,0,0.00090385,-5.9238e-05,-7.8088e+06,-58.734,0,2.2705e+08,13112,12380,15000,1,15000,1,0.0021192,1.5363e-06,0,0.0021192,0.00025629,3.0598e+08,5.2566e+05,0,5.5455e+08,4.3365e+05,14999,12382,1,12382,1,0.00030943,4.5758e-10,0,0.00084869,-5.6118e-05,7.6949e+07,106.93,0,2.2494e+08,28.226,12381,9753,1,9753,1,-0.0013635,-2.6112e-06,0,4.9937e-05,-0.00039397,-5.5455e+08,-3.9711e+05,0,1.353e+07,-9831.9,9752,11091,1,11091,1,-0.00059133,-1.5424e-09,0,0.00043811,-0.00022423,-2.4045e+08,-358.92,0,1.3e+08,-365.29,11090,13678,1,13678,1,0.0012102,1.7604e-09,0,0.0013389,0.00011175,2.2494e+08,400.43,0,2.9154e+08,113.36,13677,1491.5,0,1491.5,0,0.0010086,2.331e-07,0,0.00055374,0.00018822,2.6367e+08,49689,0,1.3424e+08,57285,1491.5,1
4990,6.27,12381,1,12381,1,0.00032736,-1.655e-08,0,0.00090561,-5.9431e-05,-7.8052e+06,121.52,0,2.2734e+08,13223,12380,15000,1,15000,1,0.0021235,1.5576e-06,0,0.0021235,0.00025667,3.0589e+08,5.3276e+05,0,5.5538e+08,4.4238e+05,14999,12382,1,12382,1,0.00031046,-6.3875e-10,0,0.00084982,-5.6309e-05,7.7205e+07,-143.44,0,2.2532e+08,-64.921,12381,9753,1,9753,1,-0.0013656,-2.6404e-06,0,5.0461e-05,-0.00039477,-5.5538e+08,-4.0093e+05,0,1.3681e+07,-10203,9752,11091,1,11091,1,-0.00059196,-6.1458e-09,0,0.00043938,-0.00022473,-2.407e+08,-1417.7,0,1.3035e+08,-464.33,11090,13678,1,13678,1,0.0012129,5.2162e-09,0,0.0013418,0.00011187,2.2531e+08,1258.6,0,2.915e+08,48.655,13677,1491.5,0,1491.5,0,0.0010104,2.347e-07,0,0.00055488,0.00018856,2.64e+08,50161,0,1.344e+08,58253,1491.5,1
4990,6.28,12381,1,12381,1,0.0003284,-1.7777e-08,0,0.00090729,-5.962e-05,-7.7996e+06,-88.682,0,2.276e+08,13475,12380,15000,1,15000,1,0.0021279,1.5721e-06,0,0.0021279,0.00025704,3.058e+08,5.3774e+05,0,5.5618e+08,4.5006e+05,14999,12382,1,12382,1,0.00031146,2.9939e-10,0,0.00085083,-5.6494e-05,7.7456e+07,76.136,0,2.2566e+08,56.16,12381,9753,1,9753,1,-0.0013675,-2.7e-06,0,5.0992e-05,-0.00039558,-5.5618e+08,-4.0977e+05,0,1.3833e+07,-10233,9752,11091,1,11091,1,-0.00059254,-2.114e-09,0,0.00044061,-0.0002252,-2.4094e+08,-510.11,0,1.3068e+08,-353.15,11090,13678,1,13678,1,0.0012155,2.3612e-09,0,0.0013446,0.00011198,2.2566e+08,497.55,0,2.9141e+08,173.57,13677,1491.5,0,1491.5,0,0.0010122,2.3926e-07,0,0.00055599,0.00018889,2.6429e+08,50859,0,1.3454e+08,59056,1491.5,1
4990,6.29,12381,1,12381,1,0.00032944,-1.8147e-08,0,0.00090899,-5.981e-05,-7.7953e+06,-143.87,0,2.2788e+08,13600,12380,15000,1,15000,1,0.0021323,1.5886e-06,0,0.0021323,0.00025742,3.0571e+08,5.434e+05,0,5.57e+08,4.5819e+05,14999,12382,1,12382,1,0.00031246,-7.5032e-10,0,0.0008519,-5.6678e-05,7.7704e+07,-183.38,0,2.2601e+08,31.343,12381,9753,1,9753,1,-0.0013695,-2.7353e-06,0,5.1525e-05,-0.00039639,-5.57e+08,-4.1478e+05,0,1.3985e+07,-10533,9752,11091,1,11091,1,-0.00059315,-2.0812e-09,0,0.00044184,-0.00022569,-2.4119e+08,-408.13,0,1.3101e+08,-395.98,11090,13678,1,13678,1,0.0012181,8.7326e-10,0,0.0013474,0.00011209,2.2601e+08,209.5,0,2.9136e+08,106.89,13677,1491.5,0,1491.5,0,0.001014,2.4148e-07,0,0.0005571,0.00018923,2.6461e+08,51305,0,1.3468e+08,59938,1491.5,1
4990,6.3,12381,1,12381,1,0.00033048,-1.7728e-08,0,0.00091071,-6e-05,-7.7909e+06,-35.159,0,2.2816e+08,13735,12380,15000,1,15000,1,0.0021366,1.6044e-06,0,0.0021366,0.0002578,3.0561e+08,5.488e+05,0,5.5781e+08,4.6621e+05,14999,12382,1,12382,1,0.00031347,6.8449e-10,0,0.00085297,-5.6864e-05,7.7955e+07,153.89,0,2.2637e+08,8.2546,12381,9753,1,9753,1,-0.0013715,-2.774e-06,0,5.2062e-05,-0.00039719,-5.5781e+08,-4.2032e+05,0,1.4139e+07,-10793,9752,11091,1,11091,1,-0.00059376,-8.8724e-10,0,0.00044309,-0.00022617,-2.4144e+08,-209.47,0,1.3135e+08,-415.95,11090,13678,1,13678,1,0.0012207,1.786e-09,0,0.0013503,0.00011221,2.2637e+08,340.68,0,2.913e+08,62.313,13677,1491.5,0,1491.5,0,0.0010158,2.4415e-07,0,0.00055822,0.00018957,2.6492e+08,51783,0,1.3483e+08,60806,1491.5,1
4990,6.31,12381,1,12381,1,0.00033154,-1.8417e-08,0,0.00091246,-6.0194e-05,-7.7866e+06,-151.36,0,2.2844e+08,13825,12380,15000,1,15000,1,0.002141,1.625e-06,0,0.002141,0.00025818,3.0551e+08,5.5582e+05,0,5.5863e+08,4.7393e+05,14999,12382,1,12382,1,0.00031451,-1.566e-09,0,0.00085408,-5.7055e-05,7.8212e+07,-334.06,0,2.2674e+08,-36.756,12381,9753,1,9753,1,-0.0013736,-2.7985e-06,0,5.2599e-05,-0.000398,-5.5863e+08,-4.235e+05,0,1.4292e+07,-11142,9752,11091,1,11091,1,-0.00059437,-6.4853e-09,0,0.00044435,-0.00022667,-2.4169e+08,-1525.4,0,1.3169e+08,-500.41,11090,13678,1,13678,1,0.0012234,1.6927e-09,0,0.0013532,0.00011232,2.2674e+08,436.91,0,2.9125e+08,23.018,13677,1491.5,0,1491.5,0,0.0010177,2.4534e-07,0,0.00055937,0.00018991,2.6524e+08,52184,0,1.3498e+08,61635,1491.5,1
4990,6.32,12381,1,12381,1,0.00033259,-1.7796e-08,0,0.00091415,-6.0385e-05,-7.7812e+06,4.9347,0,2.2871e+08,14041,12380,15000,1,15000,1,0.0021453,1.6375e-06,0,0.0021453,0.00025855,3.054e+08,5.6011e+05,0,5.5943e+08,4.8152e+05,14999,12382,1,12382,1,0.00031552,4.5731e-10,0,0.0008551,-5.7242e-05,7.8465e+07,107.43,0,2.2708e+08,35.25,12381,9753,1,9753,1,-0.0013755,-2.8499e-06,0,5.314e-05,-0.0003988,-5.5943e+08,-4.3107e+05,0,1.4447e+07,-11315,9752,11091,1,11091,1,-0.00059495,-1.1831e-09,0,0.0004456,-0.00022715,-2.4192e+08,-307.04,0,1.3203e+08,-423.03,11090,13678,1,13678,1,0.001226,2.5974e-09,0,0.0013561,0.00011243,2.2708e+08,486.39,0,2.9116e+08,122.51,13677,1491.5,0,1491.5,0,0.0010195,2.4924e-07,0,0.00056048,0.00019024,2.6554e+08,52759,0,1.3512e+08,62419,1491.5,1
4990,6.33,12381,1,12381,1,0.00033363,-1.8503e-08,0,0.00091585,-6.0576e-05,-7.7765e+06,-116.86,0,2.2898e+08,14158,12380,15000,1,15000,1,0.0021497,1.6515e-06,0,0.0021497,0.00025892,3.053e+08,5.6488e+05,0,5.6024e+08,4.8906e+05,14999,12382,1,12382,1,0.00031653,-2.7348e-10,0,0.00085616,-5.7429e-05,7.8716e+07,-68.974,0,2.2744e+08,22.19,12381,9753,1,9753,1,-0.0013775,-2.883e-06,0,5.368e-05,-0.00039961,-5.6024e+08,-4.358e+05,0,1.4601e+07,-11556,9752,11091,1,11091,1,-0.00059555,-1.1798e-09,0,0.00044684,-0.00022764,-2.4217e+08,-286.31,0,1.3236e+08,-433.68,11090,13678,1,13678,1,0.0012286,1.0462e-09,0,0.0013589,0.00011255,2.2744e+08,219.93,0,2.911e+08,91.465,13677,1491.5,0,1491.5,0,0.0010213,2.5133e-07,0,0.0005616,0.00019058,2.6585e+08,53150,0,1.3526e+08,63218,1491.5,1
4990,6.34,12381,1,12381,1,0.00033468,-1.8414e-08,0,0.00091756,-6.0768e-05,-7.7717e+06,-79.361,0,2.2925e+08,14281,12380,15000,1,15000,1,0.0021541,1.6646e-06,0,0.0021541,0.00025929,3.0519e+08,5.6939e+05,0,5.6105e+08,4.9713e+05,14999,12382,1,12382,1,0.00031755,2.8833e-10,0,0.00085721,-5.7616e-05,7.8969e+07,71.312,0,2.2779e+08,23.089,12381,9753,1,9753,1,-0.0013795,-2.9167e-06,0,5.4226e-05,-0.00040041,-5.6105e+08,-4.4063e+05,0,1.4756e+07,-11843,9752,11091,1,11091,1,-0.00059615,-7.9556e-10,0,0.00044809,-0.00022812,-2.4241e+08,-162.92,0,1.327e+08,-453.44,11090,13678,1,13678,1,0.0012312,1.9627e-09,0,0.0013618,0.00011266,2.2779e+08,355.89,0,2.9103e+08,85.685,13677,1491.5,0,1491.5,0,0.0010231,2.5358e-07,0,0.00056272,0.00019091,2.6616e+08,53542,0,1.3541e+08,63993,1491.5,1
4990,6.35,12381,1,12381,1,0.00033574,-1.8658e-08,0,0.00091928,-6.0961e-05,-7.7669e+06,-107.98,0,2.2953e+08,14383,12380,15000,1,15000,1,0.0021584,1.6795e-06,0,0.0021584,0.00025967,3.0508e+08,5.7446e+05,0,5.6186e+08,5.0553e+05,14999,12382,1,12382,1,0.00031857,-4.9827e-10,0,0.00085827,-5.7804e-05,7.9223e+07,-121.38,0,2.2815e+08,-4.4217,12381,9753,1,9753,1,-0.0013815,-2.9449e-06,0,5.4774e-05,-0.00040122,-5.6186e+08,-4.4455e+05,0,1.4911e+07,-12128,9752,11091,1,11091,1,-0.00059675,-1.4214e-09,0,0.00044935,-0.00022861,-2.4265e+08,-274,0,1.3304e+08,-462.96,11090,13678,1,13678,1,0.0012339,3.3483e-10,0,0.0013646,0.00011278,2.2814e+08,87.493,0,2.9096e+08,49.702,13677,1491.5,0,1491.5,0,0.0010249,2.5523e-07,0,0.00056385,0.00019125,2.6647e+08,53896,0,1.3555e+08,64753,1491.5,1
4990,6.36,12381,1,12381,1,0.00033679,-1.8525e-08,0,0.000921,-6.1154e-05,-7.7619e+06,-63.601,0,2.298e+08,14517,12380,15000,1,15000,1,0.0021628,1.6921e-06,0,0.0021628,0.00026004,3.0497e+08,5.7878e+05,0,5.6267e+08,5.1386e+05,14999,12382,1,12382,1,0.00031959,4.1689e-10,0,0.00085933,-5.7993e-05,7.9477e+07,88.718,0,2.285e+08,9.7133,12381,9753,1,9753,1,-0.0013835,-2.9805e-06,0,5.5324e-05,-0.00040203,-5.6267e+08,-4.4968e+05,0,1.5068e+07,-12399,9752,11091,1,11091,1,-0.00059734,-8.4956e-10,0,0.00045061,-0.0002291,-2.4289e+08,-172.82,0,1.3338e+08,-472.84,11090,13678,1,13678,1,0.0012365,2.0356e-09,0,0.0013675,0.00011289,2.285e+08,391.82,0,2.9089e+08,73.066,13677,1491.5,0,1491.5,0,0.0010267,2.5769e-07,0,0.00056498,0.00019159,2.6678e+08,54306,0,1.357e+08,65506,1491.5,1
4990,6.37,12381,1,12381,1,0.00033785,-2.2601e-08,0,0.00092269,-6.1346e-05,-7.7565e+06,-934.15,0,2.3007e+08,14607,12380,15000,1,15000,1,0.0021673,1.7047e-06,0,0.0021673,0.00026042,3.0487e+08,5.8309e+05,0,5.6349e+08,5.2204e+05,14999,12382,1,12382,1,0.00032062,-5.4825e-09,0,0.00086036,-5.8183e-05,7.9733e+07,-1209,0,2.2885e+08,-11.268,12381,9753,1,9753,1,-0.0013855,-3.011e-06,0,5.5878e-05,-0.00040285,-5.6349e+08,-4.5399e+05,0,1.5225e+07,-12799,9752,11091,1,11091,1,-0.0005979,-1.126e-08,0,0.00045186,-0.00022958,-2.4312e+08,-2430.6,0,1.3372e+08,-517.82,11090,13678,1,13678,1,0.0012391,5.9423e-11,0,0.0013703,0.000113,2.2884e+08,16.643,0,2.9079e+08,59.459,13677,1491.5,0,1491.5,0,0.0010285,2.5934e-07,0,0.00056609,0.00019192,2.6709e+08,54661,0,1.3584e+08,66239,1491.5,1
4990,6.38,12381,1,12381,1,0.00033891,-1.7552e-08,0,0.00092443,-6.154e-05,-7.752e+06,112.02,0,2.3035e+08,14711,12380,15000,1,15000,1,0.0021716,1.7192e-06,0,0.0021716,0.00026079,3.0473e+08,5.8804e+05,0,5.6428e+08,5.3034e+05,14999,12382,1,12382,1,0.00032165,1.3717e-09,0,0.00086144,-5.8372e-05,7.9989e+07,291.3,0,2.2921e+08,-31.419,12381,9753,1,9753,1,-0.0013874,-3.0389e-06,0,5.6438e-05,-0.00040364,-5.6428e+08,-4.5787e+05,0,1.5383e+07,-13175,9752,11091,1,11091,1,-0.00059852,-4.1695e-10,0,0.00045312,-0.00023007,-2.4337e+08,-139.5,0,1.3406e+08,-516.57,11090,13678,1,13678,1,0.0012418,5.2856e-09,0,0.0013733,0.00011311,2.2921e+08,854.12,0,2.9073e+08,23.23,13677,1491.5,0,1491.5,0,0.0010303,2.6144e-07,0,0.00056723,0.00019226,2.674e+08,55012,0,1.3599e+08,66990,1491.5,1
4990,6.39,12381,1,12381,1,0.00033997,-1.8793e-08,0,0.00092615,-6.1735e-05,-7.7467e+06,-94.917,0,2.3062e+08,14831,12380,15000,1,15000,1,0.002176,1.7312e-06,0,0.002176,0.00026116,3.0462e+08,5.9214e+05,0,5.6509e+08,5.3831e+05,14999,12382,1,12382,1,0.00032268,3.9826e-10,0,0.00086248,-5.8562e-05,8.0245e+07,91.911,0,2.2956e+08,-4.8594,12381,9753,1,9753,1,-0.0013894,-3.0696e-06,0,5.699e-05,-0.00040445,-5.6509e+08,-4.6224e+05,0,1.5539e+07,-13367,9752,11091,1,11091,1,-0.00059911,-7.3148e-10,0,0.00045439,-0.00023057,-2.4361e+08,-189.26,0,1.344e+08,-524.78,11090,13678,1,13678,1,0.0012445,1.9858e-09,0,0.0013761,0.00011322,2.2956e+08,344.75,0,2.9065e+08,54.008,13677,1491.5,0,1491.5,0,0.0010322,2.6332e-07,0,0.00056836,0.0001926,2.6771e+08,55355,0,1.3613e+08,67690,1491.5,1
4990,6.4,12381,1,12381,1,0.00034106,-2.0098e-08,0,0.00092791,-6.1933e-05,-7.7419e+06,-353.42,0,2.309e+08,14847,12380,15000,1,15000,1,0.0021803,1.7502e-06,0,0.0021803,0.00026154,3.045e+08,5.9865e+05,0,5.6591e+08,5.4607e+05,14999,12382,1,12382,1,0.00032374,-1.6518e-09,0,0.00086359,-5.8758e-05,8.0508e+07,-386.98,0,2.2993e+08,-112.73,12381,9753,1,9753,1,-0.0013914,-3.0817e-06,0,5.7548e-05,-0.00040526,-5.6591e+08,-4.6346e+05,0,1.5697e+07,-13761,9752,11091,1,11091,1,-0.00059972,-9.027e-09,0,0.00045567,-0.00023107,-2.4386e+08,-2081.5,0,1.3475e+08,-575.21,11090,13678,1,13678,1,0.0012472,2.4749e-09,0,0.0013791,0.00011334,2.2993e+08,543.58,0,2.9059e+08,-11.385,13677,1491.5,0,1491.5,0,0.001034,2.6348e-07,0,0.00056952,0.00019294,2.6803e+08,55600,0,1.3629e+08,68373,1491.5,1
4990,6.41,12381,1,12381,1,0.00034212,-1.8023e-08,0,0.0009296,-6.2128e-05,-7.7359e+06,91.613,0,2.3116e+08,15091,12380,15000,1,15000,1,0.0021847,1.7568e-06,0,0.0021847,0.0002619,3.0437e+08,6.0091e+05,0,5.6669e+08,5.5424e+05,14999,12382,1,12382,1,0.00032478,2.2348e-09,0,0.0008646,-5.8949e-05,8.0766e+07,509.05,0,2.3027e+08,28.818,12381,9753,1,9753,1,-0.0013934,-3.1382e-06,0,5.8107e-05,-0.00040606,-5.6669e+08,-4.7197e+05,0,1.5855e+07,-14106,9752,11091,1,11091,1,-0.00060027,-1.1565e-09,0,0.00045693,-0.00023156,-2.4409e+08,-319.02,0,1.3509e+08,-496.63,11090,13678,1,13678,1,0.0012498,5.4957e-09,0,0.001382,0.00011345,2.3027e+08,1013.9,0,2.9047e+08,138.91,13677,1491.5,0,1491.5,0,0.0010358,2.6793e-07,0,0.00057064,0.00019327,2.6832e+08,56146,0,1.3642e+08,69108,1491.5,1
4990,6.42,12381,1,12381,1,0.00034318,-1.9312e-08,0,0.00093131,-6.2322e-05,-7.7306e+06,-134.32,0,2.3143e+08,15165,12380,15000,1,15000,1,0.0021891,1.7689e-06,0,0.0021891,0.00026228,3.0426e+08,6.0504e+05,0,5.675e+08,5.6177e+05,14999,12382,1,12382,1,0.0003258,4.0033e-11,0,0.00086563,-5.9138e-05,8.1021e+07,11.468,0,2.3062e+08,41.388,12381,9753,1,9753,1,-0.0013953,-3.1543e-06,0,5.8666e-05,-0.00040687,-5.675e+08,-4.7411e+05,0,1.6013e+07,-14194,9752,11091,1,11091,1,-0.00060086,-2.3976e-09,0,0.00045819,-0.00023204,-2.4433e+08,-410.12,0,1.3543e+08,-536.24,11090,13678,1,13678,1,0.0012525,2.003e-09,0,0.0013848,0.00011356,2.3062e+08,385.28,0,2.9039e+08,147.73,13677,1491.5,0,1491.5,0,0.0010376,2.6852e-07,0,0.00057176,0.00019361,2.6863e+08,56342,0,1.3657e+08,69736,1491.5,1
4990,6.43,12381,1,12381,1,0.00034425,-1.9573e-08,0,0.00093303,-6.2517e-05,-7.7253e+06,-187.51,0,2.317e+08,15238,12380,15000,1,15000,1,0.0021935,1.7811e-06,0,0.0021935,0.00026265,3.0413e+08,6.0921e+05,0,5.683e+08,5.6957e+05,14999,12382,1,12382,1,0.00032683,-4.9553e-10,0,0.00086667,-5.9328e-05,8.1277e+07,-119.88,0,2.3097e+08,17.469,12381,9753,1,9753,1,-0.0013973,-3.1779e-06,0,5.9233e-05,-0.00040768,-5.683e+08,-4.7734e+05,0,1.6173e+07,-14501,9752,11091,1,11091,1,-0.00060145,-2.703e-09,0,0.00045946,-0.00023253,-2.4456e+08,-519.79,0,1.3577e+08,-560.14,11090,13678,1,13678,1,0.0012551,1.1868e-09,0,0.0013877,0.00011367,2.3097e+08,248.63,0,2.9031e+08,92.735,13677,1491.5,0,1491.5,0,0.0010394,2.6986e-07,0,0.0005729,0.00019394,2.6894e+08,56618,0,1.3671e+08,70419,1491.5,1
4990,6.44,12381,1,12381,1,0.00034532,-1.9042e-08,0,0.00093475,-6.2712e-05,-7.72e+06,-72.106,0,2.3197e+08,15325,12380,15000,1,15000,1,0.0021978,1.7927e-06,0,0.0021978,0.00026302,3.04e+08,6.132e+05,0,5.691e+08,5.7729e+05,14999,12382,1,12382,1,0.00032787,4.4523e-10,0,0.00086772,-5.952e-05,8.1535e+07,106.57,0,2.3132e+08,-6.4996,12381,9753,1,9753,1,-0.0013993,-3.2045e-06,0,5.9802e-05,-0.00040849,-5.691e+08,-4.8106e+05,0,1.6333e+07,-14749,9752,11091,1,11091,1,-0.00060203,-3.7315e-10,0,0.00046073,-0.00023302,-2.448e+08,-101.17,0,1.3611e+08,-557.35,11090,13678,1,13678,1,0.0012578,1.3371e-09,0,0.0013906,0.00011378,2.3132e+08,235.69,0,2.9022e+08,61.01,13677,1491.5,0,1491.5,0,0.0010412,2.7156e-07,0,0.00057403,0.00019428,2.6924e+08,56920,0,1.3686e+08,71104,1491.5,1
4990,6.45,12381,1,12381,1,0.00034639,-1.9554e-08,0,0.00093647,-6.2909e-05,-7.7144e+06,-167.09,0,2.3224e+08,15423,12380,15000,1,15000,1,0.0022022,1.8041e-06,0,0.0022022,0.00026339,3.0387e+08,6.1708e+05,0,5.6991e+08,5.8494e+05,14999,12382,1,12382,1,0.00032891,-3.8293e-10,0,0.00086876,-5.9712e-05,8.1794e+07,-80.39,0,2.3167e+08,7.856,12381,9753,1,9753,1,-0.0014013,-3.2306e-06,0,6.0371e-05,-0.0004093,-5.6991e+08,-4.8472e+05,0,1.6493e+07,-15096,9752,11091,1,11091,1,-0.00060261,-2.2423e-09,0,0.00046201,-0.00023352,-2.4503e+08,-465.65,0,1.3646e+08,-570.76,11090,13678,1,13678,1,0.0012604,1.493e-09,0,0.0013935,0.00011389,2.3167e+08,310.03,0,2.9013e+08,78.577,13677,1491.5,0,1491.5,0,0.0010431,2.7313e-07,0,0.00057517,0.00019462,2.6955e+08,57215,0,1.37e+08,71766,1491.5,1
4990,6.46,12381,1,12381,1,0.00034747,-1.9074e-08,0,0.0009382,-6.3106e-05,-7.7089e+06,-63.405,0,2.3251e+08,15494,12380,15000,1,15000,1,0.0022066,1.8162e-06,0,0.0022066,0.00026376,3.0373e+08,6.2122e+05,0,5.7071e+08,5.926e+05,14999,12382,1,12382,1,0.00032996,2.8361e-10,0,0.00086981,-5.9905e-05,8.2055e+07,66.181,0,2.3203e+08,-12.822,12381,9753,1,9753,1,-0.0014032,-3.2536e-06,0,6.0944e-05,-0.00041011,-5.7071e+08,-4.8786e+05,0,1.6654e+07,-15433,9752,11091,1,11091,1,-0.00060319,-3.5629e-10,0,0.00046329,-0.00023401,-2.4527e+08,-81.149,0,1.368e+08,-582.28,11090,13678,1,13678,1,0.0012631,9.2569e-10,0,0.0013964,0.000114,2.3203e+08,170.23,0,2.9004e+08,48.565,13677,1491.5,0,1491.5,0,0.0010449,2.7449e-07,0,0.00057631,0.00019496,2.6985e+08,57483,0,1.3715e+08,72433,1491.5,1
4990,6.47,12381,1,12381,1,0.00034855,-1.9503e-08,0,0.00093993,-6.3304e-05,-7.7032e+06,-142.99,0,2.3278e+08,15578,12380,15000,1,15000,1,0.002211,1.828e-06,0,0.002211,0.00026413,3.036e+08,6.2527e+05,0,5.7151e+08,6.0014e+05,14999,12382,1,12382,1,0.00033101,-6.411e-10,0,0.00087085,-6.0099e-05,8.2316e+07,-149.49,0,2.3238e+08,-9.0169,12381,9753,1,9753,1,-0.0014052,-3.2774e-06,0,6.1518e-05,-0.00041092,-5.7151e+08,-4.9111e+05,0,1.6815e+07,-15805,9752,11091,1,11091,1,-0.00060376,-1.4765e-09,0,0.00046457,-0.00023451,-2.455e+08,-282.87,0,1.3686e+08,-587.31,11090,13678,1,13678,1,0.0012658,1.7625e-10,0,0.0013993,0.00011411,2.3238e+08,55.47,0,2.8994e+08,55.785,13677,1491.5,0,1491.5,0,0.0010467,2.7583e-07,0,0.00057745,0.0001953,2.7016e+08,57755,0,1.3729e+08,73071,1491.5,1
4990,6.48,12381,1,12381,1,0.00034963,-1.9083e-08,0,0.00094165,-6.3501e-05,-7.6975e+06,-50.291,0,2.3305e+08,15672,12380,15000,1,15000,1,0.0022154,1.8388e-06,0,0.0022154,0.0002645,3.0345e+08,6.2893e+05,0,5.7231e+08,6.0756e+05,14999,12382,1,12382,1,0.00033206,4.1051e-10,0,0.00087189,-6.0293e-05,8.2577e+07,89.782,0,2.3273e+08,-5.7962,12381,9753,1,9753,1,-0.0014072,-3.3036e-06,0,6.2094e-05,-0.00041173,-5.7231e+08,-4.9477e+05,0,1.6977e+07,-16096,9752,11091,1,11091,1,-0.00060433,-7.4983e-10,0,0.00046585,-0.000235,-2.4574e+08,-183.77,0,1.369e+08,-588.22,11090,13678,1,13678,1,0.0012685,1.3318e-09,0,0.0014022,0.00011422,2.3273e+08,245.28,0,2.8984e+08,64.399,13677,1491.5,0,1491.5,0,0.0010485,2.7751e-07,0,0.00057859,0.00019563,2.7046e+08,58044,0,1.3743e+08,73717,1491.5,1
4990,6.49,12381,1,12381,1,0.00035071,-1.9399e-08,0,0.00094336,-6.3698e-05,-7.6916e+06,-106.05,0,2.3331e+08,15773,12380,15000,1,15000,1,0.0022198,1.848e-06,0,0.0022198,0.00026487,3.0332e+08,6.321e+05,0,5.7311e+08,6.1494e+05,14999,12382,1,12382,1,0.0003331,8.0511e-11,0,0.0008729,-6.0485e-05,8.2837e+07,20.093,0,2.3308e+08,19.992,12381,9753,1,9753,1,-0.0014091,-3.3301e-06,0,6.267e-05,-0.00041254,-5.7311e+08,-4.9852e+05,0,1.7139e+07,-16439,9752,11091,1,11091,1,-0.0006049,-1.9423e-09,0,0.00046713,-0.00023549,-2.4597e+08,-389.66,0,1.3694e+08,-593.83,11090,13678,1,13678,1,0.0012711,2.3586e-09,0,0.0014051,0.00011432,2.3308e+08,502.92,0,2.8974e+08,100.88,13677,1491.5,0,1491.5,0,0.0010503,2.7915e-07,0,0.00057973,0.00019597,2.7076e+08,58315,0,1.3758e+08,74343,1491.5,1
4990,6.5,12381,1,12381,1,0.00035179,-1.9249e-08,0,0.0009451,-6.3897e-05,-7.6861e+06,-73.967,0,2.3358e+08,15822,12380,15000,1,15000,1,0.0022242,1.8593e-06,0,0.0022242,0.00026524,3.0317e+08,6.3597e+05,0,5.7391e+08,6.2245e+05,14999,12382,1,12382,1,0.00033416,4.3119e-10,0,0.00087396,-6.068e-05,8.3099e+07,104.14,0,2.3343e+08,-14.863,12381,9753,1,9753,1,-0.0014111,-3.3488e-06,0,6.325e-05,-0.00041335,-5.7391e+08,-5.0104e+05,0,1.7302e+07,-16835,9752,11091,1,11091,1,-0.00060548,-7.9022e-10,0,0.00046841,-0.00023599,-2.462e+08,-156.73,0,1.3699e+08,-611.53,11090,13678,1,13678,1,0.0012738,1.1635e-09,0,0.001408,0.00011443,2.3343e+08,259.72,0,2.8965e+08,56.308,13677,1491.5,0,1491.5,0,0.0010522,2.8015e-07,0,0.00058087,0.00019631,2.7107e+08,58528,0,1.3772e+08,74984,1491.5,1
4990,6.51,12381,1,12381,1,0.00035287,-1.947e-08,0,0.00094681,-6.4095e-05,-7.68e+06,-112.49,0,2.3384e+08,15925,12380,15000,1,15000,1,0.0022286,1.8687e-06,0,0.0022286,0.00026561,3.0303e+08,6.3916e+05,0,5.7471e+08,6.2977e+05,14999,12382,1,12382,1,0.00033521,1.8847e-11,0,0.00087497,-6.0874e-05,8.3361e+07,4.979,0,2.3378e+08,5.5583,12381,9753,1,9753,1,-0.0014131,-3.375e-06,0,6.3832e-05,-0.00041417,-5.7471e+08,-5.0472e+05,0,1.7465e+07,-17169,9752,11091,1,11091,1,-0.00060604,-1.3298e-09,0,0.0004697,-0.00023648,-2.4643e+08,-263.05,0,1.3703e+08,-595.81,11090,13678,1,13678,1,0.0012765,1.4956e-09,0,0.0014109,0.00011454,2.3378e+08,333.3,0,2.8954e+08,85.697,13677,1491.5,0,1491.5,0,0.001054,2.8176e-07,0,0.00058201,0.00019664,2.7137e+08,58797,0,1.3786e+08,75613,1491.5,1
4990,6.52,12381,1,12381,1,0.00035396,-1.9849e-08,0,0.00094853,-6.4293e-05,-7.6741e+06,-197.94,0,2.3411e+08,15989,12380,15000,1,15000,1,0.002233,1.8784e-06,0,0.002233,0.00026598,3.0288e+08,6.4248e+05,0,5.7551e+08,6.3705e+05,14999,12382,1,12382,1,0.00033626,-4.6183e-10,0,0.000876,-6.1068e-05,8.3622e+07,-95.608,0,2.3413e+08,0.6751,12381,9753,1,9753,1,-0.001415,-3.3956e-06,0,6.4417e-05,-0.00041498,-5.7551e+08,-5.0757e+05,0,1.7628e+07,-17557,9752,11091,1,11091,1,-0.00060661,-2.0672e-09,0,0.00047098,-0.00023697,-2.4666e+08,-432.63,0,1.3707e+08,-619.43,11090,13678,1,13678,1,0.0012791,9.7093e-10,0,0.0014138,0.00011465,2.3413e+08,231.77,0,2.8943e+08,78.511,13677,1491.5,0,1491.5,0,0.0010558,2.8291e-07,0,0.00058315,0.00019698,2.7167e+08,59014,0,1.3801e+08,76229,1491.5,1
4990,6.53,12381,1,12381,1,0.00035505,-1.9217e-08,0,0.00095026,-6.4492e-05,-7.6682e+06,-70.366,0,2.3437e+08,16050,12380,15000,1,15000,1,0.0022374,1.8882e-06,0,0.0022374,0.00026635,3.0273e+08,6.4585e+05,0,5.763e+08,6.4432e+05,14999,12382,1,12382,1,0.00033732,3.5267e-10,0,0.00087705,-6.1263e-05,8.3885e+07,84.686,0,2.3448e+08,-13.243,12381,9753,1,9753,1,-0.001417,-3.4163e-06,0,6.5004e-05,-0.00041579,-5.763e+08,-5.1041e+05,0,1.7793e+07,-17902,9752,11091,1,11091,1,-0.00060717,-3.7925e-10,0,0.00047224,-0.00023747,-2.4689e+08,-72.641,0,1.3711e+08,-636.65,11090,13678,1,13678,1,0.0012818,1.1055e-09,0,0.0014167,0.00011476,2.3448e+08,231.87,0,2.8933e+08,59.658,13677,1491.5,0,1491.5,0,0.0010576,2.8414e-07,0,0.00058429,0.00019732,2.7197e+08,59234,0,1.3815e+08,76848,1491.5,1
4990,6.54,12381,1,12381,1,0.00035614,-1.9165e-08,0,0.00095199,-6.4692e-05,-7.6622e+06,-60.963,0,2.3464e+08,16110,12380,15000,1,15000,1,0.0022419,1.8987e-06,0,0.0022419,0.00026672,3.0258e+08,6.4943e+05,0,5.771e+08,6.5299e+05,14999,12382,1,12382,1,0.00033838,3.7636e-11,0,0.00087902,-6.1459e-05,8.4149e+07,9.5075,0,2.3483e+08,0.88634,12381,9753,1,9753,1,-0.001419,-3.4353e-06,0,6.5596e-05,-0.00041661,-5.771e+08,-5.1296e+05,0,1.7959e+07,-18406,9752,11091,1,11091,1,-0.00060774,-9.5135e-10,0,0.00047258,-0.00023796,-2.4712e+08,-194.24,0,1.3715e+08,-667.37,11090,13678,1,13678,1,0.0012845,1.3067e-09,0,0.0014187,0.00011486,2.3482e+08,297.05,0,2.8922e+08,64.715,13677,1491.5,0,1491.5,0,0.0010594,2.8498e-07,0,0.00058544,0.00019765,2.7228e+08,59396,0,1.383e+08,77517,1491.5,1
4990,6.55,12381,1,12381,1,0.00035723,-1.8775e-08,0,0.00095368,-6.4891e-05,-7.6554e+06,-52.819,0,2.3489e+08,16143,12380,15000,1,15000,1,0.0022468,1.9109e-06,0,0.0022468,0.00026709,3.0241e+08,6.5361e+05,0,5.7789e+08,6.7031e+05,14999,12382,1,12382,1,0.00033942,1.1148e-09,0,0.00088095,-6.165e-05,8.4408e+07,238.82,0,2.3516e+08,14.57,12381,9753,1,9753,1,-0.0014209,-3.476e-06,0,6.6273e-05,-0.00041751,-5.7789e+08,-5.2012e+05,0,1.8149e+07,-21144,9752,11091,1,11091,1,-0.00060826,-3.0276e-09,0,0.00047289,-0.00023844,-2.4733e+08,-645.5,0,1.3719e+08,-789.25,11090,13678,1,13678,1,0.0012871,5.8146e-09,0,0.0014205,0.00011496,2.3516e+08,1294.6,0,2.8909e+08,113.36,13677,1491.5,0,1491.5,0,0.0010612,2.8703e-07,0,0.00058657,0.00019798,2.7256e+08,59599,0,1.3843e+08,79227,1491.5,1
4990,6.56,12381,1,12381,1,0.00035847,-1.6724e-08,0,0.00095549,-6.512e-05,-7.6483e+06,357.51,0,2.3513e+08,16232,12380,15000,1,15000,1,0.0022518,1.9451e-06,0,0.0022518,0.00026745,3.0217e+08,6.6528e+05,0,5.7868e+08,6.899e+05,14999,12382,1,12382,1,0.00034063,3.5995e-09,0,0.00088313,-6.1875e-05,8.4709e+07,777.23,0,2.3543e+08,-53.649,12381,9753,1,9753,1,-0.0014229,-3.539e-06,0,6.6078e-05,-0.00041844,-5.7868e+08,-5.2996e+05,0,1.8361e+07,-24379,9752,11091,1,11091,1,-0.00060872,-7.9929e-11,0,0.00047313,-0.00023897,-2.4752e+08,-15.559,0,1.3718e+08,-1088.9,11090,13678,1,13678,1,0.00129,7.4038e-09,0,0.0014225,0.00011505,2.3542e+08,1768.5,0,2.8894e+08,75.472,13677,1491.5,0,1491.5,0,0.0010631,2.9215e-07,0,0.00058779,0.00019833,2.7283e+08,60578,0,1.3856e+08,81520,1491.5,1
4990,6.57,12381,1,12381,1,0.0003598,-1.7866e-08,0,0.00095735,-6.5363e-05,-7.6388e+06,212.42,0,2.3535e+08,16537,12380,15000,1,15000,1,0.0022569,1.9907e-06,0,0.0022569,0.00026781,3.0191e+08,6.8088e+05,0,5.7947e+08,7.1003e+05,14999,12382,1,12382,1,0.00034192,1.007e-09,0,0.00088539,-6.2114e-05,8.5031e+07,211.92,0,2.3567e+08,-30.464,12381,9753,1,9753,1,-0.0014248,-3.6452e-06,0,6.549e-05,-0.00041938,-5.7947e+08,-5.453e+05,0,1.8579e+07,-26659,9752,11091,1,11091,1,-0.00060914,-3.3336e-09,0,0.00047329,-0.00023952,-2.4769e+08,-594.8,0,1.3715e+08,-1337.1,11090,13678,1,13678,1,0.0012929,8.5019e-09,0,0.0014243,0.00011513,2.3566e+08,2287,0,2.8873e+08,59.583,13677,1491.5,0,1491.5,0,0.001065,3.0074e-07,0,0.00058906,0.00019869,2.7309e+08,62192,0,1.3869e+08,83962,1491.5,1
4990,6.58,12381,1,12381,1,0.00036118,-2.102e-08,0,0.00095927,-6.5614e-05,-7.6294e+06,-331.36,0,2.3558e+08,16961,12380,15000,1,15000,1,0.0022621,2.0449e-06,0,0.0022621,0.00026819,3.0164e+08,6.9941e+05,0,5.8028e+08,7.3002e+05,14999,12382,1,12382,1,0.00034326,-9.2357e-10,0,0.00088774,-6.2361e-05,8.5363e+07,-184.7,0,2.3592e+08,-113.5,12381,9753,1,9753,1,-0.0014268,-3.7678e-06,0,6.4889e-05,-0.00042033,-5.8028e+08,-5.6242e+05,0,1.88e+07,-27934,9752,11091,1,11091,1,-0.00060958,-7.5688e-09,0,0.00047347,-0.0002401,-2.4787e+08,-1167,0,1.3713e+08,-1464.7,11090,13678,1,13678,1,0.001296,2.0658e-09,0,0.0014263,0.00011521,2.3592e+08,643.4,0,2.8851e+08,4.7858,13677,1491.5,0,1491.5,0,0.001067,3.1053e-07,0,0.00059037,0.00019906,2.7335e+08,64046,0,1.3882e+08,86399,1491.5,1
4990,6.59,12381,1,12381,1,0.00036258,-2.0914e-08,0,0.00096119,-6.5869e-05,-7.6188e+06,-177.9,0,2.358e+08,17490,12380,15000,1,15000,1,0.0022671,2.1015e-06,0,0.0022671,0.00026855,3.0135e+08,7.1879e+05,0,5.8106e+08,7.5038e+05,14999,12382,1,12382,1,0.00034462,-8.3711e-11,0,0.00089009,-6.2612e-05,8.57e+07,-17.487,0,2.3617e+08,-90.712,12381,9753,1,9753,1,-0.0014287,-3.9107e-06,0,6.4279e-05,-0.00042127,-5.8106e+08,-5.8231e+05,0,1.9025e+07,-28819,9752,11091,1,11091,1,-0.00060997,-4.9007e-09,0,0.00047361,-0.00024067,-2.4803e+08,-770.54,0,1.3708e+08,-1574,11090,13678,1,13678,1,0.0012992,1.7549e-09,0,0.0014282,0.00011528,2.3617e+08,548.36,0,2.8826e+08,23.298,13677,1491.5,0,1491.5,0,0.001069,3.2186e-07,0,0.00059168,0.00019942,2.7361e+08,66133,0,1.3894e+08,88882,1491.5,1
4990,6.6,12381,1,12381,1,0.000364,-2.0067e-08,0,0.00096314,-6.6127e-05,-7.6086e+06,173.36,0,2.3603e+08,17982,12380,15000,1,15000,1,0.0022722,2.1613e-06,0,0.0022722,0.00026891,3.0106e+08,7.3922e+05,0,5.8184e+08,7.7046e+05,14999,12382,1,12382,1,0.00034599,5.8123e-10,0,0.0008925,-6.2868e-05,8.6043e+07,157.75,0,2.3642e+08,-127.21,12381,9753,1,9753,1,-0.0014306,-4.0504e-06,0,6.3666e-05,-0.0004222,-5.8184e+08,-6.0145e+05,0,1.9247e+07,-29624,9752,11091,1,11091,1,-0.00061038,-5.2993e-09,0,0.00047378,-0.00024126,-2.4819e+08,-883.12,0,1.3704e+08,-1698.8,11090,13678,1,13678,1,0.0013024,5.5421e-09,0,0.0014302,0.00011536,2.3642e+08,1332.7,0,2.8802e+08,21.678,13677,1491.5,0,1491.5,0,0.001071,3.3308e-07,0,0.00059301,0.0001998,2.7387e+08,68220,0,1.3906e+08,91327,1491.5,1
4990,6.61,12381,1,12381,1,0.00036541,-2.03e-08,0,0.00096506,-6.6385e-05,-7.5976e+06,350.94,0,2.3625e+08,18575,12380,15000,1,15000,1,0.0022772,2.2196e-06,0,0.0022772,0.00026927,3.0077e+08,7.5915e+05,0,5.826e+08,7.9009e+05,14999,12382,1,12382,1,0.00034738,7.7892e-10,0,0.0008949,-6.3124e-05,8.6387e+07,190.9,0,2.3666e+08,-23.576,12381,9753,1,9753,1,-0.0014325,-4.2009e-06,0,6.3042e-05,-0.00042312,-5.826e+08,-6.222e+05,0,1.9468e+07,-30179,9752,11091,1,11091,1,-0.00061076,-2.0685e-09,0,0.0004739,-0.00024184,-2.4835e+08,-352.99,0,1.3699e+08,-1707,11090,13678,1,13678,1,0.0013055,5.5537e-09,0,0.0014321,0.00011543,2.3666e+08,1482.4,0,2.8775e+08,57.507,13677,1491.5,0,1491.5,0,0.0010729,3.4479e-07,0,0.00059434,0.00020016,2.7412e+08,70384,0,1.3919e+08,93683,1491.5,1
4990,6.62,12381,1,12381,1,0.00036682,-2.4255e-08,0,0.00096697,-6.6642e-05,-7.5864e+06,-273.49,0,2.3646e+08,19178,12380,15000,1,15000,1,0.0022823,2.274e-06,0,0.0022823,0.00026963,3.005e+08,7.7776e+05,0,5.8339e+08,8.0936e+05,14999,12382,1,12382,1,0.00034875,-5.8818e-10,0,0.00089726,-6.3377e-05,8.6728e+07,-140.23,0,2.3689e+08,37.047,12381,9753,1,9753,1,-0.0014344,-4.3538e-06,0,6.2415e-05,-0.00042406,-5.8339e+08,-6.4329e+05,0,1.9689e+07,-30461,9752,11091,1,11091,1,-0.00061114,-6.07e-09,0,0.00047403,-0.00024242,-2.4851e+08,-982,0,1.3694e+08,-1710.5,11090,13678,1,13678,1,0.0013086,1.2144e-09,0,0.0014339,0.00011551,2.3689e+08,315.15,0,2.8747e+08,166.45,13677,1491.5,0,1491.5,0,0.0010749,3.5653e-07,0,0.00059565,0.00020053,2.7436e+08,72528,0,1.3931e+08,95977,1491.5,1
4990,6.63,12381,1,12381,1,0.00036823,-2.4612e-08,0,0.00096889,-6.6899e-05,-7.5757e+06,-192.23,0,2.3668e+08,19712,12380,15000,1,15000,1,0.0022873,2.3283e-06,0,0.0022873,0.00026999,3.002e+08,7.9635e+05,0,5.8417e+08,8.2888e+05,14999,12382,1,12382,1,0.00035012,-2.4148e-11,0,0.00089963,-6.3631e-05,8.7068e+07,-7.456,0,2.3714e+08,10.328,12381,9753,1,9753,1,-0.0014363,-4.4973e-06,0,6.1794e-05,-0.00042499,-5.8417e+08,-6.6288e+05,0,1.9915e+07,-30740,9752,11091,1,11091,1,-0.00061153,-3.2162e-09,0,0.00047416,-0.00024299,-2.4866e+08,-543.38,0,1.3689e+08,-1738.8,11090,13678,1,13678,1,0.0013118,1.2651e-09,0,0.0014358,0.00011558,2.3713e+08,324.82,0,2.8722e+08,140.66,13677,1491.5,0,1491.5,0,0.0010769,3.679e-07,0,0.00059697,0.00020089,2.7461e+08,74578,0,1.3943e+08,98295,1491.5,1
4990,6.64,12381,1,12381,1,0.00036965,-2.515e-08,0,0.00097082,-6.7157e-05,-7.5649e+06,-133.79,0,2.369e+08,20234,12380,15000,1,15000,1,0.0022924,2.3823e-06,0,0.0022924,0.00027035,2.999e+08,8.1481e+05,0,5.8495e+08,8.4832e+05,14999,12382,1,12382,1,0.0003515,3.8416e-10,0,0.00090203,-6.3887e-05,8.7412e+07,92.63,0,2.3738e+08,4.9676,12381,9753,1,9753,1,-0.0014383,-4.6372e-06,0,6.1167e-05,-0.00042593,-5.8495e+08,-6.8187e+05,0,2.0141e+07,-31076,9752,11091,1,11091,1,-0.00061192,-2.4142e-09,0,0.0004743,-0.00024357,-2.4882e+08,-453.36,0,1.3684e+08,-1792.1,11090,13678,1,13678,1,0.0013149,1.6856e-09,0,0.0014377,0.00011565,2.3738e+08,439.12,0,2.8696e+08,135.49,13677,1491.5,0,1491.5,0,0.0010789,3.7892e-07,0,0.00059829,0.00020126,2.7486e+08,76575,0,1.3955e+08,1.0057e+05,1491.5,1
4990,6.65,12381,1,12381,1,0.00037107,-2.2865e-08,0,0.00097275,-6.7417e-05,-7.5541e+06,550.99,0,2.3712e+08,20724,12380,15000,1,15000,1,0.0022974,2.4387e-06,0,0.0022974,0.0002707,2.9959e+08,8.341e+05,0,5.8571e+08,8.6773e+05,14999,12382,1,12382,1,0.00035289,1.1739e-09,0,0.00090444,-6.4144e-05,8.7758e+07,283.09,0,2.3762e+08,-32.72,12381,9753,1,9753,1,-0.0014401,-4.7693e-06,0,6.0535e-05,-0.00042685,-5.8571e+08,-6.9956e+05,0,2.0367e+07,-31578,9752,11091,1,11091,1,-0.0006123,-1.2369e-09,0,0.00047443,-0.00024416,-2.4898e+08,-196.73,0,1.368e+08,-1886,11090,13678,1,13678,1,0.0013181,5.409e-09,0,0.0014396,0.00011573,2.3762e+08,1329.2,0,2.8669e+08,135.54,13677,1491.5,0,1491.5,0,0.0010809,3.894e-07,0,0.00059963,0.00020163,2.7512e+08,78527,0,1.3967e+08,1.0285e+05,1491.5,1
4990,6.66,12381,1,12381,1,0.0003725,-2.785e-08,0,0.00097467,-6.7676e-05,-7.5427e+06,-287.8,0,2.3733e+08,21277,12380,15000,1,15000,1,0.0023025,2.4881e-06,0,0.0023025,0.00027107,2.9931e+08,8.5099e+05,0,5.865e+08,8.8657e+05,14999,12382,1,12382,1,0.00035428,-4.4872e-10,0,0.00090683,-6.4402e-05,8.8103e+07,-93.001,0,2.3785e+08,26.199,12381,9753,1,9753,1,-0.0014421,-4.9159e-06,0,5.9891e-05,-0.00042779,-5.865e+08,-7.1954e+05,0,2.0593e+07,-31735,9752,11091,1,11091,1,-0.00061267,-4.481e-09,0,0.00047455,-0.00024474,-2.4913e+08,-727.21,0,1.3674e+08,-1881.9,11090,13678,1,13678,1,0.0013212,1.2182e-09,0,0.0014415,0.0001158,2.3785e+08,299.27,0,2.8641e+08,143.87,13677,1491.5,0,1491.5,0,0.0010828,4.0062e-07,0,0.00060095,0.00020199,2.7536e+08,80507,0,1.398e+08,1.05e+05,1491.5,1
4990,6.67,12381,1,12381,1,0.00037393,-2.8061e-08,0,0.0009766,-6.7936e-05,-7.5317e+06,-188.19,0,2.3755e+08,21772,12380,15000,1,15000,1,0.0023076,2.5393e-06,0,0.0023076,0.00027142,2.99e+08,8.6847e+05,0,5.8727e+08,9.0576e+05,14999,12382,1,12382,1,0.00035567,6.7784e-11,0,0.00090923,-6.4659e-05,8.8448e+07,15.362,0,2.3809e+08,16.925,12381,9753,1,9753,1,-0.001444,-5.0489e-06,0,5.9258e-05,-0.00042873,-5.8727e+08,-7.3737e+05,0,2.0823e+07,-32089,9752,11091,1,11091,1,-0.00061305,-2.953e-09,0,0.00047467,-0.00024532,-2.4928e+08,-556.43,0,1.3669e+08,-1861.5,11090,13678,1,13678,1,0.0013244,1.5191e-09,0,0.0014434,0.00011587,2.3809e+08,364.97,0,2.8614e+08,138.47,13677,1491.5,0,1491.5,0,0.0010848,4.1101e-07,0,0.00060228,0.00020236,2.7561e+08,82372,0,1.3992e+08,1.0721e+05,1491.5,1
4990,6.68,12381,1,12381,1,0.00037536,-3.0603e-08,0,0.00097854,-6.8198e-05,-7.5205e+06,-582.65,0,2.3776e+08,22229,12380,15000,1,15000,1,0.0023128,2.5908e-06,0,0.0023128,0.00027179,2.9869e+08,8.8609e+05,0,5.8805e+08,9.249e+05,14999,12382,1,12382,1,0.00035707,-4.2785e-09,0,0.00091165,-6.4919e-05,8.8797e+07,-942.35,0,2.3833e+08,-20.33,12381,9753,1,9753,1,-0.0014459,-5.1779e-06,0,5.8616e-05,-0.00042968,-5.8805e+08,-7.545e+05,0,2.1054e+07,-32614,9752,11091,1,11091,1,-0.00061342,-8.2861e-09,0,0.00047481,-0.00024591,-2.4943e+08,-1682.6,0,1.3664e+08,-1960.4,11090,13678,1,13678,1,0.0013276,5.4035e-10,0,0.0014453,0.00011594,2.3833e+08,166.72,0,2.8587e+08,113.96,13677,1491.5,0,1491.5,0,0.0010868,4.2088e-07,0,0.00060362,0.00020273,2.7586e+08,84189,0,1.4004e+08,1.094e+05,1491.5,1
4990,6.69,12381,1,12381,1,0.0003768,-2.7898e-08,0,0.00098047,-6.846e-05,-7.5091e+06,121.72,0,2.3798e+08,22749,12380,15000,1,15000,1,0.0023179,2.6414e-06,0,0.0023179,0.00027214,2.9837e+08,9.0341e+05,0,5.8881e+08,9.4408e+05,14999,12382,1,12382,1,0.00035847,8.7305e-10,0,0.00091405,-6.5177e-05,8.9145e+07,192.08,0,2.3856e+08,23.024,12381,9753,1,9753,1,-0.0014478,-5.3119e-06,0,5.7969e-05,-0.00043061,-5.8881e+08,-7.7238e+05,0,2.1287e+07,-32968,9752,11091,1,11091,1,-0.0006138,-1.5087e-09,0,0.00047491,-0.00024649,-2.4958e+08,-383.65,0,1.3658e+08,-1933.5,11090,13678,1,13678,1,0.0013307,5.0291e-09,0,0.0014472,0.00011601,2.3856e+08,814.47,0,2.8559e+08,158.54,13677,1491.5,0,1491.5,0,0.0010888,4.314e-07,0,0.00060495,0.0002031,2.761e+08,86048,0,1.4016e+08,1.1156e+05,1491.5,1
4990,6.7,12381,1,12381,1,0.00037823,-2.9696e-08,0,0.0009824,-6.8722e-05,-7.4977e+06,-69.749,0,2.3819e+08,23220,12380,15000,1,15000,1,0.002323,2.6903e-06,0,0.002323,0.0002725,2.9806e+08,9.2013e+05,0,5.8959e+08,9.6321e+05,14999,12382,1,12382,1,0.00035987,-2.3507e-10,0,0.00091647,-6.5437e-05,8.9493e+07,-57.62,0,2.3879e+08,3.8551,12381,9753,1,9753,1,-0.0014497,-5.4423e-06,0,5.7325e-05,-0.00043156,-5.8959e+08,-7.897e+05,0,2.1518e+07,-33412,9752,11091,1,11091,1,-0.00061416,-2.2632e-09,0,0.00047503,-0.00024707,-2.4973e+08,-568.86,0,1.3652e+08,-1965.4,11090,13678,1,13678,1,0.0013339,2.4676e-09,0,0.0014491,0.00011608,2.3879e+08,569.95,0,2.8531e+08,154.59,13677,1491.5,0,1491.5,0,0.0010908,4.414e-07,0,0.00060629,0.00020346,2.7635e+08,87831,0,1.4029e+08,1.1372e+05,1491.5,1
4990,6.71,12381,1,12381,1,0.00037966,-3.1556e-08,0,0.0009843,-6.8983e-05,-7.486e+06,-296.79,0,2.3839e+08,23692,12380,15000,1,15000,1,0.0023281,2.7371e-06,0,0.0023281,0.00027285,2.9774e+08,9.3611e+05,0,5.9036e+08,9.8227e+05,14999,12382,1,12382,1,0.00036127,-2.2162e-09,0,0.00091886,-6.5696e-05,8.9841e+07,-518.1,0,2.3902e+08,18.859,12381,9753,1,9753,1,-0.0014516,-5.5742e-06,0,5.6675e-05,-0.0004325,-5.9036e+08,-8.0725e+05,0,2.1752e+07,-34097,9752,11091,1,11091,1,-0.0006145,-1.0329e-08,0,0.00047513,-0.00024765,-2.4987e+08,-2101.4,0,1.3646e+08,-2041.6,11090,13678,1,13678,1,0.001337,4.1697e-09,0,0.0014509,0.00011615,2.3901e+08,752.01,0,2.8502e+08,214.64,13677,1491.5,0,1491.5,0,0.0010927,4.5136e-07,0,0.00060761,0.00020383,2.7659e+08,89611,0,1.404e+08,1.1586e+05,1491.5,1
4990,6.72,12381,1,12381,1,0.0003811,-3.0669e-08,0,0.00098626,-6.9246e-05,-7.4751e+06,9.0657,0,2.3861e+08,24088,12380,15000,1,15000,1,0.0023333,2.787e-06,0,0.0023333,0.00027321,2.9742e+08,9.5319e+05,0,5.9113e+08,1.0015e+06,14999,12382,1,12382,1,0.00036267,-7.3211e-11,0,0.00092129,-6.5955e-05,9.0191e+07,-18.312,0,2.3926e+08,-47.825,12381,9753,1,9753,1,-0.0014535,-5.6931e-06,0,5.6022e-05,-0.00043345,-5.9113e+08,-8.2271e+05,0,2.1987e+07,-34786,9752,11091,1,11091,1,-0.0006149,-2.2746e-09,0,0.00047526,-0.00024824,-2.5003e+08,-678.48,0,1.3641e+08,-2097.5,11090,13678,1,13678,1,0.0013402,4.7288e-09,0,0.0014528,0.00011622,2.3925e+08,690.4,0,2.8475e+08,116.72,13677,1491.5,0,1491.5,0,0.0010947,4.6077e-07,0,0.00060896,0.0002042,2.7684e+08,91288,0,1.4053e+08,1.1801e+05,1491.5,1
4990,6.73,12381,1,12381,1,0.00038255,-3.1952e-08,0,0.00098819,-6.9511e-05,-7.4633e+06,-97.109,0,2.3882e+08,24562,12380,15000,1,15000,1,0.0023384,2.8325e-06,0,0.0023384,0.00027356,2.9709e+08,9.6876e+05,0,5.9189e+08,1.0207e+06,14999,12382,1,12382,1,0.00036408,2.1687e-10,0,0.00092371,-6.6217e-05,9.0542e+07,49.279,0,2.3948e+08,-31.855,12381,9753,1,9753,1,-0.0014553,-5.8257e-06,0,5.5362e-05,-0.0004344,-5.9189e+08,-8.4027e+05,0,2.2223e+07,-35327,9752,11091,1,11091,1,-0.00061525,-1.7238e-09,0,0.00047536,-0.00024882,-2.5017e+08,-520.46,0,1.3635e+08,-2115.5,11090,13678,1,13678,1,0.0013434,4.7347e-09,0,0.0014547,0.00011629,2.3948e+08,707.73,0,2.8446e+08,153.32,13677,1491.5,0,1491.5,0,0.0010967,4.7086e-07,0,0.0006103,0.00020456,2.7708e+08,93010,0,1.4065e+08,1.2015e+05,1491.5,1
4990,6.74,12381,1,12381,1,0.00038402,-2.9442e-08,0,0.00099016,-6.9778e-05,-7.4521e+06,589.46,0,2.3904e+08,24969,12380,15000,1,15000,1,0.0023435,2.8842e-06,0,0.0023435,0.00027391,2.9675e+08,9.8642e+05,0,5.9265e+08,1.0401e+06,14999,12382,1,12382,1,0.00036551,2.0451e-09,0,0.00092618,-6.6482e-05,9.0897e+07,392.14,0,2.3973e+08,-77.233,12381,9753,1,9753,1,-0.0014572,-5.9396e-06,0,5.4705e-05,-0.00043533,-5.9265e+08,-8.5484e+05,0,2.2315e+07,-35956,9752,11091,1,11091,1,-0.00061562,-1.9824e-09,0,0.00047549,-0.00024942,-2.5033e+08,-546.44,0,1.363e+08,-2195.2,11090,13678,1,13678,1,0.0013467,1.0066e-08,0,0.0014566,0.00011636,2.3972e+08,2082.8,0,2.8418e+08,147.42,13677,1491.5,0,1491.5,0,0.0010988,4.7974e-07,0,0.00061167,0.00020494,2.7734e+08,94636,0,1.4078e+08,1.2231e+05,1491.5,1
4990,6.75,12381,1,12381,1,0.00038547,-3.4572e-08,0,0.00099208,-7.0043e-05,-7.4396e+06,-273.7,0,2.3924e+08,25484,12380,15000,1,15000,1,0.0023487,2.9276e-06,0,0.0023487,0.00027427,2.9644e+08,1.0013e+06,0,5.9342e+08,1.0591e+06,14999,12382,1,12382,1,0.00036694,-9.1873e-10,0,0.0009286,-6.6745e-05,9.1251e+07,-211.96,0,2.3994e+08,33.982,12381,9753,1,9753,1,-0.0014591,-6.0788e-06,0,5.4035e-05,-0.00043629,-5.9342e+08,-8.7331e+05,0,2.2057e+07,-36367,9752,11091,1,11091,1,-0.00061596,-4.415e-09,0,0.00047556,-0.00025001,-2.5046e+08,-988.59,0,1.3622e+08,-2144.4,11090,13678,1,13678,1,0.0013498,2.6697e-09,0,0.0014585,0.00011643,2.3994e+08,606.1,0,2.8387e+08,225.42,13677,1491.5,0,1491.5,0,0.0011007,4.8983e-07,0,0.00061301,0.0002053,2.7757e+08,96366,0,1.409e+08,1.2438e+05,1491.5,1
4990,6.76,12381,1,12381,1,0.00038692,-3.4763e-08,0,0.000994,-7.0307e-05,-7.4279e+06,-206.91,0,2.3945e+08,25911,12380,15000,1,15000,1,0.0023539,2.9711e-06,0,0.0023539,0.00027463,2.9611e+08,1.0161e+06,0,5.9419e+08,1.0782e+06,14999,12382,1,12382,1,0.00036834,1.2634e-10,0,0.000931,-6.7005e-05,9.16e+07,33.395,0,2.4016e+08,48.561,12381,9753,1,9753,1,-0.001461,-6.2035e-06,0,5.3376e-05,-0.00043724,-5.9419e+08,-8.8958e+05,0,2.1796e+07,-37113,9752,11091,1,11091,1,-0.00061631,-4.2362e-09,0,0.00047565,-0.00025059,-2.5061e+08,-748.73,0,1.3616e+08,-2181.9,11090,13678,1,13678,1,0.001353,4.7587e-09,0,0.0014603,0.00011649,2.4016e+08,816.58,0,2.8358e+08,246.65,13677,1491.5,0,1491.5,0,0.0011027,4.9927e-07,0,0.00061435,0.00020567,2.7781e+08,97963,0,1.4102e+08,1.2651e+05,1491.5,1
4990,6.77,12381,1,12381,1,0.00038837,-3.5053e-08,0,0.00099594,-7.0572e-05,-7.4162e+06,-144.77,0,2.3966e+08,26315,12380,15000,1,15000,1,0.0023591,3.0163e-06,0,0.0023591,0.00027498,2.9577e+08,1.0316e+06,0,5.9495e+08,1.0976e+06,14999,12382,1,12382,1,0.00036975,2.5216e-10,0,0.00093342,-6.7267e-05,9.195e+07,57.374,0,2.4039e+08,15.935,12381,9753,1,9753,1,-0.0014629,-6.3207e-06,0,5.271e-05,-0.0004382,-5.9495e+08,-9.0466e+05,0,2.1536e+07,-37804,9752,11091,1,11091,1,-0.00061666,-3.5019e-09,0,0.00047575,-0.00025117,-2.5075e+08,-611.11,0,1.361e+08,-2250.5,11090,13678,1,13678,1,0.0013562,3.1677e-09,0,0.0014622,0.00011656,2.4039e+08,641.81,0,2.8329e+08,218.43,13677,1491.5,0,1491.5,0,0.0011047,5.0807e-07,0,0.00061569,0.00020603,2.7805e+08,99512,0,1.4114e+08,1.2864e+05,1491.5,1
4990,6.78,12381,1,12381,1,0.00038983,-3.5483e-08,0,0.00099787,-7.0838e-05,-7.4045e+06,-106.26,0,2.3987e+08,26731,12380,15000,1,15000,1,0.0023643,3.0614e-06,0,0.0023643,0.00027533,2.9543e+08,1.047e+06,0,5.9572e+08,1.1172e+06,14999,12382,1,12382,1,0.00037117,1.2071e-10,0,0.00093585,-6.753e-05,9.2303e+07,28.647,0,2.4061e+08,4.4884,12381,9753,1,9753,1,-0.0014647,-6.4414e-06,0,5.204e-05,-0.00043916,-5.9572e+08,-9.2019e+05,0,2.1275e+07,-38562,9752,11091,1,11091,1,-0.00061701,-3.5096e-09,0,0.00047585,-0.00025176,-2.5089e+08,-608.38,0,1.3603e+08,-2304,11090,13678,1,13678,1,0.0013593,3.2278e-09,0,0.001464,0.00011663,2.4061e+08,694.68,0,2.83e+08,209.92,13677,1491.5,0,1491.5,0,0.0011067,5.1712e-07,0,0.00061704,0.0002064,2.7829e+08,1.0109e+05,0,1.4127e+08,1.3078e+05,1491.5,1
4990,6.79,12381,1,12381,1,0.00039129,-3.6225e-08,0,0.00099981,-7.1105e-05,-7.3925e+06,-138.97,0,2.4007e+08,27128,12380,15000,1,15000,1,0.0023695,3.1061e-06,0,0.0023695,0.00027569,2.9508e+08,1.0623e+06,0,5.9648e+08,1.1369e+06,14999,12382,1,12382,1,0.00037259,-3.311e-11,0,0.00093829,-6.7794e-05,9.2658e+07,-8.4799,0,2.4084e+08,-16.601,12381,9753,1,9753,1,-0.0014666,-6.5618e-06,0,5.1364e-05,-0.00044013,-5.9648e+08,-9.3562e+05,0,2.1012e+07,-39353,9752,11091,1,11091,1,-0.00061736,-2.7464e-09,0,0.00047594,-0.00025235,-2.5103e+08,-478.53,0,1.3597e+08,-2356.8,11090,13678,1,13678,1,0.0013625,2.06e-09,0,0.0014659,0.00011669,2.4084e+08,498.24,0,2.827e+08,188.45,13677,1491.5,0,1491.5,0,0.0011086,5.2616e-07,0,0.0006184,0.00020677,2.7854e+08,1.0264e+05,0,1.4139e+08,1.3292e+05,1491.5,1
4990,6.8,12381,1,12381,1,0.00039276,-3.6928e-08,0,0.0010018,-7.1373e-05,-7.3805e+06,-166.31,0,2.4028e+08,27532,12380,15000,1,15000,1,0.0023747,3.1508e-06,0,0.0023747,0.00027604,2.9474e+08,1.0776e+06,0,5.9725e+08,1.1565e+06,14999,12382,1,12382,1,0.00037402,-3.22e-10,0,0.00094072,-6.8059e-05,9.3013e+07,-69.442,0,2.4106e+08,-20.844,12381,9753,1,9753,1,-0.0014685,-6.682e-06,0,5.0686e-05,-0.00044109,-5.9725e+08,-9.5096e+05,0,2.0748e+07,-40197,9752,11091,1,11091,1,-0.0006177,-3.1066e-09,0,0.00047603,-0.00025294,-2.5117e+08,-539.66,0,1.359e+08,-2399.9,11090,13678,1,13678,1,0.0013657,1.5438e-09,0,0.0014678,0.00011676,2.4106e+08,374.61,0,2.824e+08,198.44,13677,1491.5,0,1491.5,0,0.0011106,5.351e-07,0,0.00061975,0.00020714,2.7878e+08,1.0419e+05,0,1.4151e+08,1.3505e+05,1491.5,1
4990,6.81,12381,1,12381,1,0.00039422,-3.7236e-08,0,0.0010037,-7.1641e-05,-7.3685e+06,-118.2,0,2.4048e+08,27926,12380,15000,1,15000,1,0.00238,3.1948e-06,0,0.00238,0.00027639,2.9439e+08,1.0926e+06,0,5.9801e+08,1.1763e+06,14999,12382,1,12382,1,0.00037545,2.1415e-10,0,0.00094317,-6.8324e-05,9.3369e+07,47.381,0,2.4128e+08,-26.079,12381,9753,1,9753,1,-0.0014704,-6.803e-06,0,5.0007e-05,-0.00044205,-5.9801e+08,-9.6639e+05,0,2.0484e+07,-41033,9752,11091,1,11091,1,-0.00061803,-2.0605e-09,0,0.00047612,-0.00025353,-2.5131e+08,-454.5,0,1.3583e+08,-2460.8,11090,13678,1,13678,1,0.0013689,1.9207e-09,0,0.0014696,0.00011682,2.4128e+08,476.35,0,2.821e+08,188.92,13677,1491.5,0,1491.5,0,0.0011126,5.4416e-07,0,0.00062111,0.00020751,2.7901e+08,1.0573e+05,0,1.4163e+08,1.372e+05,1491.5,1
4990,6.82,12381,1,12381,1,0.0003957,-3.7647e-08,0,0.0010056,-7.1911e-05,-7.3564e+06,-81.703,0,2.4069e+08,28316,12380,15000,1,15000,1,0.0023852,3.2403e-06,0,0.0023852,0.00027675,2.9404e+08,1.1082e+06,0,5.9878e+08,1.1962e+06,14999,12382,1,12382,1,0.0003769,1.9592e-11,0,0.00094563,-6.8591e-05,9.3727e+07,4.1912,0,2.4151e+08,-36.398,12381,9753,1,9753,1,-0.0014723,-6.9209e-06,0,4.9325e-05,-0.00044302,-5.9878e+08,-9.8128e+05,0,2.0221e+07,-41979,9752,11091,1,11091,1,-0.00061838,-2.5777e-09,0,0.00047621,-0.00025412,-2.5145e+08,-579.19,0,1.3577e+08,-2516.7,11090,13678,1,13678,1,0.0013722,2.3209e-09,0,0.0014715,0.00011689,2.4151e+08,543.84,0,2.818e+08,193.53,13677,1491.5,0,1491.5,0,0.0011146,5.5292e-07,0,0.00062247,0.00020788,2.7926e+08,1.0725e+05,0,1.4176e+08,1.3934e+05,1491.5,1
4990,6.83,12381,1,12381,1,0.00039718,-3.8478e-08,0,0.0010076,-7.2181e-05,-7.3441e+06,-133.3,0,2.4089e+08,28725,12380,15000,1,15000,1,0.0023905,3.2844e-06,0,0.0023905,0.0002771,2.9368e+08,1.1233e+06,0,5.9953e+08,1.2162e+06,14999,12382,1,12382,1,0.00037834,-2.6784e-10,0,0.00094808,-6.8858e-05,9.4086e+07,-59.575,0,2.4172e+08,-14.376,12381,9753,1,9753,1,-0.0014741,-7.0449e-06,0,4.8636e-05,-0.00044399,-5.9953e+08,-9.9703e+05,0,1.9955e+07,-42895,9752,11091,1,11091,1,-0.00061871,-2.8092e-09,0,0.00047628,-0.00025471,-2.5158e+08,-642.11,0,1.3569e+08,-2569.6,11090,13678,1,13678,1,0.0013754,2.2368e-09,0,0.0014733,0.00011695,2.4172e+08,530.3,0,2.8148e+08,218,13677,1491.5,0,1491.5,0,0.0011166,5.6207e-07,0,0.00062383,0.00020824,2.7949e+08,1.088e+05,0,1.4188e+08,1.4151e+05,1491.5,1
4990,6.84,12381,1,12381,1,0.00039866,-3.9032e-08,0,0.0010095,-7.2451e-05,-7.3317e+06,-136.77,0,2.4109e+08,29121,12380,15000,1,15000,1,0.0023957,3.327e-06,0,0.0023957,0.00027745,2.9333e+08,1.1378e+06,0,6.0029e+08,1.2362e+06,14999,12382,1,12382,1,0.00037978,9.1952e-11,0,0.00095053,-6.9124e-05,9.4443e+07,19.263,0,2.4194e+08,-9.595,12381,9753,1,9753,1,-0.001476,-7.1684e-06,0,4.7949e-05,-0.00044496,-6.0029e+08,-1.0127e+06,0,1.969e+07,-43819,9752,11091,1,11091,1,-0.00061904,-2.8398e-09,0,0.00047636,-0.0002553,-2.5171e+08,-602.78,0,1.3562e+08,-2624.7,11090,13678,1,13678,1,0.0013786,2.4686e-09,0,0.0014752,0.00011702,2.4194e+08,590.77,0,2.8117e+08,242.92,13677,1491.5,0,1491.5,0,0.0011186,5.7119e-07,0,0.0006252,0.00020861,2.7973e+08,1.1032e+05,0,1.42e+08,1.4366e+05,1491.5,1
4990,6.85,12381,1,12381,1,0.00040014,-3.9189e-08,0,0.0010115,-7.2722e-05,-7.3195e+06,-55.304,0,2.413e+08,29497,12380,15000,1,15000,1,0.002401,3.3706e-06,0,0.002401,0.0002778,2.9297e+08,1.1527e+06,0,6.0105e+08,1.2564e+06,14999,12382,1,12382,1,0.00038122,5.2719e-10,0,0.00095299,-6.9391e-05,9.4802e+07,107.55,0,2.4216e+08,-11.069,12381,9753,1,9753,1,-0.0014779,-7.2868e-06,0,4.7257e-05,-0.00044593,-6.0105e+08,-1.0275e+06,0,1.9425e+07,-44844,9752,11091,1,11091,1,-0.00061937,-2.7229e-09,0,0.00047644,-0.0002559,-2.5185e+08,-539.89,0,1.3555e+08,-2688.2,11090,13678,1,13678,1,0.0013818,3.1547e-09,0,0.001477,0.00011708,2.4216e+08,677.4,0,2.8086e+08,246.38,13677,1491.5,0,1491.5,0,0.0011206,5.7994e-07,0,0.00062656,0.00020898,2.7997e+08,1.118e+05,0,1.4213e+08,1.4583e+05,1491.5,1
4990,6.86,12381,1,12381,1,0.00040162,-4.0148e-08,0,0.0010134,-7.2993e-05,-7.3072e+06,-143.05,0,2.415e+08,29870,12380,15000,1,15000,1,0.0024063,3.4145e-06,0,0.0024063,0.00027816,2.926e+08,1.1677e+06,0,6.0182e+08,1.2766e+06,14999,12382,1,12382,1,0.00038267,-1.014e-10,0,0.00095546,-6.966e-05,9.5163e+07,-28.782,0,2.4238e+08,-36.404,12381,9753,1,9753,1,-0.0014797,-7.4054e-06,0,4.656e-05,-0.0004469,-6.0182e+08,-1.0423e+06,0,1.916e+07,-45898,9752,11091,1,11091,1,-0.0006197,-3.1576e-09,0,0.00047652,-0.00025649,-2.5198e+08,-719.19,0,1.3548e+08,-2755.2,11090,13678,1,13678,1,0.001385,2.6996e-09,0,0.0014789,0.00011714,2.4238e+08,631.78,0,2.8055e+08,235.33,13677,1491.5,0,1491.5,0,0.0011226,5.8867e-07,0,0.00062793,0.00020935,2.8021e+08,1.1328e+05,0,1.4225e+08,1.4801e+05,1491.5,1
4990,6.87,12381,1,12381,1,0.00040311,-4.0832e-08,0,0.0010154,-7.3266e-05,-7.2946e+06,-181.52,0,2.417e+08,30254,12380,15000,1,15000,1,0.0024116,3.4581e-06,0,0.0024116,0.00027851,2.9224e+08,1.1826e+06,0,6.0258e+08,1.297e+06,14999,12382,1,12382,1,0.00038412,-4.6936e-10,0,0.00095792,-6.9928e-05,9.5524e+07,-103.54,0,2.4259e+08,-12.562,12381,9753,1,9753,1,-0.0014816,-7.5264e-06,0,4.5862e-05,-0.00044788,-6.0258e+08,-1.0574e+06,0,1.8893e+07,-46998,9752,11091,1,11091,1,-0.00062002,-3.4718e-09,0,0.00047659,-0.00025709,-2.5211e+08,-813.92,0,1.354e+08,-2839.1,11090,13678,1,13678,1,0.0013883,2.459e-09,0,0.0014807,0.0001172,2.4259e+08,600.39,0,2.8023e+08,260.89,13677,1491.5,0,1491.5,0,0.0011246,5.9751e-07,0,0.0006293,0.00020972,2.8044e+08,1.1477e+05,0,1.4237e+08,1.5019e+05,1491.5,1
4990,6.88,12381,1,12381,1,0.0004046,-4.1115e-08,0,0.0010173,-7.3538e-05,-7.2821e+06,-141.81,0,2.419e+08,30630,12380,15000,1,15000,1,0.0024169,3.502e-06,0,0.0024169,0.00027886,2.9187e+08,1.1977e+06,0,6.0333e+08,1.3174e+06,14999,12382,1,12382,1,0.00038557,-5.1253e-10,0,0.00096039,-7.0198e-05,9.5885e+07,-123.78,0,2.4281e+08,-9.1117,12381,9753,1,9753,1,-0.0014835,-7.6472e-06,0,4.516e-05,-0.00044886,-6.0333e+08,-1.0724e+06,0,1.8626e+07,-48104,9752,11091,1,11091,1,-0.00062034,-3.4278e-09,0,0.00047665,-0.00025768,-2.5224e+08,-819.21,0,1.3533e+08,-2894.6,11090,13678,1,13678,1,0.0013915,2.7552e-09,0,0.0014826,0.00011726,2.428e+08,674.22,0,2.7992e+08,266.85,13677,1491.5,0,1491.5,0,0.0011266,6.0639e-07,0,0.00063068,0.00021009,2.8068e+08,1.1626e+05,0,1.425e+08,1.5239e+05,1491.5,1
4990,6.89,12381,1,12381,1,0.00040609,-4.3074e-08,0,0.0010193,-7.381e-05,-7.2692e+06,-457.77,0,2.421e+08,31017,12380,15000,1,15000,1,0.0024223,3.5413e-06,0,0.0024223,0.00027921,2.9151e+08,1.2111e+06,0,6.041e+08,1.3379e+06,14999,12382,1,12382,1,0.00038702,-5.5313e-10,0,0.00096284,-7.0466e-05,9.6244e+07,-140.06,0,2.4301e+08,34.222,12381,9753,1,9753,1,-0.0014854,-7.7778e-06,0,4.4455e-05,-0.00044985,-6.041e+08,-1.0889e+06,0,1.8359e+07,-49255,9752,11091,1,11091,1,-0.00062065,-9.6714e-09,0,0.00047671,-0.00025827,-2.5237e+08,-1881.9,0,1.3525e+08,-2998.4,11090,13678,1,13678,1,0.0013947,8.0246e-09,0,0.0014844,0.00011732,2.4301e+08,1530.9,0,2.7959e+08,275.19,13677,1491.5,0,1491.5,0,0.0011286,6.1587e-07,0,0.00063204,0.00021045,2.8091e+08,1.1778e+05,0,1.4262e+08,1.546e+05,1491.5,1
4990,6.9,12381,1,12381,1,0.00040759,-4.1439e-08,0,0.0010212,-7.4084e-05,-7.2571e+06,-42.967,0,2.423e+08,31346,12380,15000,1,15000,1,0.0024276,3.5873e-06,0,0.0024276,0.00027956,2.9112e+08,1.2268e+06,0,6.0486e+08,1.3588e+06,14999,12382,1,12382,1,0.00038848,2.4333e-10,0,0.00096532,-7.0736e-05,9.6607e+07,61.889,0,2.4323e+08,-81.626,12381,9753,1,9753,1,-0.0014872,-7.8854e-06,0,4.3745e-05,-0.00045083,-6.0486e+08,-1.1018e+06,0,1.809e+07,-50421,9752,11091,1,11091,1,-0.00062099,-2.9878e-09,0,0.00047679,-0.00025887,-2.5251e+08,-545.62,0,1.3518e+08,-3036.4,11090,13678,1,13678,1,0.0013979,3.4849e-09,0,0.0014863,0.00011739,2.4323e+08,609.15,0,2.7928e+08,261.81,13677,1491.5,0,1491.5,0,0.0011306,6.2392e-07,0,0.00063343,0.00021083,2.8115e+08,1.1916e+05,0,1.4274e+08,1.5684e+05,1491.5,1
4990,6.91,12381,1,12381,1,0.0004091,-4.2066e-08,0,0.0010232,-7.436e-05,-7.2443e+06,-54.767,0,2.425e+08,31722,12380,15000,1,15000,1,0.002433,3.6312e-06,0,0.002433,0.00027991,2.9075e+08,1.2418e+06,0,6.0561e+08,1.3795e+06,14999,12382,1,12382,1,0.00038995,-2.3909e-11,0,0.00096781,-7.1008e-05,9.6973e+07,-5.1176,0,2.4344e+08,-55.366,12381,9753,1,9753,1,-0.0014891,-8.0076e-06,0,4.3033e-05,-0.00045181,-6.0561e+08,-1.1169e+06,0,1.7822e+07,-51661,9752,11091,1,11091,1,-0.0006213,-3.1105e-09,0,0.00047685,-0.00025947,-2.5263e+08,-662.14,0,1.351e+08,-3094.4,11090,13678,1,13678,1,0.0014012,2.7139e-09,0,0.0014881,0.00011745,2.4344e+08,650.49,0,2.7896e+08,282.25,13677,1491.5,0,1491.5,0,0.0011326,6.328e-07,0,0.00063481,0.0002112,2.8138e+08,1.2064e+05,0,1.4287e+08,1.5906e+05,1491.5,1
4990,6.92,12381,1,12381,1,0.0004106,-4.2761e-08,0,0.0010251,-7.4636e-05,-7.2314e+06,-93.58,0,2.427e+08,32095,12380,15000,1,15000,1,0.0024383,3.6739e-06,0,0.0024383,0.00028026,2.9037e+08,1.2564e+06,0,6.0636e+08,1.4003e+06,14999,12382,1,12382,1,0.00039142,1.7549e-10,0,0.0009703,-7.128e-05,9.7338e+07,42.972,0,2.4365e+08,-51.733,12381,9753,1,9753,1,-0.0014909,-8.1326e-06,0,4.2318e-05,-0.0004528,-6.0636e+08,-1.1323e+06,0,1.7554e+07,-52892,9752,11091,1,11091,1,-0.00062161,-3.3077e-09,0,0.00047691,-0.00026007,-2.5276e+08,-789.02,0,1.3502e+08,-3216.5,11090,13678,1,13678,1,0.0014045,3.4692e-09,0,0.0014899,0.00011751,2.4365e+08,791.47,0,2.7863e+08,302.48,13677,1491.5,0,1491.5,0,0.0011346,6.4192e-07,0,0.00063619,0.00021156,2.8162e+08,1.2213e+05,0,1.4299e+08,1.613e+05,1491.5,1
4990,6.93,12381,1,12381,1,0.00041211,-4.3696e-08,0,0.0010271,-7.4911e-05,-7.2185e+06,-186.92,0,2.4289e+08,32464,12380,15000,1,15000,1,0.0024437,3.7171e-06,0,0.0024437,0.00028061,2.8999e+08,1.2712e+06,0,6.0712e+08,1.4212e+06,14999,12382,1,12382,1,0.00039289,-5.3835e-10,0,0.00097278,-7.1552e-05,9.7703e+07,-112.75,0,2.4386e+08,-16.585,12381,9753,1,9753,1,-0.0014928,-8.2541e-06,0,4.1603e-05,-0.00045379,-6.0712e+08,-1.1471e+06,0,1.7286e+07,-54218,9752,11091,1,11091,1,-0.00062192,-4.1026e-09,0,0.00047696,-0.00026066,-2.5288e+08,-930.56,0,1.3494e+08,-3258.5,11090,13678,1,13678,1,0.0014077,2.6895e-09,0,0.0014918,0.00011756,2.4386e+08,644.23,0,2.783e+08,330.9,13677,1491.5,0,1491.5,0,0.0011366,6.5068e-07,0,0.00063757,0.00021193,2.8185e+08,1.2358e+05,0,1.4311e+08,1.6354e+05,1491.5,1
4990,6.94,12381,1,12381,1,0.00041365,-4.2932e-08,0,0.0010291,-7.5193e-05,-7.2059e+06,49.072,0,2.431e+08,32767,12380,15000,1,15000,1,0.0024493,3.7836e-06,0,0.0024493,0.00028097,2.896e+08,1.2939e+06,0,6.079e+08,1.4432e+06,14999,12382,1,12382,1,0.00039438,-1.2406e-10,0,0.00097531,-7.1828e-05,9.8074e+07,-33.734,0,2.4408e+08,-102.57,12381,9753,1,9753,1,-0.0014947,-8.3454e-06,0,4.0836e-05,-0.00045482,-6.079e+08,-1.1576e+06,0,1.6997e+07,-56545,9752,11091,1,11091,1,-0.00062222,-6.5477e-09,0,0.00047703,-0.00026127,-2.5301e+08,-1616.5,0,1.3486e+08,-3730.2,11090,13678,1,13678,1,0.001411,6.4863e-09,0,0.0014937,0.00011762,2.4408e+08,1458.6,0,2.7798e+08,249.5,13677,1491.5,0,1491.5,0,0.0011386,6.597e-07,0,0.00063899,0.00021231,2.8209e+08,1.2545e+05,0,1.4324e+08,1.6646e+05,1491.5,1
4990,6.95,12381,1,12381,1,0.00041534,-4.1939e-08,0,0.0010311,-7.5502e-05,-7.1916e+06,418.23,0,2.4326e+08,33297,12380,15000,1,15000,1,0.0024552,3.8748e-06,0,0.0024552,0.00028133,2.8916e+08,1.3251e+06,0,6.0866e+08,1.4726e+06,14999,12382,1,12382,1,0.00039599,5.3169e-10,0,0.00097797,-7.2127e-05,9.8476e+07,118.68,0,2.4423e+08,-43.23,12381,9753,1,9753,1,-0.0014966,-8.4977e-06,0,3.9882e-05,-0.0004559,-6.0866e+08,-1.1773e+06,0,1.6638e+07,-61288,9752,11091,1,11091,1,-0.00062241,-6.2722e-09,0,0.00047697,-0.0002619,-2.5308e+08,-1585.6,0,1.3473e+08,-4006.1,11090,13678,1,13678,1,0.0014144,1.0101e-08,0,0.0014954,0.00011765,2.4423e+08,2154.9,0,2.776e+08,337.82,13677,1491.5,0,1491.5,0,0.0011407,6.7625e-07,0,0.00064047,0.00021269,2.8228e+08,1.2876e+05,0,1.4336e+08,1.7043e+05,1491.5,1
4990,6.96,12381,1,12381,1,0.00041717,-4.7167e-08,0,0.0010332,-7.5836e-05,-7.1749e+06,-321.44,0,2.4337e+08,34173,12380,15000,1,15000,1,0.0024612,3.9766e-06,0,0.0024612,0.00028168,2.8867e+08,1.3599e+06,0,6.0942e+08,1.5029e+06,14999,12382,1,12382,1,0.00039774,-9.2338e-10,0,0.00098071,-7.2454e-05,9.891e+07,-259.34,0,2.443e+08,107.51,12381,9753,1,9753,1,-0.0014984,-8.7734e-06,0,3.882e-05,-0.00045702,-6.0942e+08,-1.2142e+06,0,1.6243e+07,-65138,9752,11091,1,11091,1,-0.00062246,-1.4215e-08,0,0.00047673,-0.00026254,-2.531e+08,-2444.8,0,1.3453e+08,-4908.5,11090,13678,1,13678,1,0.0014179,1.3495e-08,0,0.0014969,0.00011766,2.443e+08,2455,0,2.7714e+08,581.1,13677,1491.5,0,1491.5,0,0.0011427,7.0407e-07,0,0.00064199,0.00021307,2.8243e+08,1.3365e+05,0,1.4345e+08,1.7508e+05,1491.5,1
4990,6.97,12381,1,12381,1,0.00041909,-5.2109e-08,0,0.0010354,-7.6186e-05,-7.1587e+06,-904.51,0,2.435e+08,35127,12380,15000,1,15000,1,0.0024675,4.1132e-06,0,0.0024675,0.00028204,2.8816e+08,1.4066e+06,0,6.1021e+08,1.5353e+06,14999,12382,1,12382,1,0.00039957,-3.1824e-09,0,0.00098363,-7.2801e-05,9.9364e+07,-758.04,0,2.4439e+08,53.119,12381,9753,1,9753,1,-0.0015004,-9.0763e-06,0,3.7697e-05,-0.00045816,-6.1021e+08,-1.2533e+06,0,1.5826e+07,-68098,9752,11091,1,11091,1,-0.00062253,-1.9103e-08,0,0.00047654,-0.00026323,-2.5313e+08,-3628.7,0,1.3434e+08,-5845.5,11090,13678,1,13678,1,0.0014216,8.648e-09,0,0.0014986,0.00011767,2.4439e+08,1591.6,0,2.7671e+08,405.46,13677,1491.5,0,1491.5,0,0.0011449,7.3592e-07,0,0.00064362,0.00021348,2.826e+08,1.3939e+05,0,1.4356e+08,1.8028e+05,1491.5,1
4990,6.98,12381,1,12381,1,0.00042112,-5.0926e-08,0,0.0010377,-7.6556e-05,-7.1416e+06,-78.876,0,2.4364e+08,36368,12380,15000,1,15000,1,0.0024736,4.2773e-06,0,0.0024736,0.00028239,2.8761e+08,1.4627e+06,0,6.1097e+08,1.5694e+06,14999,12382,1,12382,1,0.00040154,1.3114e-10,0,0.00098673,-7.3169e-05,9.9853e+07,36.199,0,2.4449e+08,-76.984,12381,9753,1,9753,1,-0.0015022,-9.4456e-06,0,3.6501e-05,-0.00045928,-6.1097e+08,-1.3004e+06,0,1.5386e+07,-70165,9752,11091,1,11091,1,-0.0006226,-3.8406e-09,0,0.00047633,-0.00026396,-2.5316e+08,-915.55,0,1.3414e+08,-6619.7,11090,13678,1,13678,1,0.0014256,7.3687e-09,0,0.0015004,0.00011768,2.4449e+08,1047.9,0,2.7625e+08,91.935,13677,1491.5,0,1491.5,0,0.0011472,7.7443e-07,0,0.00064533,0.00021391,2.8278e+08,1.4614e+05,0,1.4367e+08,1.8595e+05,1491.5,1
4990,6.99,12381,1,12381,1,0.00042323,-5.5041e-08,0,0.0010401,-7.6939e-05,-7.1226e+06,-77.66,0,2.4376e+08,37983,12380,15000,1,15000,1,0.0024796,4.4554e-06,0,0.0024796,0.00028275,2.8706e+08,1.5236e+06,0,6.1173e+08,1.6039e+06,14999,12382,1,12382,1,0.00040358,-6.8983e-11,0,0.00098993,-7.3551e-05,1.0036e+08,-20.644,0,2.4456e+08,-107.7,12381,9753,1,9753,1,-0.0015041,-9.8946e-06,0,3.5275e-05,-0.0004604,-6.1173e+08,-1.3574e+06,0,1.4939e+07,-71436,9752,11091,1,11091,1,-0.00062261,-6.3497e-09,0,0.00047605,-0.00026471,-2.5316e+08,-1372.3,0,1.3391e+08,-7079.5,11090,13678,1,13678,1,0.0014297,6.6165e-09,0,0.0015022,0.00011769,2.4456e+08,1004.2,0,2.7573e+08,73.774,13677,1491.5,0,1491.5,0,0.0011496,8.1833e-07,0,0.00064708,0.00021434,2.8293e+08,1.5383e+05,0,1.4378e+08,1.9183e+05,1491.5,1
4990,7,12381,1,12381,1,0.00042536,-6.2245e-08,0,0.0010424,-7.7325e-05,-7.1024e+06,-589.83,0,2.4386e+08,39876,12380,15000,1,15000,1,0.0024856,4.6387e-06,0,0.0024856,0.0002831,2.8653e+08,1.5863e+06,0,6.1249e+08,1.6382e+06,14999,12382,1,12382,1,0.00040565,-2.4627e-10,0,0.00099312,-7.3937e-05,1.0087e+08,-71.746,0,2.4461e+08,-62.183,12381,9753,1,9753,1,-0.001506,-1.0419e-05,0,3.403e-05,-0.0004615,-6.1249e+08,-1.4229e+06,0,1.4487e+07,-72212,9752,11091,1,11091,1,-0.00062258,-1.5341e-08,0,0.00047571,-0.00026544,-2.5315e+08,-3518.4,0,1.3365e+08,-7573.5,11090,13678,1,13678,1,0.0014337,1.1246e-08,0,0.0015038,0.00011768,2.4461e+08,1980.4,0,2.7517e+08,189.89,13677,1491.5,0,1491.5,0,0.0011519,8.6726e-07,0,0.00064882,0.00021476,2.8307e+08,1.6231e+05,0,1.4387e+08,1.9784e+05,1491.5,1
4990,7.01,12381,1,12381,1,0.00042751,-6.4953e-08,0,0.0010448,-7.7716e-05,-7.0834e+06,-98.97,0,2.4399e+08,41786,12380,15000,1,15000,1,0.0024915,4.8398e-06,0,0.0024915,0.00028345,2.86e+08,1.655e+06,0,6.1325e+08,1.6723e+06,14999,12382,1,12382,1,0.00040775,3.096e-09,0,0.0009964,-7.4331e-05,1.014e+08,553.85,0,2.4469e+08,-254.61,12381,9753,1,9753,1,-0.0015079,-1.0954e-05,0,3.2774e-05,-0.00046259,-6.1325e+08,-1.4883e+06,0,1.4032e+07,-72739,9752,11091,1,11091,1,-0.00062259,-1.4729e-08,0,0.00047545,-0.00026621,-2.5316e+08,-3486.7,0,1.3342e+08,-8006.1,11090,13678,1,13678,1,0.0014379,1.2356e-08,0,0.0015057,0.00011768,2.4469e+08,2464.7,0,2.7463e+08,49.923,13677,1491.5,0,1491.5,0,0.0011543,9.194e-07,0,0.00065062,0.0002152,2.8324e+08,1.7125e+05,0,1.4398e+08,2.0411e+05,1491.5,1
4990,7.02,12381,1,12381,1,0.00042972,-7.1134e-08,0,0.0010473,-7.8117e-05,-7.0634e+06,-144.87,0,2.4411e+08,43907,12380,15000,1,15000,1,0.0024975,5.0514e-06,0,0.0024975,0.00028381,2.8547e+08,1.7274e+06,0,6.1402e+08,1.7052e+06,14999,12382,1,12382,1,0.0004099,5.1344e-10,0,0.00099977,-7.4729e-05,1.0194e+08,123.34,0,2.4476e+08,-381.66,12381,9753,1,9753,1,-0.0015097,-1.1528e-05,0,3.1493e-05,-0.00046369,-6.1402e+08,-1.558e+06,0,1.3574e+07,-72881,9752,11091,1,11091,1,-0.00062257,-2.0133e-08,0,0.00047513,-0.00026699,-2.5315e+08,-4396.6,0,1.3317e+08,-8362.7,11090,13678,1,13678,1,0.0014421,1.592e-08,0,0.0015075,0.00011768,2.4476e+08,3472,0,2.7407e+08,-15.368,13677,1491.5,0,1491.5,0,0.0011567,9.7447e-07,0,0.00065245,0.00021565,2.834e+08,1.8076e+05,0,1.4409e+08,2.1035e+05,1491.5,1
4990,7.03,12381,1,12381,1,0.00043196,-7.8141e-08,0,0.0010497,-7.8522e-05,-7.0426e+06,-249.21,0,2.4422e+08,46223,12380,15000,1,15000,1,0.0025035,5.2689e-06,0,0.0025035,0.00028416,2.8494e+08,1.8017e+06,0,6.1478e+08,1.7367e+06,14999,12382,1,12382,1,0.00041209,2.7407e-10,0,0.0010032,-7.5138e-05,1.0248e+08,60.439,0,2.4482e+08,-398.07,12381,9753,1,9753,1,-0.0015116,-1.2142e-05,0,3.0197e-05,-0.0004648,-6.1478e+08,-1.6326e+06,0,1.3112e+07,-72728,9752,11091,1,11091,1,-0.00062254,-2.3892e-08,0,0.00047479,-0.00026778,-2.5314e+08,-5351,0,1.3328e+08,-8836.8,11090,13678,1,13678,1,0.0014464,1.8787e-08,0,0.0015093,0.00011768,2.4482e+08,4107.6,0,2.7349e+08,-12.931,13677,1491.5,0,1491.5,0,0.0011591,1.0336e-06,0,0.0006543,0.00021609,2.8355e+08,1.9088e+05,0,1.442e+08,2.1663e+05,1491.5,1
4990,7.04,12381,1,12381,1,0.00043421,-8.6509e-08,0,0.0010522,-7.8928e-05,-7.0215e+06,-545.59,0,2.4433e+08,48643,12380,15000,1,15000,1,0.0025096,5.4896e-06,0,0.0025096,0.00028451,2.8443e+08,1.8772e+06,0,6.1554e+08,1.7668e+06,14999,12382,1,12382,1,0.0004143,2.0688e-09,0,0.0010066,-7.5549e-05,1.0303e+08,356.83,0,2.4487e+08,-365.1,12381,9753,1,9753,1,-0.0015135,-1.2786e-05,0,2.889e-05,-0.00046593,-6.1554e+08,-1.7106e+06,0,1.2648e+07,-72560,9752,11091,1,11091,1,-0.00062249,-3.1105e-08,0,0.00047443,-0.00026856,-2.5312e+08,-7208.1,0,1.3381e+08,-9263.2,11090,13678,1,13678,1,0.0014507,2.1127e-08,0,0.001511,0.00011767,2.4487e+08,4887.6,0,2.7289e+08,41.135,13677,1491.5,0,1491.5,0,0.0011616,1.0962e-06,0,0.00065614,0.00021654,2.8369e+08,2.015e+05,0,1.443e+08,2.2292e+05,1491.5,1
4990,7.05,12381,1,12381,1,0.00043648,-9.2468e-08,0,0.0010547,-7.934e-05,-7.0011e+06,-257.63,0,2.4445e+08,51147,12380,15000,1,15000,1,0.0025158,5.7237e-06,0,0.0025158,0.00028487,2.8392e+08,1.9572e+06,0,6.1631e+08,1.7953e+06,14999,12382,1,12382,1,0.00041652,-3.8759e-10,0,0.00101,-7.596e-05,1.0358e+08,-85.441,0,2.4493e+08,-654.06,12381,9753,1,9753,1,-0.0015154,-1.3433e-05,0,2.7569e-05,-0.00046706,-6.1631e+08,-1.7877e+06,0,1.2183e+07,-71798,9752,11091,1,11091,1,-0.00062247,-3.6662e-08,0,0.00047411,-0.00026937,-2.5311e+08,-7908.6,0,1.3439e+08,-9569.2,11090,13678,1,13678,1,0.0014551,3.1145e-08,0,0.0015129,0.00011767,2.4493e+08,6540,0,2.7231e+08,-78.947,13677,1491.5,0,1491.5,0,0.001164,1.1608e-06,0,0.00065803,0.000217,2.8385e+08,2.1253e+05,0,1.4442e+08,2.2921e+05,1491.5,1
4990,7.06,12381,1,12381,1,0.00043879,-1.002e-07,0,0.0010572,-7.9756e-05,-6.9797e+06,-208.42,0,2.4456e+08,53801,12380,15000,1,15000,1,0.002522,5.9595e-06,0,0.002522,0.00028522,2.8341e+08,2.0379e+06,0,6.1706e+08,1.8219e+06,14999,12382,1,12382,1,0.00041879,1.4277e-09,0,0.0010135,-7.6385e-05,1.0414e+08,315.88,0,2.4499e+08,-707.26,12381,9753,1,9753,1,-0.0015172,-1.4117e-05,0,2.6231e-05,-0.00046821,-6.1706e+08,-1.8697e+06,0,1.1713e+07,-71309,9752,11091,1,11091,1,-0.00062241,-4.2613e-08,0,0.00047375,-0.00027018,-2.5308e+08,-9273.3,0,1.3498e+08,-9750.6,11090,13678,1,13678,1,0.0014595,3.6834e-08,0,0.0015147,0.00011766,2.4498e+08,7982.5,0,2.717e+08,-80.902,13677,1491.5,0,1491.5,0,0.0011665,1.2297e-06,0,0.00065993,0.00021746,2.8401e+08,2.2413e+05,0,1.4453e+08,2.3545e+05,1491.5,1
4990,7.07,12381,1,12381,1,0.00044112,-1.0958e-07,0,0.0010597,-8.0176e-05,-6.9581e+06,-381.86,0,2.4467e+08,56558,12380,15000,1,15000,1,0.0025283,6.2014e-06,0,0.0025283,0.00028557,2.8292e+08,2.1205e+06,0,6.1783e+08,1.8465e+06,14999,12382,1,12382,1,0.00042107,4.8123e-10,0,0.0010171,-7.6804e-05,1.0471e+08,110.99,0,2.4503e+08,-734.95,12381,9753,1,9753,1,-0.0015191,-1.4816e-05,0,2.4882e-05,-0.00046937,-6.1783e+08,-1.9528e+06,0,1.1243e+07,-70692,9752,11091,1,11091,1,-0.00062236,-4.9337e-08,0,0.00047338,-0.000271,-2.5306e+08,-10501,0,1.3559e+08,-10105,11090,13678,1,13678,1,0.001464,4.0833e-08,0,0.0015165,0.00011765,2.4503e+08,8941.9,0,2.7108e+08,-73.784,13677,1491.5,0,1491.5,0,0.001169,1.3011e-06,0,0.00066185,0.00021791,2.8416e+08,2.3618e+05,0,1.4464e+08,2.4162e+05,1491.5,1
4990,7.08,12381,1,12381,1,0.00044343,-1.1915e-07,0,0.0010622,-8.0594e-05,-6.9358e+06,-502.19,0,2.4476e+08,59459,12380,15000,1,15000,1,0.0025347,6.4422e-06,0,0.0025347,0.00028592,2.8243e+08,2.2029e+06,0,6.1858e+08,1.8694e+06,14999,12382,1,12382,1,0.00042336,3.3916e-09,0,0.0010206,-7.723e-05,1.0528e+08,621.23,0,2.4507e+08,-672.43,12381,9753,1,9753,1,-0.001521,-1.5545e-05,0,2.3523e-05,-0.00047054,-6.1858e+08,-2.0396e+06,0,1.0769e+07,-70036,9752,11091,1,11091,1,-0.00062227,-5.509e-08,0,0.00047295,-0.0002718,-2.5302e+08,-12481,0,1.3617e+08,-10339,11090,13678,1,13678,1,0.0014683,4.4954e-08,0,0.0015183,0.00011763,2.4506e+08,10176,0,2.7045e+08,-9.7657,13677,1491.5,0,1491.5,0,0.0011715,1.3766e-06,0,0.00066374,0.00021836,2.8429e+08,2.4879e+05,0,1.4474e+08,2.4771e+05,1491.5,1
4990,7.09,12381,1,12381,1,0.00044578,-1.2835e-07,0,0.0010648,-8.1018e-05,-6.9152e+06,-508.64,0,2.4489e+08,62305,12380,15000,1,15000,1,0.0025412,6.6966e-06,0,0.0025412,0.00028629,2.8196e+08,2.2891e+06,0,6.1938e+08,1.89e+06,14999,12382,1,12382,1,0.00042568,5.5153e-11,0,0.0010242,-7.7654e-05,1.0586e+08,13.123,0,2.4513e+08,-1135,12381,9753,1,9753,1,-0.0015229,-1.626e-05,0,2.2159e-05,-0.00047174,-6.1938e+08,-2.1234e+06,0,1.0296e+07,-69490,9752,11091,1,11091,1,-0.00062225,-6.4501e-08,0,0.00047264,-0.00027264,-2.5302e+08,-14002,0,1.3679e+08,-10641,11090,13678,1,13678,1,0.0014729,5.7808e-08,0,0.0015202,0.00011763,2.4513e+08,12091,0,2.6986e+08,-91.947,13677,1491.5,0,1491.5,0,0.0011741,1.4537e-06,0,0.0006657,0.00021884,2.8446e+08,2.6167e+05,0,1.4486e+08,2.5379e+05,1491.5,1
4990,7.1,12381,1,12381,1,0.00044818,-1.3839e-07,0,0.0010674,-8.145e-05,-6.8928e+06,-542.97,0,2.4499e+08,65371,12380,15000,1,15000,1,0.0025478,6.9594e-06,0,0.0025478,0.00028665,2.8147e+08,2.3779e+06,0,6.2015e+08,1.9085e+06,14999,12382,1,12382,1,0.00042804,-1.3166e-09,0,0.0010278,-7.809e-05,1.0644e+08,-303.22,0,2.4518e+08,-1215.4,12381,9753,1,9753,1,-0.0015248,-1.701e-05,0,2.076e-05,-0.00047296,-6.2015e+08,-2.2115e+06,0,9.8122e+06,-68772,9752,11091,1,11091,1,-0.00062217,-7.0854e-08,0,0.00047224,-0.00027348,-2.5298e+08,-15297,0,1.3742e+08,-10779,11090,13678,1,13678,1,0.0014775,6.2635e-08,0,0.0015221,0.00011762,2.4518e+08,13507,0,2.6922e+08,-70.857,13677,1491.5,0,1491.5,0,0.0011766,1.535e-06,0,0.00066768,0.00021931,2.8461e+08,2.7523e+05,0,1.4498e+08,2.5978e+05,1491.5,1
4990,7.11,12381,1,12381,1,0.00045059,-1.4826e-07,0,0.00107,-8.1884e-05,-6.8703e+06,-452.97,0,2.451e+08,68546,12380,15000,1,15000,1,0.0025545,7.2248e-06,0,0.0025545,0.00028701,2.81e+08,2.4686e+06,0,6.2093e+08,1.9243e+06,14999,12382,1,12382,1,0.00043044,9.511e-10,0,0.0010315,-7.8535e-05,1.0704e+08,204.18,0,2.4522e+08,-1236.9,12381,9753,1,9753,1,-0.0015267,-1.7779e-05,0,1.9351e-05,-0.00047418,-6.2093e+08,-2.3017e+06,0,9.328e+06,-68262,9752,11091,1,11091,1,-0.00062209,-7.577e-08,0,0.00047183,-0.00027433,-2.5295e+08,-16923,0,1.3802e+08,-10911,11090,13678,1,13678,1,0.0014821,6.9542e-08,0,0.0015239,0.00011761,2.4522e+08,15020,0,2.6856e+08,-55.339,13677,1491.5,0,1491.5,0,0.0011792,1.6204e-06,0,0.00066967,0.00021978,2.8476e+08,2.8935e+05,0,1.4509e+08,2.6569e+05,1491.5,1
4990,7.12,12381,1,12381,1,0.00045302,-1.6016e-07,0,0.0010726,-8.2321e-05,-6.8476e+06,-639.95,0,2.452e+08,71819,12380,15000,1,15000,1,0.0025612,7.495e-06,0,0.0025612,0.00028736,2.8053e+08,2.5609e+06,0,6.217e+08,1.9373e+06,14999,12382,1,12382,1,0.00043283,-1.28e-09,0,0.0010352,-7.8974e-05,1.0764e+08,-285.59,0,2.4525e+08,-1344.9,12381,9753,1,9753,1,-0.0015286,-1.856e-05,0,1.7927e-05,-0.00047542,-6.217e+08,-2.3929e+06,0,8.8379e+06,-67663,9752,11091,1,11091,1,-0.00062199,-8.3421e-08,0,0.00047142,-0.00027518,-2.5291e+08,-18233,0,1.3866e+08,-11147,11090,13678,1,13678,1,0.0014867,7.413e-08,0,0.0015258,0.00011759,2.4525e+08,16333,0,2.6792e+08,-47.534,13677,1491.5,0,1491.5,0,0.0011818,1.7087e-06,0,0.00067166,0.00022025,2.8491e+08,3.0398e+05,0,1.4521e+08,2.715e+05,1491.5,1
4990,7.13,12381,1,12381,1,0.00045546,-1.7127e-07,0,0.0010752,-8.276e-05,-6.8249e+06,-582.08,0,2.4531e+08,75196,12380,15000,1,15000,1,0.002568,7.7685e-06,0,0.002568,0.00028773,2.8008e+08,2.6543e+06,0,6.2248e+08,1.9483e+06,14999,12382,1,12382,1,0.00043527,3.2274e-10,0,0.0010389,-7.9427e-05,1.0824e+08,72.42,0,2.4529e+08,-1411.3,12381,9753,1,9753,1,-0.0015306,-1.9356e-05,0,1.6495e-05,-0.00047668,-6.2248e+08,-2.4858e+06,0,8.3492e+06,-67397,9752,11091,1,11091,1,-0.00062191,-9.1253e-08,0,0.000471,-0.00027604,-2.5288e+08,-19626,0,1.393e+08,-11294,11090,13678,1,13678,1,0.0014914,8.0887e-08,0,0.0015277,0.00011758,2.4529e+08,17734,0,2.6726e+08,-34.349,13677,1491.5,0,1491.5,0,0.0011844,1.8013e-06,0,0.00067368,0.00022073,2.8506e+08,3.192e+05,0,1.4532e+08,2.7726e+05,1491.5,1
4990,7.14,12381,1,12381,1,0.00045792,-1.836e-07,0,0.0010779,-8.3203e-05,-6.802e+06,-631.36,0,2.4541e+08,78668,12380,15000,1,15000,1,0.002575,8.0473e-06,0,0.002575,0.00028809,2.7964e+08,2.7496e+06,0,6.2326e+08,1.956e+06,14999,12382,1,12382,1,0.00043771,-1.0824e-09,0,0.0010427,-7.9874e-05,1.0885e+08,-253.83,0,2.4533e+08,-1565.3,12381,9753,1,9753,1,-0.0015325,-2.0162e-05,0,1.5043e-05,-0.00047796,-6.2326e+08,-2.5794e+06,0,7.8544e+06,-67007,9752,11091,1,11091,1,-0.00062181,-1.0008e-07,0,0.00047058,-0.00027691,-2.5284e+08,-21499,0,1.3992e+08,-11422,11090,13678,1,13678,1,0.0014961,8.7982e-08,0,0.0015296,0.00011756,2.4533e+08,19265,0,2.6659e+08,5.4333,13677,1491.5,0,1491.5,0,0.001187,1.8972e-06,0,0.00067571,0.00022121,2.8521e+08,3.35e+05,0,1.4544e+08,2.829e+05,1491.5,1
4990,7.15,12381,1,12381,1,0.00046041,-1.9673e-07,0,0.0010805,-8.3649e-05,-6.7788e+06,-739.33,0,2.4551e+08,82256,12380,15000,1,15000,1,0.002582,8.3279e-06,0,0.002582,0.00028846,2.7921e+08,2.8454e+06,0,6.2406e+08,1.9606e+06,14999,12382,1,12382,1,0.00044017,-4.5515e-10,0,0.0010465,-8.0327e-05,1.0946e+08,-111.08,0,2.4536e+08,-1553,12381,9753,1,9753,1,-0.0015344,-2.0984e-05,0,1.3577e-05,-0.00047925,-6.2406e+08,-2.6748e+06,0,7.3537e+06,-66955,9752,11091,1,11091,1,-0.00062171,-1.0903e-07,0,0.00047014,-0.00027778,-2.5279e+08,-23351,0,1.4057e+08,-11666,11090,13678,1,13678,1,0.0015009,9.3758e-08,0,0.0015314,0.00011755,2.4536e+08,20462,0,2.6593e+08,1061.2,13677,1491.5,0,1491.5,0,0.0011896,1.9975e-06,0,0.00067776,0.0002217,2.8536e+08,3.5143e+05,0,1.4556e+08,2.8842e+05,1491.5,1
4990,7.16,12381,1,12381,1,0.00046291,-2.1003e-07,0,0.0010832,-8.4097e-05,-6.7554e+06,-762.77,0,2.4562e+08,85958,12380,15000,1,15000,1,0.0025892,8.6109e-06,0,0.0025892,0.00028882,2.7878e+08,2.9421e+06,0,6.2485e+08,1.9621e+06,14999,12382,1,12382,1,0.00044269,-1.0946e-10,0,0.0010503,-8.0793e-05,1.1009e+08,-36.47,0,2.4539e+08,-1635.5,12381,9753,1,9753,1,-0.0015364,-2.1818e-05,0,1.209e-05,-0.00048057,-6.2485e+08,-2.7714e+06,0,6.847e+06,-66949,9752,11091,1,11091,1,-0.0006216,-1.1757e-07,0,0.0004697,-0.00027866,-2.5275e+08,-24826,0,1.4123e+08,-11751,11090,13678,1,13678,1,0.0015057,1.0272e-07,0,0.0015333,0.00011753,2.4538e+08,22235,0,2.6524e+08,3056.2,13677,1491.5,0,1491.5,0,0.0011922,2.1021e-06,0,0.00067983,0.00022218,2.8551e+08,3.6849e+05,0,1.4568e+08,2.9383e+05,1491.5,1
4990,7.17,12381,1,12381,1,0.00046544,-2.2402e-07,0,0.0010859,-8.4548e-05,-6.7319e+06,-794.57,0,2.4572e+08,89753,12380,15000,1,15000,1,0.0025965,8.898e-06,0,0.0025965,0.0002892,2.7837e+08,3.0402e+06,0,6.2565e+08,1.9604e+06,14999,12382,1,12382,1,0.0004452,-4.7307e-10,0,0.0010542,-8.1253e-05,1.1071e+08,-123.46,0,2.4541e+08,-1765.2,12381,9753,1,9753,1,-0.0015384,-2.2657e-05,0,1.0586e-05,-0.00048191,-6.2565e+08,-2.8684e+06,0,6.3337e+06,-67148,9752,11091,1,11091,1,-0.00062148,-1.2916e-07,0,0.00046925,-0.00027955,-2.527e+08,-27185,0,1.4187e+08,-11911,11090,13678,1,13678,1,0.0015105,1.1341e-07,0,0.0015353,0.00011751,2.4541e+08,24477,0,2.6455e+08,5805.9,13677,1491.5,0,1491.5,0,0.0011949,2.2105e-06,0,0.00068191,0.00022267,2.8566e+08,3.8618e+05,0,1.4581e+08,2.9913e+05,1491.5,1
4990,7.18,12381,1,12381,1,0.00046798,-2.3906e-07,0,0.0010886,-8.5003e-05,-6.7081e+06,-918.59,0,2.4582e+08,93671,12380,15000,1,15000,1,0.0026038,9.1852e-06,0,0.0026038,0.00028957,2.7797e+08,3.1383e+06,0,6.2646e+08,1.9566e+06,14999,12382,1,12382,1,0.00044778,1.0227e-09,0,0.0010581,-8.1726e-05,1.1135e+08,225.33,0,2.4544e+08,-1857.2,12381,9753,1,9753,1,-0.0015403,-2.351e-05,0,9.0602e-06,-0.00048326,-6.2646e+08,-2.9671e+06,0,5.8129e+06,-67569,9752,11091,1,11091,1,-0.00062136,-1.4007e-07,0,0.00046879,-0.00028044,-2.5265e+08,-28903,0,1.4255e+08,-12114,11090,13678,1,13678,1,0.0015154,1.2477e-07,0,0.0015372,0.00011749,2.4543e+08,26370,0,2.6387e+08,9516.3,13677,1491.5,0,1491.5,0,0.0011976,2.324e-06,0,0.00068401,0.00022316,2.8581e+08,4.0457e+05,0,1.4593e+08,3.043e+05,1491.5,1
4990,7.19,12381,1,12381,1,0.00047055,-2.5481e-07,0,0.0010914,-8.5462e-05,-6.6841e+06,-1053.9,0,2.4592e+08,97686,12380,15000,1,15000,1,0.0026114,9.4768e-06,0,0.0026114,0.00028995,2.7758e+08,3.2379e+06,0,6.2728e+08,1.9528e+06,14999,12382,1,12382,1,0.00045035,-7.7393e-10,0,0.0010621,-8.2198e-05,1.1199e+08,-184.65,0,2.4546e+08,-1941.4,12381,9753,1,9753,1,-0.0015423,-2.4363e-05,0,7.5162e-06,-0.00048465,-6.2728e+08,-3.0655e+06,0,5.2864e+06,-68104,9752,11091,1,11091,1,-0.00062124,-1.5261e-07,0,0.00046833,-0.00028135,-2.526e+08,-31597,0,1.4323e+08,-12462,11090,13678,1,13678,1,0.0015203,1.379e-07,0,0.0015391,0.00011747,2.4546e+08,28568,0,2.6316e+08,13895,13677,1491.5,0,1491.5,0,0.0012003,2.4413e-06,0,0.00068613,0.00022366,2.8596e+08,4.2364e+05,0,1.4606e+08,3.0934e+05,1491.5,1
4990,7.2,12381,1,12381,1,0.00047314,-2.7038e-07,0,0.0010941,-8.5924e-05,-6.66e+06,-1020.4,0,2.4602e+08,1.0182e+05,12380,15000,1,15000,1,0.002619,9.7708e-06,0,0.002619,0.00029033,2.772e+08,3.3383e+06,0,6.281e+08,1.9452e+06,14999,12382,1,12382,1,0.00045296,2.1937e-10,0,0.0010661,-8.2672e-05,1.1264e+08,44.454,0,2.4548e+08,-2149.9,12381,9753,1,9753,1,-0.0015444,-2.5223e-05,0,5.9504e-06,-0.00048605,-6.281e+08,-3.1648e+06,0,4.7508e+06,-68815,9752,11091,1,11091,1,-0.00062111,-1.6378e-07,0,0.00046786,-0.00028226,-2.5255e+08,-34763,0,1.4389e+08,-13027,11090,13678,1,13678,1,0.0015252,1.4947e-07,0,0.001541,0.00011744,2.4548e+08,31155,0,2.6244e+08,18326,13677,1491.5,0,1491.5,0,0.001203,2.5638e-06,0,0.00068827,0.00022416,2.8612e+08,4.4349e+05,0,1.4619e+08,3.1426e+05,1491.5,1
4990,7.21,12381,1,12381,1,0.00047576,-2.8721e-07,0,0.0010969,-8.6391e-05,-6.6355e+06,-1097,0,2.4612e+08,1.0607e+05,12380,15000,1,15000,1,0.0026268,1.0066e-05,0,0.0026268,0.00029071,2.7683e+08,3.4392e+06,0,6.2893e+08,1.9335e+06,14999,12382,1,12382,1,0.00045562,-1.267e-09,0,0.0010701,-8.3163e-05,1.133e+08,-283.46,0,2.455e+08,-2298.7,12381,9753,1,9753,1,-0.0015464,-2.6086e-05,0,4.3579e-06,-0.00048748,-6.2893e+08,-3.2643e+06,0,4.2069e+06,-69893,9752,11091,1,11091,1,-0.00062097,-1.782e-07,0,0.00046737,-0.00028318,-2.5249e+08,-37182,0,1.446e+08,-13572,11090,13678,1,13678,1,0.0015302,1.65e-07,0,0.001543,0.00011742,2.4549e+08,34172,0,2.6173e+08,25182,13677,1491.5,0,1491.5,0,0.0012057,2.6913e-06,0,0.00069043,0.00022466,2.8627e+08,4.6413e+05,0,1.4631e+08,3.1901e+05,1491.5,1
4990,7.22,12381,1,12381,1,0.00047839,-3.0501e-07,0,0.0010997,-8.6861e-05,-6.6108e+06,-1237.2,0,2.4621e+08,1.1045e+05,12380,15000,1,15000,1,0.0026347,1.036e-05,0,0.0026347,0.0002911,2.7648e+08,3.5397e+06,0,6.2977e+08,1.918e+06,14999,12382,1,12382,1,0.00045828,-1.5486e-09,0,0.0010741,-8.3649e-05,1.1396e+08,-329.96,0,2.4551e+08,-2377.9,12381,9753,1,9753,1,-0.0015485,-2.6952e-05,0,2.7489e-06,-0.00048894,-6.2977e+08,-3.3645e+06,0,3.656e+06,-71118,9752,11091,1,11091,1,-0.00062082,-1.9137e-07,0,0.00046688,-0.0002841,-2.5243e+08,-40736,0,1.4528e+08,-14049,11090,13678,1,13678,1,0.0015353,1.8005e-07,0,0.0015452,0.00011739,2.455e+08,38005,0,2.61e+08,32824,13677,1491.5,0,1491.5,0,0.0012085,2.8245e-06,0,0.00069261,0.00022517,2.8642e+08,4.8559e+05,0,1.4645e+08,3.2357e+05,1491.5,1
4990,7.23,12381,1,12381,1,0.00048105,-3.2294e-07,0,0.0011025,-8.7335e-05,-6.5859e+06,-1277.5,0,2.4631e+08,1.1492e+05,12380,15000,1,15000,1,0.0026428,1.0654e-05,0,0.0026428,0.00029149,2.7614e+08,3.6401e+06,0,6.3062e+08,1.9026e+06,14999,12382,1,12382,1,0.00046102,6.1229e-10,0,0.001078,-8.4138e-05,1.1464e+08,143.24,0,2.4553e+08,-2513.4,12381,9753,1,9753,1,-0.0015506,-2.7816e-05,0,1.1236e-06,-0.00049042,-6.3062e+08,-3.4644e+06,0,3.0954e+06,-72587,9752,11091,1,11091,1,-0.00062067,-2.0746e-07,0,0.00046638,-0.00028504,-2.5237e+08,-43760,0,1.4599e+08,-14649,11090,13678,1,13678,1,0.0015404,1.9413e-07,0,0.0015478,0.00011736,2.4552e+08,41395,0,2.6027e+08,39678,13677,1491.5,0,1491.5,0,0.0012112,2.9632e-06,0,0.00069481,0.00022568,2.8657e+08,5.0786e+05,0,1.4658e+08,3.2801e+05,1491.5,1
4990,7.24,12381,1,12381,1,0.00048374,-3.4196e-07,0,0.0011054,-8.7814e-05,-6.5607e+06,-1374.8,0,2.464e+08,1.1951e+05,12380,15000,1,15000,1,0.002651,1.0949e-05,0,0.002651,0.00029189,2.7582e+08,3.7407e+06,0,6.3148e+08,1.8824e+06,14999,12382,1,12382,1,0.00046375,-7.6719e-10,0,0.001082,-8.4646e-05,1.1532e+08,-172.44,0,2.4554e+08,-2604.8,12381,9753,1,9753,1,-0.0015527,-2.8668e-05,0,3.1698e-07,-0.00049194,-6.3148e+08,-3.5631e+06,0,2.5266e+06,-74542,9752,11091,1,11091,1,-0.00062051,-2.2263e-07,0,0.0004662,-0.00028599,-2.5231e+08,-47078,0,1.4669e+08,-15191,11090,13678,1,13678,1,0.0015455,2.1162e-07,0,0.0015505,0.00011733,2.4552e+08,44217,0,2.5954e+08,49936,13677,1491.5,0,1491.5,0,0.001214,3.1066e-06,0,0.00069702,0.00022619,2.8672e+08,5.3098e+05,0,1.4671e+08,3.3226e+05,1491.5,1
4990,7.25,12381,1,12381,1,0.00048645,-3.6165e-07,0,0.0011083,-8.8296e-05,-6.5352e+06,-1485.1,0,2.465e+08,1.2424e+05,12380,15000,1,15000,1,0.0026594,1.1238e-05,0,0.0026594,0.00029229,2.7551e+08,3.8395e+06,0,6.3234e+08,1.8574e+06,14999,12382,1,12382,1,0.0004665,4.4856e-10,0,0.0010855,-8.5148e-05,1.1601e+08,101.29,0,2.4554e+08,-2713,12381,9753,1,9753,1,-0.0015548,-2.9518e-05,0,7.1654e-08,-0.00049348,-6.3234e+08,-3.6621e+06,0,1.9479e+06,-76616,9752,11091,1,11091,1,-0.00062034,-2.4376e-07,0,0.00046856,-0.00028695,-2.5224e+08,-52097,0,1.474e+08,-15955,11090,13678,1,13678,1,0.0015507,2.2873e-07,0,0.0015535,0.0001173,2.4553e+08,48467,0,2.5877e+08,56181,13677,1491.5,0,1491.5,0,0.0012169,3.2571e-06,0,0.00069919,0.00022671,2.8687e+08,5.5502e+05,0,1.4685e+08,3.3638e+05,1491.5,1
4990,7.26,12381,1,12381,1,0.00048919,-3.8228e-07,0,0.0011113,-8.8782e-05,-6.5095e+06,-1640.1,0,2.4659e+08,1.2904e+05,12380,15000,1,15000,1,0.002668,1.1526e-05,0,0.002668,0.0002927,2.7522e+08,3.9381e+06,0,6.3322e+08,1.8306e+06,14999,12382,1,12382,1,0.00046936,3.1949e-10,0,0.0010867,-8.5653e-05,1.1672e+08,79.494,0,2.4555e+08,-2785,12381,9753,1,9753,1,-0.001557,-3.0347e-05,0,1.4014e-06,-0.00049506,-6.3322e+08,-3.7589e+06,0,1.36e+06,-79135,9752,11091,1,11091,1,-0.00062017,-2.6601e-07,0,0.00047104,-0.0002879,-2.5217e+08,-56598,0,1.4814e+08,-16581,11090,13678,1,13678,1,0.0015559,2.5084e-07,0,0.0015567,0.00011727,2.4553e+08,53378,0,2.5803e+08,67745,13677,1491.5,0,1491.5,0,0.0012197,3.4126e-06,0,0.00070129,0.00022723,2.8702e+08,5.7993e+05,0,1.4699e+08,3.4034e+05,1491.5,1
4990,7.27,12381,1,12381,1,0.00049195,-4.0326e-07,0,0.0011143,-8.9273e-05,-6.4836e+06,-1736.5,0,2.4668e+08,1.3397e+05,12380,15000,1,15000,1,0.0026767,1.181e-05,0,0.0026767,0.00029312,2.7493e+08,4.0351e+06,0,6.3412e+08,1.8002e+06,14999,12382,1,12382,1,0.00047213,3.6628e-11,0,0.0010876,-8.6182e-05,1.1743e+08,10.202,0,2.4555e+08,-2876,12381,9753,1,9753,1,-0.0015592,-3.116e-05,0,2.8601e-06,-0.00049667,-6.3412e+08,-3.8545e+06,0,7.6142e+05,-82084,9752,11091,1,11091,1,-0.00061999,-2.8866e-07,0,0.00047388,-0.00028888,-2.5209e+08,-61468,0,1.4886e+08,-17255,11090,13678,1,13678,1,0.0015612,2.7384e-07,0,0.0015612,0.00011724,2.4552e+08,58609,0,2.5727e+08,78519,13677,1491.5,0,1491.5,0,0.0012225,3.5746e-06,0,0.00070339,0.00022776,2.8718e+08,6.0582e+05,0,1.4713e+08,3.4418e+05,1491.5,1
4990,7.28,12381,1,12381,1,0.00049474,-4.2472e-07,0,0.0011174,-8.9767e-05,-6.4574e+06,-1799.9,0,2.4678e+08,1.3899e+05,12380,15000,1,15000,1,0.0026857,1.2089e-05,0,0.0026857,0.00029354,2.7467e+08,4.1305e+06,0,6.3502e+08,1.7643e+06,14999,12382,1,12382,1,0.00047507,7.3767e-11,0,0.0010886,-8.6698e-05,1.1812e+08,20.474,0,2.4554e+08,-2929.2,12381,9753,1,9753,1,-0.0015614,-3.195e-05,0,3.5758e-06,-0.00049831,-6.3502e+08,-3.9478e+06,0,1.5655e+05,-85477,9752,11091,1,11091,1,-0.0006198,-3.1686e-07,0,0.00047676,-0.00028985,-2.5202e+08,-67625,0,1.4961e+08,-18219,11090,13678,1,13678,1,0.0015665,2.9828e-07,0,0.0015665,0.0001172,2.4552e+08,63864,0,2.5651e+08,90571,13677,1491.5,0,1491.5,0,0.0012254,3.743e-06,0,0.00070552,0.00022829,2.8733e+08,6.3269e+05,0,1.4727e+08,3.4793e+05,1491.5,1
4990,7.29,12381,1,12381,1,0.00049755,-4.4701e-07,0,0.0011204,-9.0266e-05,-6.4309e+06,-1908.6,0,2.4688e+08,1.4411e+05,12380,15000,1,15000,1,0.0026949,1.2361e-05,0,0.0026949,0.00029396,2.7441e+08,4.2234e+06,0,6.3594e+08,1.7274e+06,14999,12382,1,12382,1,0.0004779,6.4505e-10,0,0.0010895,-8.7219e-05,1.1887e+08,155.75,0,2.4553e+08,-3013.4,12381,9753,1,9753,1,-0.0015637,-3.2712e-05,0,4.2256e-06,-0.0005,-6.3594e+08,-4.0387e+06,0,1.4404e+05,-89380,9752,11091,1,11091,1,-0.00061961,-3.468e-07,0,0.00047987,-0.00029084,-2.5194e+08,-73528,0,1.5038e+08,-19267,11090,13678,1,13678,1,0.0015719,3.2788e-07,0,0.0015719,0.00011716,2.4551e+08,70052,0,2.5573e+08,1.0373e+05,13677,1491.5,0,1491.5,0,0.0012283,3.918e-06,0,0.00070766,0.00022882,2.8748e+08,6.6056e+05,0,1.474e+08,3.516e+05,1491.5,1
4990,7.3,12381,1,12381,1,0.00050039,-4.7034e-07,0,0.0011235,-9.0769e-05,-6.404e+06,-2116.8,0,2.4698e+08,1.4933e+05,12380,15000,1,15000,1,0.0027042,1.2624e-05,0,0.0027042,0.0002944,2.7417e+08,4.3133e+06,0,6.3688e+08,1.6849e+06,14999,12382,1,12382,1,0.00048087,4.7236e-10,0,0.0010905,-8.7768e-05,1.1958e+08,101.69,0,2.4553e+08,-3103,12381,9753,1,9753,1,-0.001566,-3.3444e-05,0,4.8469e-06,-0.00050172,-6.3688e+08,-4.1268e+06,0,17183,-93828,9752,11091,1,11091,1,-0.0006194,-3.7837e-07,0,0.00048284,-0.00029185,-2.5185e+08,-80864,0,1.5114e+08,-20491,11090,13678,1,13678,1,0.0015774,3.6077e-07,0,0.0015774,0.00011712,2.455e+08,78239,0,2.5495e+08,1.1884e+05,13677,1491.5,0,1491.5,0,0.0012312,4.1e-06,0,0.00070982,0.00022936,2.8763e+08,6.8945e+05,0,1.4752e+08,3.5526e+05,1491.5,1
4990,7.31,12381,1,12381,1,0.00050326,-4.9364e-07,0,0.0011266,-9.1277e-05,-6.377e+06,-2218.3,0,2.4711e+08,1.5463e+05,12380,15000,1,15000,1,0.0027138,1.288e-05,0,0.0027138,0.00029484,2.7395e+08,4.4008e+06,0,6.3783e+08,1.6407e+06,14999,12382,1,12382,1,0.00048384,-5.7922e-11,0,0.0010914,-8.8301e-05,1.2035e+08,-7.6179,0,2.4551e+08,-3125,12381,9753,1,9753,1,-0.0015683,-3.4136e-05,0,5.4436e-06,-0.00050349,-6.3783e+08,-4.211e+06,0,5.2957e+05,-98965,9752,11091,1,11091,1,-0.00061919,-4.133e-07,0,0.00048594,-0.00029284,-2.5177e+08,-87893,0,1.5195e+08,-21767,11090,13678,1,13678,1,0.0015828,3.9845e-07,0,0.0015828,0.00011708,2.4548e+08,84183,0,2.5419e+08,1.3617e+05,13677,1491.5,0,1491.5,0,0.0012342,4.2884e-06,0,0.00071201,0.0002299,2.8779e+08,7.1941e+05,0,1.476e+08,3.5899e+05,1491.5,1
4990,7.32,12381,1,12381,1,0.00050616,-5.1793e-07,0,0.0011298,-9.179e-05,-6.3495e+06,-2435.1,0,2.4724e+08,1.6005e+05,12380,15000,1,15000,1,0.0027237,1.3124e-05,0,0.0027237,0.00029529,2.7373e+08,4.4842e+06,0,6.388e+08,1.5929e+06,14999,12382,1,12382,1,0.00048685,-5.1025e-10,0,0.0010924,-8.8853e-05,1.2108e+08,-95.516,0,2.4549e+08,-3113.9,12381,9753,1,9753,1,-0.0015707,-3.4794e-05,0,6.0127e-06,-0.00050531,-6.388e+08,-4.2921e+06,0,1.0473e+06,-1.0458e+05,9752,11091,1,11091,1,-0.00061897,-4.5613e-07,0,0.00048913,-0.00029386,-2.5168e+08,-96186,0,1.5274e+08,-23158,11090,13678,1,13678,1,0.0015883,4.3671e-07,0,0.0015883,0.00011703,2.4546e+08,93387,0,2.5343e+08,1.5067e+05,13677,1491.5,0,1491.5,0,0.0012371,4.4853e-06,0,0.00071421,0.00023044,2.8794e+08,7.505e+05,0,1.4768e+08,3.6284e+05,1491.5,1
4990,7.33,12381,1,12381,1,0.00050908,-5.4227e-07,0,0.001133,-9.2307e-05,-6.3218e+06,-2599.3,0,2.4737e+08,1.6554e+05,12380,15000,1,15000,1,0.0027339,1.3358e-05,0,0.0027339,0.00029574,2.7353e+08,4.5643e+06,0,6.3978e+08,1.5437e+06,14999,12382,1,12382,1,0.00048993,-6.7412e-10,0,0.0010933,-8.9408e-05,1.2187e+08,-140.53,0,2.4547e+08,-3116.6,12381,9753,1,9753,1,-0.0015731,-3.5411e-05,0,6.5009e-06,-0.00050718,-6.3978e+08,-4.369e+06,0,1.2526e+06,-1.1103e+05,9752,11091,1,11091,1,-0.00061874,-5.0505e-07,0,0.00049224,-0.00029486,-2.5158e+08,-1.056e+05,0,1.5354e+08,-24925,11090,13678,1,13678,1,0.0015939,4.8306e-07,0,0.0015939,0.00011699,2.4543e+08,1.0192e+05,0,2.5265e+08,1.7021e+05,13677,1491.5,0,1491.5,0,0.0012401,4.6897e-06,0,0.00071644,0.00023099,2.8809e+08,7.8276e+05,0,1.4777e+08,3.6697e+05,1491.5,1
4990,7.34,12381,1,12381,1,0.00051203,-5.6681e-07,0,0.0011362,-9.2829e-05,-6.2938e+06,-2747.5,0,2.4749e+08,1.7112e+05,12380,15000,1,15000,1,0.0027443,1.3581e-05,0,0.0027443,0.00029621,2.7333e+08,4.6406e+06,0,6.4079e+08,1.4969e+06,14999,12382,1,12382,1,0.00049304,-7.7692e-10,0,0.0010943,-8.9956e-05,1.2261e+08,-171.2,0,2.4544e+08,-3118.8,12381,9753,1,9753,1,-0.0015756,-3.5987e-05,0,6.9853e-06,-0.0005091,-6.4079e+08,-4.4415e+06,0,1.4427e+06,-1.1834e+05,9752,11091,1,11091,1,-0.0006185,-5.5984e-07,0,0.00049565,-0.0002959,-2.5149e+08,-1.1665e+05,0,1.5439e+08,-26770,11090,13678,1,13678,1,0.0015995,5.3617e-07,0,0.0015995,0.00011694,2.4541e+08,1.1193e+05,0,2.5194e+08,1.9288e+05,13677,1491.5,0,1491.5,0,0.0012431,4.9028e-06,0,0.00071869,0.00023154,2.8824e+08,8.1628e+05,0,1.4785e+08,3.7149e+05,1491.5,1
4990,7.35,12381,1,12381,1,0.00051501,-5.9166e-07,0,0.0011394,-9.3356e-05,-6.2654e+06,-2916.8,0,2.4762e+08,1.7679e+05,12380,15000,1,15000,1,0.0027551,1.3793e-05,0,0.0027551,0.00029669,2.7314e+08,4.713e+06,0,6.4182e+08,1.4618e+06,14999,12382,1,12382,1,0.00049619,-7.5162e-10,0,0.0010952,-9.0539e-05,1.2343e+08,-197.07,0,2.4537e+08,-3037.6,12381,9753,1,9753,1,-0.0015781,-3.6524e-05,0,7.4342e-06,-0.00051107,-6.4182e+08,-4.5096e+06,0,1.614e+06,-1.2673e+05,9752,11091,1,11091,1,-0.00061825,-6.1617e-07,0,0.00049887,-0.00029694,-2.5138e+08,-1.2735e+05,0,1.5521e+08,-28681,11090,13678,1,13678,1,0.0016051,5.9301e-07,0,0.0016051,0.00011689,2.4537e+08,1.2272e+05,0,2.5144e+08,2.1187e+05,13677,1491.5,0,1491.5,0,0.0012462,5.1252e-06,0,0.00072096,0.0002321,2.884e+08,8.5115e+05,0,1.4794e+08,3.7654e+05,1491.5,1
4990,7.36,12381,1,12381,1,0.00051802,-6.1648e-07,0,0.0011426,-9.3887e-05,-6.2367e+06,-3049.6,0,2.4774e+08,1.8257e+05,12380,15000,1,15000,1,0.0027662,1.3992e-05,0,0.0027662,0.00029718,2.7296e+08,4.7811e+06,0,6.4287e+08,1.4426e+06,14999,12382,1,12382,1,0.00049948,4.7195e-11,0,0.0010962,-9.1096e-05,1.2419e+08,-1.0383,0,2.4524e+08,-2884.2,12381,9753,1,9753,1,-0.0015807,-3.7022e-05,0,7.8275e-06,-0.00051312,-6.4287e+08,-4.5735e+06,0,1.7713e+06,-1.3615e+05,9752,11091,1,11091,1,-0.00061799,-6.7916e-07,0,0.00050244,-0.00029796,-2.5128e+08,-1.4246e+05,0,1.5611e+08,-31226,11090,13678,1,13678,1,0.0016108,6.5992e-07,0,0.0016108,0.00011683,2.45e+08,1.3661e+05,0,2.5132e+08,2.3354e+05,13677,1491.5,0,1491.5,0,0.0012492,5.3583e-06,0,0.00072325,0.00023266,2.8855e+08,8.8747e+05,0,1.4802e+08,3.8227e+05,1491.5,1
4990,7.37,12381,1,12381,1,0.00052106,-6.4184e-07,0,0.0011459,-9.4424e-05,-6.2076e+06,-3269.6,0,2.4787e+08,1.8845e+05,12380,15000,1,15000,1,0.0027776,1.5382e-05,0,0.0027776,0.00029767,2.7278e+08,4.8451e+06,0,6.4394e+08,1.4388e+06,14999,12382,1,12382,1,0.00050261,-1.0586e-09,0,0.0010972,-9.1694e-05,1.2503e+08,-232.47,0,2.4456e+08,-2773.2,12381,9753,1,9753,1,-0.0015833,-3.748e-05,0,8.1944e-06,-0.00051521,-6.4394e+08,-4.6326e+06,0,1.9252e+06,-1.4683e+05,9752,11091,1,11091,1,-0.00061772,-7.6089e-07,0,0.00050577,-0.00029901,-2.5117e+08,-1.5634e+05,0,1.5696e+08,-34003,11090,13678,1,13678,1,0.0016165,7.325e-07,0,0.0016165,0.00011677,2.4425e+08,1.5221e+05,0,2.5121e+08,2.5287e+05,13677,1491.5,0,1491.5,0,0.0012523,5.6024e-06,0,0.00072557,0.00023323,2.887e+08,9.2535e+05,0,1.4811e+08,3.8886e+05,1491.5,1
4990,7.38,12381,1,12381,1,0.00052412,-6.6715e-07,0,0.0011492,-9.4965e-05,-6.1782e+06,-3496.9,0,2.4799e+08,1.9442e+05,12380,15000,1,15000,1,0.0027892,1.6872e-05,0,0.0027892,0.00029819,2.7261e+08,4.9051e+06,0,6.4504e+08,1.4473e+06,14999,12382,1,12382,1,0.00050604,-9.069e-10,0,0.0010981,-9.2257e-05,1.2582e+08,-112.37,0,2.4377e+08,-2583.7,12381,9753,1,9753,1,-0.001586,-3.7905e-05,0,8.5295e-06,-0.00051734,-6.4504e+08,-4.6877e+06,0,2.0599e+06,-1.5886e+05,9752,11091,1,11091,1,-0.00061743,-8.4285e-07,0,0.0005095,-0.00030006,-2.5105e+08,-1.7454e+05,0,1.5791e+08,-37095,11090,13678,1,13678,1,0.0016222,8.0899e-07,0,0.0016222,0.00011671,2.4344e+08,1.6845e+05,0,2.511e+08,2.7758e+05,13677,1491.5,0,1491.5,0,0.0012554,5.8593e-06,0,0.00072791,0.0002338,2.8885e+08,9.6499e+05,0,1.482e+08,3.9647e+05,1491.5,1
4990,7.39,12381,1,12381,1,0.00052722,-6.9243e-07,0,0.0011525,-9.5512e-05,-6.1485e+06,-3726,0,2.4811e+08,2.0051e+05,12380,15000,1,15000,1,0.002801,1.8455e-05,0,0.002801,0.00029871,2.7244e+08,4.9614e+06,0,6.4618e+08,1.467e+06,14999,12382,1,12382,1,0.00050921,-2.3382e-09,0,0.001099,-9.2867e-05,1.2668e+08,-505.25,0,2.4299e+08,-2229.6,12381,9753,1,9753,1,-0.0015888,-3.8296e-05,0,8.7982e-06,-0.00051951,-6.4618e+08,-4.7388e+06,0,2.1821e+06,-1.7286e+05,9752,11091,1,11091,1,-0.00061714,-9.2885e-07,0,0.00051297,-0.00030108,-2.5093e+08,-1.9497e+05,0,1.5878e+08,-40637,11090,13678,1,13678,1,0.0016278,9.0358e-07,0,0.0016278,0.00011664,2.4263e+08,1.8665e+05,0,2.5099e+08,3.0986e+05,13677,1491.5,0,1491.5,0,0.0012585,6.1308e-06,0,0.00073028,0.00023437,2.89e+08,1.0066e+06,0,1.4829e+08,4.0538e+05,1491.5,1
4990,7.4,12381,1,12381,1,0.00053034,-7.1726e-07,0,0.0011559,-9.6063e-05,-6.1183e+06,-3896.2,0,2.4823e+08,2.067e+05,12380,15000,1,15000,1,0.002813,2.013e-05,0,0.002813,0.00029925,2.7227e+08,5.0138e+06,0,6.4734e+08,1.4978e+06,14999,12382,1,12382,1,0.00051273,-2.7863e-09,0,0.0011,-9.3438e-05,1.2756e+08,-523.72,0,2.4224e+08,-1792.3,12381,9753,1,9753,1,-0.0015917,-3.8656e-05,0,9.0798e-06,-0.00052172,-6.4734e+08,-4.7862e+06,0,2.2975e+06,-1.8849e+05,9752,11091,1,11091,1,-0.00061683,-1.0451e-06,0,0.00051687,-0.00030212,-2.5081e+08,-2.1899e+05,0,1.5978e+08,-44605,11090,13678,1,13678,1,0.0016335,1.0001e-06,0,0.0016335,0.00011657,2.4211e+08,2.0994e+05,0,2.5086e+08,3.3683e+05,13677,1491.5,0,1491.5,0,0.0012616,6.4189e-06,0,0.00073267,0.00023494,2.8915e+08,1.0504e+06,0,1.4839e+08,4.1569e+05,1491.5,1
4990,7.41,12381,1,12381,1,0.0005335,-7.4191e-07,0,0.0011592,-9.662e-05,-6.088e+06,-4072,0,2.4835e+08,2.1298e+05,12380,15000,1,15000,1,0.0028252,2.1887e-05,0,0.0028252,0.00029981,2.7211e+08,5.0628e+06,0,6.4854e+08,1.539e+06,14999,12382,1,12382,1,0.00051633,-2.7543e-09,0,0.0011009,-9.4051e-05,1.2837e+08,-511.37,0,2.4207e+08,-1596.1,12381,9753,1,9753,1,-0.0015946,-3.899e-05,0,9.3055e-06,-0.00052397,-6.4854e+08,-4.8301e+06,0,2.405e+06,-2.0635e+05,9752,11091,1,11091,1,-0.00061651,-1.166e-06,0,0.00052069,-0.00030316,-2.5068e+08,-2.4247e+05,0,1.6072e+08,-49515,11090,13678,1,13678,1,0.0016389,1.1068e-06,0,0.0016389,0.0001165,2.4184e+08,2.3152e+05,0,2.5074e+08,3.6285e+05,13677,1491.5,0,1491.5,0,0.0012648,6.7255e-06,0,0.00073509,0.00023553,2.893e+08,1.0967e+06,0,1.4848e+08,4.2782e+05,1491.5,1
4990,7.42,12381,1,12381,1,0.00053669,-7.6665e-07,0,0.0011626,-9.7182e-05,-6.0572e+06,-4300.6,0,2.4846e+08,2.1938e+05,12380,15000,1,15000,1,0.0028377,2.3733e-05,0,0.0028377,0.00030039,2.7194e+08,5.1086e+06,0,6.4979e+08,1.5914e+06,14999,12382,1,12382,1,0.0005196,-2.5326e-09,0,0.0011018,-9.4667e-05,1.2928e+08,-515.3,0,2.4166e+08,-1516.5,12381,9753,1,9753,1,-0.0015977,-3.9297e-05,0,9.4786e-06,-0.00052626,-6.4979e+08,-4.8708e+06,0,2.4898e+06,-2.2691e+05,9752,11091,1,11091,1,-0.00061619,-1.3076e-06,0,0.00052459,-0.0003042,-2.5054e+08,-2.7271e+05,0,1.6174e+08,-55035,11090,13678,1,13678,1,0.0016445,1.2216e-06,0,0.0016445,0.00011642,2.4155e+08,2.586e+05,0,2.5061e+08,3.8683e+05,13677,1491.5,0,1491.5,0,0.001268,7.0533e-06,0,0.00073753,0.00023611,2.8945e+08,1.1458e+06,0,1.4858e+08,4.4196e+05,1491.5,1
4990,7.43,12381,1,12381,1,0.00053991,-7.914e-07,0,0.0011661,-9.7749e-05,-6.0259e+06,-4571.1,0,2.4858e+08,2.259e+05,12380,15000,1,15000,1,0.0028504,2.5669e-05,0,0.0028504,0.00030099,2.7178e+08,5.151e+06,0,6.5107e+08,1.654e+06,14999,12382,1,12382,1,0.00052326,-2.2473e-09,0,0.0011027,-9.5241e-05,1.3021e+08,-444.94,0,2.413e+08,-1136.5,12381,9753,1,9753,1,-0.0016009,-3.9584e-05,0,9.6558e-06,-0.00052859,-6.5107e+08,-4.909e+06,0,2.5848e+06,-2.504e+05,9752,11091,1,11091,1,-0.00061584,-1.4631e-06,0,0.00052886,-0.00030523,-2.504e+08,-3.0511e+05,0,1.6281e+08,-61635,11090,13678,1,13678,1,0.0016501,1.3611e-06,0,0.0016501,0.00011633,2.4111e+08,2.8625e+05,0,2.5048e+08,4.1063e+05,13677,1491.5,0,1491.5,0,0.0012712,7.4062e-06,0,0.00074001,0.0002367,2.896e+08,1.1981e+06,0,1.4868e+08,4.5849e+05,1491.5,1
4990,7.44,12381,1,12381,1,0.00054318,-8.1556e-07,0,0.0011695,-9.8327e-05,-5.9944e+06,-4762.4,0,2.4868e+08,2.3253e+05,12380,15000,1,15000,1,0.0028634,2.7681e-05,0,0.0028634,0.00030162,2.7161e+08,5.1914e+06,0,6.5243e+08,1.7309e+06,14999,12382,1,12382,1,0.00052705,-4.4828e-09,0,0.0011036,-9.5868e-05,1.3103e+08,-726.47,0,2.4055e+08,-771.96,12381,9753,1,9753,1,-0.0016042,-3.9846e-05,0,9.8408e-06,-0.000531,-6.5243e+08,-4.9438e+06,0,2.6604e+06,-2.7747e+05,9752,11091,1,11091,1,-0.00061546,-1.6555e-06,0,0.00053294,-0.0003062,-2.5024e+08,-3.4418e+05,0,1.638e+08,-69166,11090,13678,1,13678,1,0.0016551,1.5407e-06,0,0.0016551,0.00011624,2.4034e+08,3.2275e+05,0,2.5033e+08,4.3276e+05,13677,1491.5,0,1491.5,0,0.0012745,7.7851e-06,0,0.00074253,0.0002373,2.8975e+08,1.2542e+06,0,1.4878e+08,4.7787e+05,1491.5,1
4990,7.45,12381,1,12381,1,0.00054654,-8.4309e-07,0,0.001173,-9.8917e-05,-5.9614e+06,-5633.7,0,2.4876e+08,2.3951e+05,12380,15000,1,15000,1,0.0028771,2.9815e-05,0,0.0028771,0.00030228,2.7143e+08,5.2232e+06,0,6.5385e+08,1.8221e+06,14999,12382,1,12382,1,0.00053087,-2.2963e-10,0,0.0011043,-9.6485e-05,1.3197e+08,-58.527,0,2.3976e+08,-668.8,12381,9753,1,9753,1,-0.0016077,-4.0126e-05,0,9.9746e-06,-0.00053351,-6.5385e+08,-4.982e+06,0,2.7124e+06,-3.1049e+05,9752,11091,1,11091,1,-0.00061497,-1.8764e-06,0,0.00053733,-0.00030713,-2.5004e+08,-3.8585e+05,0,1.6492e+08,-78229,11090,13678,1,13678,1,0.00166,1.7374e-06,0,0.0016601,0.00011611,2.3951e+08,3.6645e+05,0,2.5014e+08,4.5002e+05,13677,1491.5,0,1491.5,0,0.0012777,8.2081e-06,0,0.00074507,0.00023789,2.8986e+08,1.3159e+06,0,1.4886e+08,5.0144e+05,1491.5,1
4990,7.46,12381,1,12381,1,0.00055004,-8.6526e-07,0,0.0011767,-9.9534e-05,-5.9296e+06,-5329.7,0,2.4886e+08,2.4664e+05,12380,15000,1,15000,1,0.0028919,3.2058e-05,0,0.0028919,0.00030304,2.7123e+08,5.265e+06,0,6.5548e+08,1.9325e+06,14999,12382,1,12382,1,0.00053483,-4.8116e-09,0,0.0011051,-9.7108e-05,1.3295e+08,-841.69,0,2.3897e+08,2392.8,12381,9753,1,9753,1,-0.0016117,-4.0328e-05,0,1.0096e-05,-0.00053623,-6.5548e+08,-5.0085e+06,0,2.7864e+06,-3.5566e+05,9752,11091,1,11091,1,-0.00061454,-2.1399e-06,0,0.00054262,-0.00030798,-2.4984e+08,-4.4463e+05,0,1.6603e+08,-91618,11090,13678,1,13678,1,0.0016647,1.9942e-06,0,0.0016647,0.00011599,2.3872e+08,4.2108e+05,0,2.4998e+08,4.6176e+05,13677,1491.5,0,1491.5,0,0.0012812,8.683e-06,0,0.00074779,0.00023852,2.9e+08,1.3867e+06,0,1.4897e+08,5.3182e+05,1491.5,1
4990,7.47,12381,1,12381,1,0.00055371,-8.9145e-07,0,0.0011804,-0.00010018,-5.8949e+06,-5586.4,0,2.4893e+08,2.5452e+05,12380,15000,1,15000,1,0.0029077,3.4563e-05,0,0.0029077,0.00030386,2.71e+08,5.3007e+06,0,6.5724e+08,2.0772e+06,14999,12382,1,12382,1,0.00053917,-3.3289e-09,0,0.0011058,-9.7737e-05,1.3397e+08,-539.42,0,2.3827e+08,4912.2,12381,9753,1,9753,1,-0.001616,-4.0558e-05,0,1.0202e-05,-0.00053914,-6.5724e+08,-5.0395e+06,0,2.8647e+06,-4.1524e+05,9752,11091,1,11091,1,-0.00061393,-2.4983e-06,0,0.00054848,-0.00030872,-2.4958e+08,-5.181e+05,0,1.6714e+08,-1.0625e+05,11090,13678,1,13678,1,0.0016685,2.3311e-06,0,0.0016686,0.00011582,2.3804e+08,4.8888e+05,0,2.4976e+08,4.4983e+05,13677,1491.5,0,1491.5,0,0.0012847,9.2561e-06,0,0.00075061,0.00023916,2.9011e+08,1.4702e+06,0,1.4907e+08,5.7098e+05,1491.5,1
4990,7.48,12381,1,12381,1,0.00055747,-9.2201e-07,0,0.0011842,-0.00010084,-5.8587e+06,-6483.1,0,2.4895e+08,2.6315e+05,12380,15000,1,15000,1,0.0029244,3.7331e-05,0,0.0029244,0.00030474,2.7076e+08,5.329e+06,0,6.5913e+08,2.2571e+06,14999,12382,1,12382,1,0.0005438,2.4908e-09,0,0.0011062,-9.8354e-05,1.3501e+08,376.52,0,2.3775e+08,7333.6,12381,9753,1,9753,1,-0.0016207,-4.0816e-05,0,1.0286e-05,-0.00054221,-6.5913e+08,-5.0752e+06,0,2.91e+06,-4.9155e+05,9752,11091,1,11091,1,-0.00061316,-2.951e-06,0,0.00055484,-0.0003095,-2.4926e+08,-5.8706e+05,0,1.684e+08,-1.2498e+05,11090,13678,1,13678,1,0.0016718,2.7492e-06,0,0.0016718,0.00011561,2.3747e+08,5.6996e+05,0,2.4948e+08,4.4866e+05,13677,1491.5,0,1491.5,0,0.0012882,9.9479e-06,0,0.00075348,0.00023979,2.9017e+08,1.5686e+06,0,1.4915e+08,6.2119e+05,1491.5,1
4990,7.49,12381,1,12381,1,0.00056138,-9.4905e-07,0,0.0011881,-0.00010151,-5.8221e+06,-6493.7,0,2.49e+08,2.7224e+05,12380,15000,1,15000,1,0.0029425,4.032e-05,0,0.0029425,0.00030576,2.7049e+08,5.3631e+06,0,6.6133e+08,2.4767e+06,14999,12382,1,12382,1,0.0005488,-8.08e-09,0,0.0011067,-9.8969e-05,1.3611e+08,-1198.4,0,2.372e+08,7463.2,12381,9753,1,9753,1,-0.0016261,-4.1696e-05,0,1.0411e-05,-0.00054553,-6.6133e+08,-5.1052e+06,0,2.9575e+06,-5.9006e+05,9752,11091,1,11091,1,-0.00061243,-3.5219e-06,0,0.00056139,-0.00030992,-2.4894e+08,-6.9166e+05,0,1.6965e+08,-1.4789e+05,11090,13678,1,13678,1,0.0016738,3.2841e-06,0,0.0016738,0.00011539,2.3686e+08,6.7708e+05,0,2.4922e+08,4.4906e+05,13677,1491.5,0,1491.5,0,0.0012919,1.0767e-05,0,0.00075655,0.00024046,2.9026e+08,1.6857e+06,0,1.4925e+08,6.8493e+05,1491.5,1
4990,7.5,12381,1,12381,1,0.00056548,-9.8293e-07,0,0.0011922,-0.00010221,-5.784e+06,-7356.4,0,2.4901e+08,2.8229e+05,12380,15000,1,15000,1,0.0029621,4.3658e-05,0,0.0029621,0.00030691,2.7021e+08,5.4024e+06,0,6.6379e+08,2.756e+06,14999,12382,1,12382,1,0.00055426,-4.9545e-09,0,0.0011069,-9.9563e-05,1.3729e+08,-1157.2,0,2.3665e+08,-889.54,12381,9753,1,9753,1,-0.0016321,-4.4142e-05,0,1.0555e-05,-0.00054914,-6.6379e+08,-5.1344e+06,0,3.0139e+06,-7.0984e+05,9752,11091,1,11091,1,-0.00061158,-4.1938e-06,0,0.0005687,-0.00031048,-2.4858e+08,-8.2559e+05,0,1.7112e+08,-1.7571e+05,11090,13678,1,13678,1,0.001675,3.9167e-06,0,0.001675,0.00011511,2.3626e+08,7.9545e+05,0,2.4889e+08,4.791e+05,13677,1491.5,0,1491.5,0,0.0012957,1.1773e-05,0,0.0007598,0.00024114,2.9032e+08,1.8275e+06,0,1.4935e+08,7.6606e+05,1491.5,1
4990,7.51,12381,1,12381,1,0.00056982,-1.0168e-06,0,0.0011964,-0.00010294,-5.7433e+06,-7752.5,0,2.4901e+08,2.9345e+05,12380,15000,1,15000,1,0.0029832,4.7372e-05,0,0.0029832,0.00030822,2.6986e+08,5.4576e+06,0,6.666e+08,3.1095e+06,14999,12382,1,12382,1,0.00056007,-1.3256e-09,0,0.0011099,-0.00010017,1.3855e+08,-441.99,0,2.3604e+08,-7631.6,12381,9753,1,9753,1,-0.001639,-4.7433e-05,0,1.0683e-05,-0.00055302,-6.666e+08,-5.3963e+06,0,3.0806e+06,-8.6675e+05,9752,11091,1,11091,1,-0.0006106,-4.9391e-06,0,0.00057703,-0.00031066,-2.4815e+08,-9.6329e+05,0,1.7265e+08,-2.1523e+05,11090,13678,1,13678,1,0.0016757,4.7025e-06,0,0.0016757,0.0001148,2.3564e+08,9.542e+05,0,2.4852e+08,5.0836e+05,13677,1491.5,0,1491.5,0,0.0012998,1.3008e-05,0,0.00076333,0.00024185,2.9037e+08,1.9994e+06,0,1.4945e+08,8.6921e+05,1491.5,1
4990,7.52,12381,1,12381,1,0.00057457,-1.0489e-06,0,0.0012009,-0.00010371,-5.6972e+06,-7440,0,2.4895e+08,3.0594e+05,12380,15000,1,15000,1,0.003006,5.1791e-05,0,0.003006,0.00030968,2.6944e+08,5.8545e+06,0,6.6972e+08,3.5509e+06,14999,12382,1,12382,1,0.00056623,-1.3605e-08,0,0.0011157,-0.00010061,1.3989e+08,-3798,0,2.3542e+08,-17640,12381,9753,1,9753,1,-0.0016467,-5.1678e-05,0,1.0767e-05,-0.00055721,-6.6972e+08,-5.8463e+06,0,3.1579e+06,-1.083e+06,9752,11091,1,11091,1,-0.00060939,-5.8408e-06,0,0.00058674,-0.00031082,-2.4761e+08,-1.1423e+06,0,1.7439e+08,-2.6608e+05,11090,13678,1,13678,1,0.0016746,5.5791e-06,0,0.0016746,0.00011438,2.349e+08,1.1356e+06,0,2.4805e+08,5.3669e+05,13677,1491.5,0,1491.5,0,0.0013041,1.4504e-05,0,0.00076723,0.0002426,2.9037e+08,2.2054e+06,0,1.4954e+08,9.9903e+05,1491.5,1
4990,7.53,12381,1,12381,1,0.00058008,-1.0905e-06,0,0.001206,-0.0001046,-5.6443e+06,-7989.1,0,2.4883e+08,3.1913e+05,12380,15000,1,15000,1,0.0030311,5.6982e-05,0,0.0030311,0.00031142,2.6889e+08,6.3691e+06,0,6.7341e+08,4.1008e+06,14999,12382,1,12382,1,0.00057284,-1.3521e-08,0,0.0011205,-0.00010126,1.4097e+08,-4121.9,0,2.3472e+08,-33230,12381,9753,1,9753,1,-0.0016558,-5.6999e-05,0,1.0846e-05,-0.00056182,-6.7341e+08,-6.3664e+06,0,3.1949e+06,-1.3623e+06,9752,11091,1,11091,1,-0.0006077,-6.8832e-06,0,0.00059732,-0.00031075,-2.4685e+08,-1.3567e+06,0,1.7576e+08,-3.3312e+05,11090,13678,1,13678,1,0.0016915,6.4386e-06,0,0.0016915,0.00011386,2.3452e+08,1.3174e+06,0,2.4747e+08,5.8264e+05,13677,1491.5,0,1491.5,0,0.0013091,1.6293e-05,0,0.00077186,0.00024343,2.9031e+08,2.4497e+06,0,1.4963e+08,1.1618e+06,1491.5,1
4990,7.54,12381,1,12381,1,0.00058656,-1.1405e-06,0,0.0012117,-0.00010561,-5.5844e+06,-9451,0,2.4855e+08,3.3523e+05,12380,15000,1,15000,1,0.0030656,6.4027e-05,0,0.0030656,0.00031341,2.6817e+08,7.035e+06,0,6.7764e+08,4.8344e+06,14999,12382,1,12382,1,0.00058,-1.764e-08,0,0.0011252,-0.00010186,1.4236e+08,-5635,0,2.3379e+08,-56633,12381,9753,1,9753,1,-0.0016662,-6.3991e-05,0,1.0927e-05,-0.00056696,-6.7764e+08,-7.029e+06,0,3.2375e+06,-1.7151e+06,9752,11091,1,11091,1,-0.00060522,-8.0067e-06,0,0.00060503,-0.0003109,-2.4576e+08,-1.5839e+06,0,1.7408e+08,-4.2446e+05,11090,13678,1,13678,1,0.0017085,7.3773e-06,0,0.0017087,0.00011316,2.3343e+08,1.5195e+06,0,2.4665e+08,6.0937e+05,13677,1491.5,0,1491.5,0,0.0013147,1.8564e-05,0,0.00077739,0.00024435,2.9011e+08,2.7534e+06,0,1.497e+08,1.3741e+06,1491.5,1
4990,7.55,12381,1,12381,1,0.00059435,-1.1895e-06,0,0.0012184,-0.00010678,-5.5101e+06,-9494,0,2.4817e+08,3.5313e+05,12380,15000,1,15000,1,0.0031602,7.3295e-05,0,0.0031602,0.00031589,2.6723e+08,7.9401e+06,0,6.8289e+08,5.8207e+06,14999,12382,1,12382,1,0.0005888,-9.3677e-09,0,0.00113,-0.00010353,1.4345e+08,-3199.4,0,2.3271e+08,-87025,12381,9753,1,9753,1,-0.0016791,-7.3322e-05,0,1.1042e-05,-0.00058424,-6.8289e+08,-7.941e+06,0,3.3043e+06,-2.1702e+06,9752,11091,1,11091,1,-0.00060202,-9.5115e-06,0,0.00060193,-0.000311,-2.4435e+08,-1.8282e+06,0,1.7244e+08,-5.5091e+05,11090,13678,1,13678,1,0.0017228,8.7669e-06,0,0.0017233,0.00011223,2.3229e+08,1.7898e+06,0,2.456e+08,6.3981e+05,13677,1491.5,0,1491.5,0,0.0013214,2.1504e-05,0,0.00078436,0.00024541,2.8982e+08,3.1401e+06,0,1.4979e+08,1.6547e+06,1491.5,1
4990,7.56,12381,1,12381,1,0.0006039,-1.2561e-06,0,0.0012263,-0.00010816,-5.4215e+06,-11152,0,2.4758e+08,3.7538e+05,12380,15000,1,15000,1,0.0032862,8.6273e-05,0,0.0032862,0.00031891,2.6602e+08,9.1414e+06,0,6.8928e+08,7.159e+06,14999,12382,1,12382,1,0.00059668,-2.0633e-08,0,0.0011353,-0.00010592,1.4506e+08,-4621.7,0,2.3138e+08,-1.25e+05,12381,9753,1,9753,1,-0.0016949,-8.6254e-05,0,1.1147e-05,-0.00060719,-6.8928e+08,-9.1515e+06,0,3.378e+06,-2.7607e+06,9752,11091,1,11091,1,-0.00059764,-1.1345e-05,0,0.00059782,-0.00031484,-2.4241e+08,-2.1665e+06,0,1.7043e+08,-7.2243e+05,11090,13678,1,13678,1,0.001737,1.0269e-05,0,0.0017385,0.000111,2.3109e+08,2.1284e+06,0,2.449e+08,6.9838e+05,13677,1491.5,0,1491.5,0,0.0013297,2.5427e-05,0,0.00079339,0.00024666,2.8935e+08,3.6367e+06,0,1.4987e+08,2.0269e+06,1491.5,1
4990,7.57,12381,1,12381,1,0.00061594,-1.3292e-06,0,0.001236,-0.00010983,-5.3034e+06,-12257,0,2.4673e+08,4.0244e+05,12380,15000,1,15000,1,0.003457,0.00010482,0,0.0034571,0.00032269,2.6433e+08,1.073e+07,0,6.9727e+08,8.9592e+06,14999,12382,1,12382,1,0.00060611,-4.4391e-08,0,0.0011409,-0.00010833,1.458e+08,-10224,0,2.3016e+08,-1.8396e+05,12381,9753,1,9753,1,-0.0017145,-0.00010454,0,1.1305e-05,-0.00063831,-6.9727e+08,-1.076e+07,0,3.4299e+06,-3.5478e+06,9752,11091,1,11091,1,-0.00059159,-1.3491e-05,0,0.00059232,-0.00031883,-2.3981e+08,-2.5798e+06,0,1.6871e+08,-9.3755e+05,11090,13678,1,13678,1,0.0017574,1.1918e-05,0,0.0017586,0.00010909,2.2978e+08,2.5144e+06,0,2.4381e+08,7.4762e+05,13677,1491.5,0,1491.5,0,0.0013404,3.0714e-05,0,0.00080563,0.00024817,2.8867e+08,4.2791e+06,0,1.4995e+08,2.5201e+06,1491.5,1
4990,7.58,12381,1,12381,1,0.00063118,-1.4195e-06,0,0.001248,-0.00011178,-5.1625e+06,-13601,0,2.4551e+08,4.3566e+05,12380,15000,1,15000,1,0.0036967,0.00013156,0,0.0036967,0.0003275,2.6208e+08,1.2866e+07,0,7.074e+08,1.1442e+07,14999,12382,1,12382,1,0.0006141,-5.5484e-08,0,0.0011477,-0.0001106,1.4747e+08,-11873,0,2.2823e+08,-2.4886e+05,12381,9753,1,9753,1,-0.0017395,-0.00013106,0,4.939e-06,-0.00068198,-7.074e+08,-1.2913e+07,0,3.2543e+06,-4.659e+06,9752,11091,1,11091,1,-0.0005831,-1.6325e-05,0,0.00058507,-0.00032315,-2.3611e+08,-3.0545e+06,0,1.6953e+08,-1.2324e+06,11090,13678,1,13678,1,0.0017754,1.4176e-05,0,0.0017756,0.00010659,2.2787e+08,2.9891e+06,0,2.4225e+08,8.0271e+05,13677,1491.5,0,1491.5,0,0.0013545,3.8119e-05,0,0.00082274,0.00025,2.8765e+08,5.1275e+06,0,1.5003e+08,3.1878e+06,1491.5,1
4990,7.59,12381,1,12381,1,0.00065109,-1.536e-06,0,0.0012637,-0.00011404,-4.9797e+06,-15862,0,2.4388e+08,4.7677e+05,12380,15000,1,15000,1,0.0040556,0.0001717,0,0.0040556,0.00033394,2.5905e+08,1.5826e+07,0,7.2095e+08,1.4925e+07,14999,12382,1,12382,1,0.0006399,-7.0953e-08,0,0.0011523,-0.00011285,1.5167e+08,-16123,0,2.2536e+08,-3.2041e+05,12381,9753,1,9753,1,-0.0017728,-0.00017106,0,1.1364e-05,-0.00074707,-7.2095e+08,-1.5879e+07,0,3.5531e+06,-6.3701e+06,9752,11091,1,11091,1,-0.00057136,-2.0004e-05,0,0.00058062,-0.0003254,-2.3102e+08,-3.6802e+06,0,1.6912e+08,-1.6418e+06,11090,13678,1,13678,1,0.0017636,1.6868e-05,0,0.0017697,0.00010307,2.251e+08,3.5709e+06,0,2.4191e+08,8.019e+05,13677,1491.5,0,1491.5,0,0.0013747,4.888e-05,0,0.00084791,0.00025231,2.8626e+08,6.2745e+06,0,1.5006e+08,4.1217e+06,1491.5,1
4990,7.6,12381,1,12381,1,0.00067869,-1.6795e-06,0,0.0012854,-0.00011672,-4.7278e+06,-19939,0,2.4159e+08,5.2988e+05,12380,15000,1,15000,1,0.0046255,0.00023691,0,0.0046255,0.00034286,2.5479e+08,1.999e+07,0,7.3969e+08,1.9916e+07,14999,12382,1,12382,1,0.00065717,-8.6897e-08,0,0.0011631,-0.00011609,1.5417e+08,-20317,0,2.2179e+08,-4.0052e+05,12381,9753,1,9753,1,-0.0018189,-0.00023485,0,1.1525e-05,-0.00084653,-7.3969e+08,-2.0111e+07,0,3.6077e+06,-8.4474e+06,9752,11091,1,11091,1,-0.00055385,-2.5184e-05,0,0.00057362,-0.00032141,-2.234e+08,-4.4725e+06,0,1.6468e+08,-2.1912e+06,11090,13678,1,13678,1,0.0017893,1.9921e-05,0,0.0018085,0.00010075,2.2153e+08,4.3419e+06,0,2.4143e+08,8.2383e+05,13677,1491.5,0,1491.5,0,0.0014061,6.53e-05,0,0.00088856,0.00025543,2.8424e+08,7.8604e+06,0,1.5e+08,5.4255e+06,1491.5,1
4990,7.61,12381,1,12381,1,0.00071866,-1.8754e-06,0,0.0013166,-0.00011955,-4.3894e+06,-26060,0,2.3804e+08,6.0033e+05,12380,15000,1,15000,1,0.0056303,0.00035216,0,0.0056303,0.00035574,2.6089e+08,2.6169e+07,0,7.6665e+08,2.7296e+07,14999,12382,1,12382,1,0.00066265,-1.1437e-07,0,0.0011665,-0.00011844,1.4925e+08,-25622,0,2.1626e+08,-5.1931e+05,12381,9753,1,9753,1,-0.0018853,-0.00034785,0,1.1447e-05,-0.0010153,-7.6665e+08,-2.6442e+07,0,3.6603e+06,-1.1558e+07,9752,11091,1,11091,1,-0.0005263,-3.2126e-05,0,0.00056443,-0.00031848,-2.1146e+08,-5.4006e+06,0,1.5785e+08,-2.996e+06,11090,13678,1,13678,1,0.0018339,2.4434e-05,0,0.0018348,9.6855e-05,2.1637e+08,5.34e+06,0,2.4261e+08,8.4504e+05,13677,1491.5,0,1491.5,0,0.0014604,9.2397e-05,0,0.00096128,0.00025964,2.812e+08,1.0114e+07,0,1.5006e+08,7.3288e+06,1491.5,1
4990,7.62,12381,1,12381,1,0.00078018,-2.147e-06,0,0.0013649,-0.00012125,-3.9175e+06,-35589,0,2.3241e+08,6.9792e+05,12380,15000,1,15000,1,0.0076929,0.00058835,0,0.0076929,0.00037532,2.7244e+08,3.5595e+07,0,8.0748e+08,3.8416e+07,14999,12382,1,12382,1,0.00071611,-1.5726e-07,0,0.0011676,-0.00011912,1.4163e+08,-35796,0,2.0801e+08,-7.0152e+05,12381,9753,1,9753,1,-0.0019858,-0.0005769,0,1.1517e-05,-0.0013443,-8.0748e+08,-3.6089e+07,0,3.6917e+06,-1.641e+07,9752,11091,1,11091,1,-0.00047791,-4.1313e-05,0,0.00055974,-0.00031392,-1.9087e+08,-6.4707e+06,0,1.5005e+08,-4.1203e+06,11090,13678,1,13678,1,0.0017938,3.0262e-05,0,0.0018499,9.4344e-05,2.0795e+08,6.4859e+06,0,2.4719e+08,7.357e+05,13677,1491.5,0,1491.5,0,0.0015695,0.00014205,0,0.0011086,0.0002651,2.7651e+08,1.3414e+07,0,1.5042e+08,1.0178e+07,1491.5,1
4990,7.63,12381,1,12381,1,0.00088172,-2.5492e-06,0,0.0014472,-0.00011603,-3.2734e+06,-53934,0,2.2318e+08,8.2724e+05,12380,15000,1,15000,1,0.013033,0.0011946,0,0.013033,0.00040651,2.9345e+08,5.0264e+07,0,8.7206e+08,5.5015e+07,14999,12382,1,12382,1,0.00073801,-2.4101e-07,0,0.0011515,-0.00012118,1.285e+08,-55313,0,1.9491e+08,-9.6751e+05,12381,9753,1,9753,1,-0.0021449,-0.0011896,0,1.1083e-05,-0.0020977,-8.7206e+08,-5.115e+07,0,3.6719e+06,-2.3911e+07,9752,11091,1,11091,1,-0.00038821,-5.1179e-05,0,0.000593,-0.00029872,-1.5531e+08,-8.2356e+06,0,1.3848e+08,-5.8236e+06,11090,13678,1,13678,1,0.0017819,4.0538e-05,0,0.0018163,9.2491e-05,1.9554e+08,8.0781e+06,0,2.5835e+08,5.2329e+05,13677,1491.5,0,1491.5,0,0.0018371,0.00024605,0,0.0014554,0.00026949,2.6902e+08,1.827e+07,0,1.5131e+08,1.4374e+07,1491.5,1
4990,7.63,12381,1,12381,1,0.0008986,-2.6247e-06,0,0.0014615,-0.00011317,-3.1614e+06,-57452,0,2.2168e+08,8.4865e+05,12380,15000,1,15000,1,0.014676,0.0013784,0,0.014676,0.00041183,2.9857e+08,5.2769e+07,0,8.8307e+08,5.7993e+07,14999,12382,1,12382,1,0.00074229,-2.5815e-07,0,0.0011549,-0.0001201,1.2731e+08,-59592,0,1.9271e+08,-1.0106e+06,12381,9753,1,9753,1,-0.002172,-0.0013643,0,1.1014e-05,-0.0022888,-8.8307e+08,-5.3763e+07,0,3.6439e+06,-2.5258e+07,9752,11091,1,11091,1,-0.00037661,-5.3667e-05,0,0.00059522,-0.0002956,-1.5149e+08,-8.5268e+06,0,1.3586e+08,-6.0751e+06,11090,13678,1,13678,1,0.0017613,4.2343e-05,0,0.0018203,9.1426e-05,1.9335e+08,8.439e+06,0,2.5695e+08,4.9956e+05,13677,1491.5,0,1491.5,0,0.0019003,0.00027086,0,0.0015349,0.00026805,2.6788e+08,1.9109e+07,0,1.5161e+08,1.5113e+07,1491.5,1
4990,7.63,12381,1,12381,1,0.00090076,-2.6341e-06,0,0.0014633,-0.00011275,-3.147e+06,-57925,0,2.2148e+08,8.5137e+05,12380,15000,1,15000,1,0.014907,0.0014039,0,0.014907,0.00041251,2.9923e+08,5.3092e+07,0,8.8448e+08,5.8369e+07,14999,12382,1,12382,1,0.00074252,-2.6765e-07,0,0.0011555,-0.00012023,1.2728e+08,-60246,0,1.9247e+08,-1.0172e+06,12381,9753,1,9753,1,-0.0021754,-0.0013908,0,1.1005e-05,-0.0023138,-8.8448e+08,-5.4097e+07,0,3.6403e+06,-2.5431e+07,9752,11091,1,11091,1,-0.00037603,-5.387e-05,0,0.00059543,-0.00029506,-1.5125e+08,-8.5707e+06,0,1.3572e+08,-6.1151e+06,11090,13678,1,13678,1,0.0017587,4.26e-05,0,0.0018212,9.1262e-05,1.9313e+08,8.4825e+06,0,2.5706e+08,5.0049e+05,13677,1491.5,0,1491.5,0,0.0019089,0.00027422,0,0.0015456,0.0002678,2.6774e+08,1.9215e+07,0,1.5165e+08,1.5207e+07,1491.5,1
