"N","Time","avg(GlobalElementId)","avg(ObjectId)","avg(PedigreeElementId)","avg(alpha)","avg(strain_x (0))","avg(strain_x (1))","avg(strain_x (2))","avg(strain_x (Magnitude))","avg(strain_yy)","avg(stress_x (0))","avg(stress_x (1))","avg(stress_x (2))","avg(stress_x (Magnitude))","avg(stress_yy)","avg(vtkOriginalCellIds)","max(GlobalElementId)","max(ObjectId)","max(PedigreeElementId)","max(alpha)","max(strain_x (0))","max(strain_x (1))","max(strain_x (2))","max(strain_x (Magnitude))","max(strain_yy)","max(stress_x (0))","max(stress_x (1))","max(stress_x (2))","max(stress_x (Magnitude))","max(stress_yy)","max(vtkOriginalCellIds)","med(GlobalElementId)","med(ObjectId)","med(PedigreeElementId)","med(alpha)","med(strain_x (0))","med(strain_x (1))","med(strain_x (2))","med(strain_x (Magnitude))","med(strain_yy)","med(stress_x (0))","med(stress_x (1))","med(stress_x (2))","med(stress_x (Magnitude))","med(stress_yy)","med(vtkOriginalCellIds)","min(GlobalElementId)","min(ObjectId)","min(PedigreeElementId)","min(alpha)","min(strain_x (0))","min(strain_x (1))","min(strain_x (2))","min(strain_x (Magnitude))","min(strain_yy)","min(stress_x (0))","min(stress_x (1))","min(stress_x (2))","min(stress_x (Magnitude))","min(stress_yy)","min(vtkOriginalCellIds)","q1(GlobalElementId)","q1(ObjectId)","q1(PedigreeElementId)","q1(alpha)","q1(strain_x (0))","q1(strain_x (1))","q1(strain_x (2))","q1(strain_x (Magnitude))","q1(strain_yy)","q1(stress_x (0))","q1(stress_x (1))","q1(stress_x (2))","q1(stress_x (Magnitude))","q1(stress_yy)","q1(vtkOriginalCellIds)","q3(GlobalElementId)","q3(ObjectId)","q3(PedigreeElementId)","q3(alpha)","q3(strain_x (0))","q3(strain_x (1))","q3(strain_x (2))","q3(strain_x (Magnitude))","q3(strain_yy)","q3(stress_x (0))","q3(stress_x (1))","q3(stress_x (2))","q3(stress_x (Magnitude))","q3(stress_yy)","q3(vtkOriginalCellIds)","std(GlobalElementId)","std(ObjectId)","std(PedigreeElementId)","std(alpha)","std(strain_x (0))","std(strain_x (1))","std(strain_x (2))","std(strain_x (Magnitude))","std(strain_yy)","std(stress_x (0))","std(stress_x (1))","std(stress_x (2))","std(stress_x (Magnitude))","std(stress_yy)","std(vtkOriginalCellIds)","vtkValidPointMask"
2268,0,12139,1,12139,1,0,0,0,0,0,0,0,0,0,0,12138,13320,1,13320,1,0,0,0,0,0,0,0,0,0,0,13319,12138,1,12138,1,0,0,0,0,0,0,0,0,0,0,12137,10979,1,10979,1,0,0,0,0,0,0,0,0,0,0,10978,11571,1,11571,1,0,0,0,0,0,0,0,0,0,0,11570,12705,1,12705,1,0,0,0,0,0,0,0,0,0,0,12704,656.67,0,656.67,0,0,0,0,0,0,0,0,0,0,0,656.67,1
2268,0.01,12139,1,12139,1,2.5131e-08,-8.183e-09,0,1.2299e-06,-3.8902e-09,-68411,-2178,0,4.2172e+05,-599.29,12138,13320,1,13320,1,2.9967e-06,3.0302e-07,0,2.9979e-06,4.7366e-07,8.1869e+05,69765,0,1.027e+06,28652,13319,12138,1,12138,1,3.8965e-08,-2.0353e-09,0,1.2451e-06,-7.6374e-09,11901,-584.37,0,3.9958e+05,-149.93,12137,10979,1,10979,1,-2.525e-06,-2.3165e-07,0,3.6377e-08,-5.7601e-07,-1.027e+06,-53334,0,10825,-22993,10978,11571,1,11571,1,-1.2022e-06,-1.9237e-08,0,6.096e-07,-2.2985e-07,-4.891e+05,-5639.3,0,2.1457e+05,-1533,11570,12705,1,12705,1,1.2447e-06,4.9288e-09,0,1.8001e-06,2.2388e-07,3.5295e+05,1452,0,5.9612e+05,1653.9,12704,656.67,0,656.67,0,1.4241e-06,2.9828e-08,0,7.1858e-07,2.6499e-07,4.8804e+05,7766.3,0,2.5496e+05,7461.5,656.67,1
2268,0.02,12139,1,12139,1,5.0831e-07,-1.8282e-09,0,2.8338e-06,-9.8736e-08,-751.73,-469.14,0,9.4531e+05,-2300.8,12138,13320,1,13320,1,5.9538e-06,3.3294e-08,0,5.9538e-06,9.2613e-07,1.628e+06,8974.6,0,2.0078e+06,177.56,13319,12138,1,12138,1,5.0826e-07,-3.3902e-10,0,2.8117e-06,-9.799e-08,1.6141e+05,-90.306,0,9.4581e+05,-1049.8,12137,10979,1,10979,1,-4.9364e-06,-4.2312e-08,0,9.0714e-08,-1.1147e-06,-2.0078e+06,-11199,0,38280,-12409,10978,11571,1,11571,1,-2.3059e-06,-2.4866e-09,0,1.4076e-06,-6.315e-07,-9.3794e+05,-763.89,0,4.956e+05,-3466.7,11570,12705,1,12705,1,3.3219e-06,8.5941e-10,0,4.2246e-06,4.3124e-07,9.4581e+05,256.8,0,1.3795e+06,-282.21,12704,656.67,0,656.67,0,3.2452e-06,9.7505e-09,0,1.6601e-06,6.0899e-07,1.0895e+06,2596.3,0,5.4122e+05,2718.3,656.67,1
2268,0.03,12139,1,12139,1,7.6662e-07,2.4886e-09,0,4.2648e-06,-1.4315e-07,-208.44,699.22,0,1.4228e+06,-1333.2,12138,13320,1,13320,1,8.9811e-06,3.4385e-08,0,8.9811e-06,1.3969e-06,2.4558e+06,9265.5,0,3.0273e+06,199.09,13319,12138,1,12138,1,7.6465e-07,2.0923e-09,0,4.2365e-06,-1.4595e-07,2.4267e+05,615.92,0,1.4255e+06,-291.84,12137,10979,1,10979,1,-7.443e-06,-2.9773e-08,0,1.4073e-07,-1.6776e-06,-3.0273e+06,-8023.2,0,59185,-9510.2,10978,11571,1,11571,1,-3.4691e-06,-5.1245e-10,0,2.1193e-06,-9.3831e-07,-1.4111e+06,-148.82,0,7.4588e+05,-1941.6,11570,12705,1,12705,1,5.0051e-06,5.1874e-09,0,6.358e-06,6.4998e-07,1.4255e+06,1554,0,2.0759e+06,-25.603,12704,656.67,0,656.67,0,4.884e-06,6.5277e-09,0,2.499e-06,9.1432e-07,1.6397e+06,1778.9,0,8.1457e+05,2043.5,656.67,1
2268,0.04,12139,1,12139,1,1.038e-06,-2.2027e-09,0,5.7746e-06,-1.9111e-07,-110.1,-619.23,0,1.9266e+06,-798.14,12138,13320,1,13320,1,1.2108e-05,7.4745e-09,0,1.2108e-05,1.8825e-06,3.3109e+06,2542.8,0,4.0794e+06,158.42,13319,12138,1,12138,1,1.0359e-06,-1.707e-09,0,5.7243e-06,-1.9752e-07,3.2941e+05,-475.11,0,1.926e+06,-172.7,12137,10979,1,10979,1,-1.003e-05,-1.3914e-08,0,1.8956e-07,-2.2618e-06,-4.0794e+06,-4731.5,0,79771,-7232,10978,11571,1,11571,1,-4.6866e-06,-4.0375e-09,0,2.8619e-06,-1.2623e-06,-1.9062e+06,-1123.8,0,1.0086e+06,-944.56,11570,12705,1,12705,1,6.761e-06,6.5758e-11,0,8.5867e-06,8.8032e-07,1.926e+06,16.33,0,2.8037e+06,-38.772,12704,656.67,0,656.67,0,6.6133e-06,2.9077e-09,0,3.3842e-06,1.2375e-06,2.2204e+06,853.48,0,1.1032e+06,1338.7,656.67,1
2268,0.05,12139,1,12139,1,1.2906e-06,-9.605e-10,0,7.1814e-06,-2.3729e-07,-229.58,-269.96,0,2.3959e+06,-877.56,12138,13320,1,13320,1,1.5041e-05,1.0236e-08,0,1.5041e-05,2.3382e-06,4.1127e+06,3480.6,0,5.0666e+06,149.77,13319,12138,1,12138,1,1.2904e-06,-5.0832e-10,0,7.1228e-06,-2.4484e-07,4.1045e+05,-145.91,0,2.3966e+06,-160.07,12137,10979,1,10979,1,-1.2457e-05,-1.6354e-08,0,2.3574e-07,-2.8095e-06,-5.0666e+06,-4567.7,0,99230,-8343.3,10978,11571,1,11571,1,-5.8325e-06,-2.2423e-09,0,3.5617e-06,-1.5688e-06,-2.3721e+06,-647.88,0,1.2553e+06,-816.91,11570,12705,1,12705,1,8.4127e-06,3.4044e-10,0,1.0684e-05,1.0967e-06,2.3966e+06,97.42,0,3.4886e+06,-46.166,12704,656.67,0,656.67,0,8.2244e-06,2.7048e-09,0,4.2086e-06,1.5391e-06,2.7614e+06,803.4,0,1.372e+06,1593.9,656.67,1
2268,0.06,12139,1,12139,1,1.5485e-06,-5.046e-10,0,8.6179e-06,-2.8291e-07,-216.16,-144.43,0,2.8752e+06,-370.42,12138,13320,1,13320,1,1.8044e-05,4.6068e-09,0,1.8044e-05,2.8055e-06,4.9341e+06,1564.6,0,6.0792e+06,35.404,13319,12138,1,12138,1,1.5491e-06,-3.5568e-10,0,8.549e-06,-2.8738e-07,4.9298e+05,-101.7,0,2.8766e+06,-52.414,12137,10979,1,10979,1,-1.4947e-05,-9.3651e-09,0,2.8283e-07,-3.3704e-06,-6.0792e+06,-2612.8,0,1.1906e+05,-6889.5,10978,11571,1,11571,1,-7.0008e-06,-1.1637e-09,0,4.275e-06,-1.8827e-06,-2.8472e+06,-330.54,0,1.5064e+06,-273.95,11570,12705,1,12705,1,1.0097e-05,1.4743e-10,0,1.2824e-05,1.3167e-06,2.8766e+06,39.855,0,4.1874e+06,-10.856,12704,656.67,0,656.67,0,9.8696e-06,1.1759e-09,0,5.0505e-06,1.8469e-06,3.3138e+06,352.38,0,1.6464e+06,836.76,656.67,1
2268,0.07,12139,1,12139,1,1.802e-06,1.342e-09,0,1.0026e-05,-3.2922e-07,-143.7,383.61,0,3.3451e+06,-438.46,12138,13320,1,13320,1,2.1009e-05,1.2964e-08,0,2.1009e-05,3.2664e-06,5.7448e+06,3615.7,0,7.0779e+06,146.95,13319,12138,1,12138,1,1.8021e-06,1.3572e-09,0,9.95e-06,-3.3403e-07,5.7346e+05,399.76,0,3.3479e+06,-42.965,12137,10979,1,10979,1,-1.7402e-05,-1.4896e-08,0,3.2872e-07,-3.9241e-06,-7.0779e+06,-4154.5,0,1.384e+05,-7491.6,10978,11571,1,11571,1,-8.1476e-06,1.5367e-10,0,4.9749e-06,-2.1909e-06,-3.3136e+06,46.512,0,1.7531e+06,-316.87,11570,12705,1,12705,1,1.1752e-05,2.5459e-09,0,1.4925e-05,1.5324e-06,3.3479e+06,748.21,0,4.8734e+06,2.3656,12704,656.67,0,656.67,0,1.1483e-05,2.0579e-09,0,5.8759e-06,2.1489e-06,3.8554e+06,581.02,0,1.9155e+06,1043.1,656.67,1
2268,0.08,12139,1,12139,1,2.0659e-06,-2.5503e-09,0,1.1492e-05,-3.7711e-07,19.748,-718.88,0,3.8342e+06,-377.83,12138,13320,1,13320,1,2.4086e-05,3.6159e-09,0,2.4086e-05,3.7447e-06,6.5861e+06,1172.7,0,8.1143e+06,171,13319,12138,1,12138,1,2.0657e-06,-2.422e-09,0,1.14e-05,-3.815e-07,6.5769e+05,-722.71,0,3.836e+06,-87.535,12137,10979,1,10979,1,-1.995e-05,-8.96e-09,0,3.7587e-07,-4.499e-06,-8.1143e+06,-2924.1,0,1.5833e+05,-5846.7,10978,11571,1,11571,1,-9.3344e-06,-4.2487e-09,0,5.7001e-06,-2.5098e-06,-3.7963e+06,-1201.3,0,2.0087e+06,-340.5,11570,12705,1,12705,1,1.3465e-05,-6.8308e-10,0,1.7101e-05,1.7555e-06,3.836e+06,-193.89,0,5.5838e+06,-9.6684,12704,656.67,0,656.67,0,1.3161e-05,2.2234e-09,0,6.7351e-06,2.463e-06,4.419e+06,624.12,0,2.1956e+06,823.74,656.67,1
2268,0.09,12139,1,12139,1,2.3159e-06,-1.4066e-09,0,1.2883e-05,-4.2218e-07,97.747,-397.38,0,4.2981e+06,-205.57,12138,13320,1,13320,1,2.6993e-05,3.2501e-09,0,2.6993e-05,4.1965e-06,7.381e+06,906.79,0,9.0931e+06,140.9,13319,12138,1,12138,1,2.3174e-06,-1.1365e-09,0,1.2786e-05,-4.274e-07,7.3798e+05,-324.41,0,4.3022e+06,-26.104,12137,10979,1,10979,1,-2.2357e-05,-1.2662e-08,0,4.2167e-07,-5.0419e-06,-9.0931e+06,-3531.6,0,1.7757e+05,-6213.8,10978,11571,1,11571,1,-1.0469e-05,-2.5484e-09,0,6.3926e-06,-2.8146e-06,-4.2576e+06,-739.08,0,2.2526e+06,-138.26,11570,12705,1,12705,1,1.5102e-05,5.0856e-11,0,1.9178e-05,1.969e-06,4.3022e+06,16.132,0,6.2622e+06,14.369,12704,656.67,0,656.67,0,1.4754e-05,1.8673e-09,0,7.5501e-06,2.761e-06,4.9537e+06,520.3,0,2.4612e+06,606.12,656.67,1
2268,0.1,12139,1,12139,1,2.5775e-06,-4.1146e-10,0,1.4339e-05,-4.6926e-07,73.467,-117.25,0,4.7839e+06,-2.6875,12138,13320,1,13320,1,3.0023e-05,2.1129e-10,0,3.0023e-05,4.6675e-06,8.2095e+06,56.76,0,1.0114e+07,19.055,13319,12138,1,12138,1,2.5775e-06,-2.9121e-10,0,1.4228e-05,-4.6657e-07,8.2138e+05,-80.988,0,4.7878e+06,-2.9663,12137,10979,1,10979,1,-2.4867e-05,-1.4397e-09,0,4.7126e-07,-5.6077e-06,-1.0114e+07,-389.27,0,1.9771e+05,-32.553,10978,11571,1,11571,1,-1.165e-05,-7.4259e-10,0,7.114e-06,-3.1312e-06,-4.7382e+06,-212.8,0,2.5069e+06,-8.0234,11570,12705,1,12705,1,1.6806e-05,-3.8584e-11,0,2.1342e-05,2.1915e-06,4.7878e+06,-10.791,0,6.9689e+06,3.8588,12704,656.67,0,656.67,0,1.6422e-05,4.4285e-10,0,8.4034e-06,3.0731e-06,5.5137e+06,125.29,0,2.7394e+06,8.3926,656.67,1
2268,0.11,12139,1,12139,1,2.834e-06,-2.6755e-10,0,1.5767e-05,-5.1592e-07,20.795,-76.641,0,5.2604e+06,12.393,12138,13320,1,13320,1,3.3013e-05,1.7378e-09,0,3.3013e-05,5.1324e-06,9.0271e+06,456.41,0,1.1121e+07,63.55,13319,12138,1,12138,1,2.8339e-06,-1.6701e-10,0,1.5646e-05,-5.1294e-07,9.0312e+05,-48.376,0,5.2647e+06,9.8986,12137,10979,1,10979,1,-2.7343e-05,-2.2017e-09,0,5.1832e-07,-6.1662e-06,-1.1121e+07,-597.09,0,2.1745e+05,-34.505,10978,11571,1,11571,1,-1.2811e-05,-8.2551e-10,0,7.8228e-06,-3.4431e-06,-5.2103e+06,-236.97,0,2.7566e+06,-1.5543,11570,12705,1,12705,1,1.848e-05,1.925e-10,0,2.3468e-05,2.41e-06,5.2647e+06,58.445,0,7.6631e+06,25.995,12704,656.67,0,656.67,0,1.8057e-05,8.0745e-10,0,9.2404e-06,3.3792e-06,6.0629e+06,228.68,0,3.0123e+06,17.205,656.67,1
2268,0.12,12139,1,12139,1,3.0933e-06,7.5792e-12,0,1.721e-05,-5.6315e-07,-19.962,2.0037,0,5.7418e+06,-0.37187,12138,13320,1,13320,1,3.6028e-05,6.5771e-10,0,3.6028e-05,5.6012e-06,9.8516e+06,178.01,0,1.2137e+07,35.611,13319,12138,1,12138,1,3.0932e-06,2.7825e-11,0,1.7076e-05,-5.5989e-07,9.8573e+05,7.8083,0,5.746e+06,-1.1505,12137,10979,1,10979,1,-2.9841e-05,-1.0478e-09,0,5.6587e-07,-6.7294e-06,-1.2137e+07,-287.77,0,2.3739e+05,-20.12,10978,11571,1,11571,1,-1.3983e-05,-2.1386e-10,0,8.538e-06,-3.7578e-06,-5.6867e+06,-59.567,0,3.0087e+06,-7.3765,11570,12705,1,12705,1,2.0169e-05,2.8518e-10,0,2.5614e-05,2.6303e-06,5.746e+06,81.179,0,8.3638e+06,4.7964,12704,656.67,0,656.67,0,1.971e-05,3.7358e-10,0,1.0086e-05,3.6884e-06,6.6177e+06,106.9,0,3.288e+06,10.43,656.67,1
2268,0.13,12139,1,12139,1,3.3493e-06,5.3681e-11,0,1.8634e-05,-6.0975e-07,41.285,14.473,0,6.2168e+06,7.9376,12138,13320,1,13320,1,3.9012e-05,2.3972e-09,0,3.9012e-05,6.0651e-06,1.0668e+07,650.44,0,1.3142e+07,68.933,13319,12138,1,12138,1,3.3493e-06,-2.5885e-12,0,1.849e-05,-6.0628e-07,1.0673e+06,-0.73697,0,6.2216e+06,6.4054,12137,10979,1,10979,1,-3.2312e-05,-1.8324e-09,0,6.1253e-07,-7.2867e-06,-1.3142e+07,-497.31,0,2.5698e+05,-69.973,10978,11571,1,11571,1,-1.514e-05,-5.1994e-10,0,9.2446e-06,-4.069e-06,-6.1573e+06,-148.18,0,3.2577e+06,-6.6426,11570,12705,1,12705,1,2.1839e-05,5.1779e-10,0,2.7734e-05,2.848e-06,6.2216e+06,147.87,0,9.056e+06,23.98,12704,656.67,0,656.67,0,2.134e-05,8.6705e-10,0,1.092e-05,3.9935e-06,7.1651e+06,245.18,0,3.5599e+06,23.198,656.67,1
2268,0.14,12139,1,12139,1,3.6094e-06,-4.6721e-10,0,2.008e-05,-6.5709e-07,46.181,-133.41,0,6.6994e+06,5.1799,12138,13320,1,13320,1,4.2041e-05,1.9615e-10,0,4.2041e-05,6.5361e-06,1.1496e+07,67.172,0,1.4163e+07,213.29,13319,12138,1,12138,1,3.6093e-06,-4.029e-10,0,1.9925e-05,-6.5332e-07,1.1502e+06,-116.35,0,6.7047e+06,2.1298,12137,10979,1,10979,1,-3.4822e-05,-1.3276e-09,0,6.5998e-07,-7.8526e-06,-1.4163e+07,-359.51,0,2.7687e+05,-16.597,10978,11571,1,11571,1,-1.6315e-05,-7.5155e-10,0,9.9624e-06,-4.3847e-06,-6.6353e+06,-221.22,0,3.5106e+06,-4.172,11570,12705,1,12705,1,2.3534e-05,-1.439e-10,0,2.9887e-05,3.069e-06,6.7047e+06,-41.378,0,9.7592e+06,9.0978,12704,656.67,0,656.67,0,2.2997e-05,3.7519e-10,0,1.1768e-05,4.3035e-06,7.7214e+06,105.74,0,3.8363e+06,18.353,656.67,1
2268,0.15,12139,1,12139,1,3.8698e-06,3.1343e-10,0,2.153e-05,-7.0481e-07,-7.7475,92.902,0,7.183e+06,-106.49,12138,13320,1,13320,1,4.5074e-05,4.588e-09,0,4.5074e-05,7.0076e-06,1.2325e+07,1449.4,0,1.5185e+07,504.3,13319,12138,1,12138,1,3.8694e-06,1.2197e-10,0,2.136e-05,-7.0053e-07,1.2331e+06,36.489,0,7.1877e+06,-25.666,12137,10979,1,10979,1,-3.7334e-05,-4.1934e-09,0,7.0733e-07,-8.4238e-06,-1.5185e+07,-1131.8,0,2.9673e+05,-2413.7,10978,11571,1,11571,1,-1.7491e-05,-7.2946e-10,0,1.068e-05,-4.7008e-06,-7.1134e+06,-216.81,0,3.7635e+06,-107.15,11570,12705,1,12705,1,2.523e-05,1.479e-09,0,3.2041e-05,3.2903e-06,7.1877e+06,415.75,0,1.0462e+07,63.311,12704,656.67,0,656.67,0,2.4657e-05,1.7475e-09,0,1.2618e-05,4.6146e-06,8.2787e+06,499.12,0,4.1133e+06,391.75,656.67,1
2268,0.16,12139,1,12139,1,4.1231e-06,-3.9365e-10,0,2.294e-05,-7.5095e-07,-55.278,-111.38,0,7.6535e+06,-112.08,12138,13320,1,13320,1,4.8026e-05,1.2556e-09,0,4.8026e-05,7.4664e-06,1.3132e+07,349.51,0,1.6179e+07,196.56,13319,12138,1,12138,1,4.1228e-06,-2.4825e-10,0,2.2763e-05,-7.4687e-07,1.3138e+06,-72.013,0,7.6594e+06,-39.925,12137,10979,1,10979,1,-3.9778e-05,-3.0989e-09,0,7.543e-07,-8.9731e-06,-1.6179e+07,-862.38,0,3.1645e+05,-1343.2,10978,11571,1,11571,1,-1.8639e-05,-6.224e-10,0,1.1381e-05,-5.0097e-06,-7.5804e+06,-176.96,0,4.0106e+06,-163.69,11570,12705,1,12705,1,2.6886e-05,-7.5263e-11,0,3.4144e-05,3.5062e-06,7.6594e+06,-22.969,0,1.1149e+07,-1.6558,12704,656.67,0,656.67,0,2.6272e-05,5.7527e-10,0,1.3444e-05,4.9166e-06,8.821e+06,154.88,0,4.3827e+06,183.1,656.67,1
2268,0.17,12139,1,12139,1,4.3803e-06,-5.957e-10,0,2.4381e-05,-7.9835e-07,-747.95,-142.85,0,8.1344e+06,-331.54,12138,13320,1,13320,1,5.1041e-05,2.7135e-09,0,5.1041e-05,7.9352e-06,1.3957e+07,884.51,0,1.7195e+07,396.32,13319,12138,1,12138,1,4.38e-06,-6.2187e-10,0,2.4193e-05,-7.9382e-07,1.3957e+06,-172.09,0,8.1394e+06,-256.84,12137,10979,1,10979,1,-4.2276e-05,-3.5304e-09,0,8.0063e-07,-9.5395e-06,-1.7195e+07,-1014.6,0,3.3598e+05,-2309.7,10978,11571,1,11571,1,-1.9811e-05,-1.3049e-09,0,1.2094e-05,-5.3242e-06,-8.057e+06,-327.36,0,4.2625e+06,-502.01,11570,12705,1,12705,1,2.8571e-05,-2.7128e-11,0,3.6284e-05,3.7263e-06,8.1394e+06,-8.2391,0,1.1848e+07,-80.962,12704,656.67,0,656.67,0,2.7923e-05,1.0079e-09,0,1.4288e-05,5.2259e-06,9.3753e+06,287.44,0,4.6581e+06,372.4,656.67,1
2268,0.18,12139,1,12139,1,4.6407e-06,-1.0567e-10,0,2.5821e-05,-8.4605e-07,-174.1,-35.591,0,8.6145e+06,-433.79,12138,13320,1,13320,1,5.4053e-05,3.1375e-09,0,5.4053e-05,8.4036e-06,1.478e+07,722.63,0,1.821e+07,515.37,13319,12138,1,12138,1,4.641e-06,3.8492e-11,0,2.5618e-05,-8.4161e-07,1.4789e+06,11.739,0,8.6205e+06,-358.69,12137,10979,1,10979,1,-4.4771e-05,-2.7143e-09,0,8.4713e-07,-1.0102e-05,-1.821e+07,-904.42,0,3.5552e+05,-2307.8,10978,11571,1,11571,1,-2.0978e-05,-3.9952e-10,0,1.281e-05,-5.6394e-06,-8.5316e+06,-108.85,0,4.5136e+06,-672.8,11570,12705,1,12705,1,3.026e-05,2.8713e-10,0,3.843e-05,3.9458e-06,8.6205e+06,80.865,0,1.2548e+07,-98.605,12704,656.67,0,656.67,0,2.9571e-05,6.8727e-10,0,1.5132e-05,5.5345e-06,9.9286e+06,213.48,0,4.933e+06,395.99,656.67,1
2268,0.19,12139,1,12139,1,4.8988e-06,-8.0484e-11,0,2.7259e-05,-8.9265e-07,-306.71,-26.71,0,9.0946e+06,-292.24,12138,13320,1,13320,1,5.7066e-05,1.915e-09,0,5.7066e-05,8.8719e-06,1.5604e+07,655.17,0,1.9225e+07,421.78,13319,12138,1,12138,1,4.8987e-06,1.2526e-11,0,2.7047e-05,-8.8775e-07,1.561e+06,3.6257,0,9.1008e+06,-223.08,12137,10979,1,10979,1,-4.7266e-05,-3.5955e-09,0,8.9525e-07,-1.0662e-05,-1.9225e+07,-1174.4,0,3.7568e+05,-1706.7,10978,11571,1,11571,1,-2.2147e-05,-4.7138e-10,0,1.3523e-05,-5.9532e-06,-9.0073e+06,-128.16,0,4.7654e+06,-491,11570,12705,1,12705,1,3.1945e-05,3.9869e-10,0,4.0569e-05,4.166e-06,9.1008e+06,107.01,0,1.3247e+07,-91.418,12704,656.67,0,656.67,0,3.1219e-05,8.4352e-10,0,1.5975e-05,5.8425e-06,1.0482e+07,268.62,0,5.2079e+06,276.24,656.67,1
2268,0.2,12139,1,12139,1,5.1437e-06,-6.2589e-10,0,2.867e-05,-9.378e-07,-3334.3,-151.42,0,9.5656e+06,-516.56,12138,13320,1,13320,1,6.0023e-05,3.8702e-09,0,6.0023e-05,9.3327e-06,1.6413e+07,1078.5,0,2.0223e+07,374.68,13319,12138,1,12138,1,5.1443e-06,-2.246e-10,0,2.8452e-05,-9.3203e-07,1.6393e+06,-71.757,0,9.5701e+06,-436.55,12137,10979,1,10979,1,-4.9722e-05,-6.0523e-09,0,9.4697e-07,-1.1216e-05,-2.0223e+07,-1625.7,0,3.9716e+05,-3148.8,10978,11571,1,11571,1,-2.3304e-05,-1.3666e-09,0,1.4222e-05,-6.2607e-06,-9.4775e+06,-331.99,0,5.0133e+06,-752.73,11570,12705,1,12705,1,3.3593e-05,2.8341e-10,0,4.2668e-05,4.3831e-06,9.5701e+06,93.415,0,1.3933e+07,-188.34,12704,656.67,0,656.67,0,3.2835e-05,1.8457e-09,0,1.6801e-05,6.1453e-06,1.1025e+07,480.75,0,5.4779e+06,420.73,656.67,1
2268,0.21,12139,1,12139,1,5.403e-06,-3.0728e-10,0,3.0103e-05,-9.846e-07,-2747.8,-76.201,0,1.0044e+07,-362.3,12138,13320,1,13320,1,6.3025e-05,4.173e-09,0,6.3025e-05,9.799e-06,1.7234e+07,1120.9,0,2.1233e+07,320.61,13319,12138,1,12138,1,5.4034e-06,-1.7446e-10,0,2.9875e-05,-9.7898e-07,1.7219e+06,-52.764,0,1.0049e+07,-315.05,12137,10979,1,10979,1,-5.2205e-05,-4.8567e-09,0,9.9277e-07,-1.1773e-05,-2.1233e+07,-1304.7,0,4.1639e+05,-1230.6,10978,11571,1,11571,1,-2.4467e-05,-7.1682e-10,0,1.4933e-05,-6.5735e-06,-9.9505e+06,-213.41,0,5.264e+06,-576.25,11570,12705,1,12705,1,3.5274e-05,5.3669e-10,0,4.4801e-05,4.602e-06,1.0049e+07,162.5,0,1.4629e+07,-119.71,12704,656.67,0,656.67,0,3.4476e-05,1.54e-09,0,1.7641e-05,6.4522e-06,1.1576e+07,400.03,0,5.7517e+06,274.53,656.67,1
2268,0.22,12139,1,12139,1,5.6734e-06,5.2925e-11,0,3.1566e-05,-1.0338e-06,-108.14,12.564,0,1.0531e+07,-333.2,12138,13320,1,13320,1,6.6081e-05,2.785e-09,0,6.6081e-05,1.0273e-05,1.8069e+07,908.92,0,2.2261e+07,476.4,13319,12138,1,12138,1,5.6734e-06,5.9686e-11,0,3.1319e-05,-1.0282e-06,1.8079e+06,16.648,0,1.0539e+07,-294.77,12137,10979,1,10979,1,-5.4732e-05,-3.5048e-09,0,1.0363e-06,-1.2346e-05,-2.2261e+07,-1144.1,0,4.3484e+05,-1277.8,10978,11571,1,11571,1,-2.5646e-05,-4.0062e-10,0,1.566e-05,-6.8936e-06,-1.043e+07,-106.38,0,5.5181e+06,-520.97,11570,12705,1,12705,1,3.6993e-05,5.7826e-10,0,4.698e-05,4.8239e-06,1.0539e+07,158.77,0,1.534e+07,-93.742,12704,656.67,0,656.67,0,3.615e-05,8.5979e-10,0,1.8499e-05,6.7654e-06,1.2138e+07,272.06,0,6.0306e+06,293.14,656.67,1
2268,0.23,12139,1,12139,1,5.9214e-06,-4.704e-10,0,3.2972e-05,-1.0791e-06,-1787.8,-119.38,0,1.1001e+07,-408.23,12138,13320,1,13320,1,6.9027e-05,3.7478e-09,0,6.9027e-05,1.0732e-05,1.8875e+07,1006.7,0,2.3255e+07,118.65,13319,12138,1,12138,1,5.9209e-06,-2.7835e-10,0,3.2719e-05,-1.0727e-06,1.8868e+06,-86.046,0,1.1007e+07,-332.16,12137,10979,1,10979,1,-5.7177e-05,-5.8915e-09,0,1.0867e-06,-1.2896e-05,-2.3255e+07,-1583,0,4.5586e+05,-1936.1,10978,11571,1,11571,1,-2.6795e-05,-1.0276e-09,0,1.6356e-05,-7.2008e-06,-1.0897e+07,-258.38,0,5.7652e+06,-679.74,11570,12705,1,12705,1,3.8637e-05,3.0733e-10,0,4.9071e-05,5.0399e-06,1.1007e+07,93.574,0,1.6023e+07,-126,12704,656.67,0,656.67,0,3.7761e-05,1.5933e-09,0,1.9322e-05,7.0671e-06,1.2679e+07,412.08,0,6.2995e+06,333.08,656.67,1
2268,0.24,12139,1,12139,1,6.1885e-06,-1.2725e-10,0,3.4434e-05,-1.1276e-06,-259.9,-38.108,0,1.1488e+07,-333.58,12138,13320,1,13320,1,7.2085e-05,2.3892e-09,0,7.2085e-05,1.1207e-05,1.9711e+07,780.89,0,2.4284e+07,298.96,13319,12138,1,12138,1,6.1882e-06,-1.1598e-11,0,3.4165e-05,-1.1214e-06,1.972e+06,-3.6853,0,1.1496e+07,-268.26,12137,10979,1,10979,1,-5.9707e-05,-3.9735e-09,0,1.1319e-06,-1.3469e-05,-2.4284e+07,-1297,0,4.7488e+05,-1559.4,10978,11571,1,11571,1,-2.7976e-05,-7.6169e-10,0,1.7082e-05,-7.5199e-06,-1.1378e+07,-203.03,0,6.0195e+06,-540.25,11570,12705,1,12705,1,4.0354e-05,5.1897e-10,0,5.1248e-05,5.2623e-06,1.1496e+07,143.9,0,1.6734e+07,-94.37,12704,656.67,0,656.67,0,3.9435e-05,1.048e-09,0,2.018e-05,7.3802e-06,1.3241e+07,320.55,0,6.5786e+06,288.82,656.67,1
2268,0.25,12139,1,12139,1,6.4375e-06,-3.205e-10,0,3.584e-05,-1.1732e-06,-1573.2,-80.097,0,1.1957e+07,-449.46,12138,13320,1,13320,1,7.503e-05,5.5253e-09,0,7.503e-05,1.1665e-05,2.0516e+07,1483.9,0,2.5278e+07,161.67,13319,12138,1,12138,1,6.4374e-06,-1.5359e-10,0,3.5564e-05,-1.1668e-06,2.0514e+06,-50.071,0,1.1965e+07,-376.89,12137,10979,1,10979,1,-6.2149e-05,-5.9034e-09,0,1.181e-06,-1.4019e-05,-2.5278e+07,-1585.8,0,4.9547e+05,-2194,10978,11571,1,11571,1,-2.9124e-05,-9.2973e-10,0,1.7779e-05,-7.8274e-06,-1.1845e+07,-278.12,0,6.2665e+06,-645.61,11570,12705,1,12705,1,4.2e-05,4.7249e-10,0,5.3341e-05,5.4782e-06,1.1965e+07,148.74,0,1.7418e+07,-134.65,12704,656.67,0,656.67,0,4.1046e-05,1.8347e-09,0,2.1003e-05,7.682e-06,1.3782e+07,477.05,0,6.8474e+06,398.24,656.67,1
2268,0.26,12139,1,12139,1,6.6949e-06,-4.9538e-10,0,3.7272e-05,-1.2202e-06,-1635.4,-129.83,0,1.2435e+07,-519.12,12138,13320,1,13320,1,7.8032e-05,3.8966e-09,0,7.8032e-05,1.2131e-05,2.1337e+07,970.51,0,2.6288e+07,242.48,13319,12138,1,12138,1,6.6945e-06,-1.9982e-10,0,3.6987e-05,-1.2132e-06,2.1333e+06,-66.638,0,1.2443e+07,-364.4,12137,10979,1,10979,1,-6.4632e-05,-7.5179e-09,0,1.2274e-06,-1.4584e-05,-2.6288e+07,-2019.8,0,5.1498e+05,-3521.7,10978,11571,1,11571,1,-3.0288e-05,-9.8554e-10,0,1.8489e-05,-8.1393e-06,-1.2318e+07,-252.81,0,6.517e+06,-798.2,11570,12705,1,12705,1,4.3678e-05,3.3408e-10,0,5.5472e-05,5.6971e-06,1.2443e+07,105.85,0,1.8113e+07,-140.98,12704,656.67,0,656.67,0,4.2686e-05,1.7603e-09,0,2.1843e-05,7.9891e-06,1.4332e+07,455.65,0,7.1211e+06,485.34,656.67,1
2268,0.27,12139,1,12139,1,6.9537e-06,-9.2114e-10,0,3.871e-05,-1.267e-06,-1463.1,-257.18,0,1.2915e+07,-395.63,12138,13320,1,13320,1,8.1043e-05,3.5971e-09,0,8.1043e-05,1.26e-05,2.2161e+07,956.43,0,2.7303e+07,386.92,13319,12138,1,12138,1,6.953e-06,-7.5092e-10,0,3.8412e-05,-1.2603e-06,2.2157e+06,-233.52,0,1.2923e+07,-326.8,12137,10979,1,10979,1,-6.713e-05,-5.7279e-09,0,1.2745e-06,-1.5138e-05,-2.7303e+07,-1538.8,0,5.3462e+05,-1490.8,10978,11571,1,11571,1,-3.1455e-05,-1.5234e-09,0,1.9203e-05,-8.4538e-06,-1.2793e+07,-447,0,6.7679e+06,-646.3,11570,12705,1,12705,1,4.5363e-05,2.2289e-11,0,5.7613e-05,5.9167e-06,1.2923e+07,5.5722,0,1.8813e+07,-102.7,12704,656.67,0,656.67,0,4.4333e-05,1.6391e-09,0,2.2686e-05,8.2968e-06,1.4885e+07,428.16,0,7.3958e+06,331.75,656.67,1
2268,0.28,12139,1,12139,1,7.2177e-06,-3.2926e-10,0,4.0158e-05,-1.3149e-06,-187.52,-90.769,0,1.3398e+07,-321.05,12138,13320,1,13320,1,8.4066e-05,1.3926e-09,0,8.4066e-05,1.307e-05,2.2987e+07,458.67,0,2.832e+07,349.93,13319,12138,1,12138,1,7.2171e-06,-2.3802e-10,0,3.9846e-05,-1.3072e-06,2.2999e+06,-65.944,0,1.3408e+07,-184.72,12137,10979,1,10979,1,-6.963e-05,-3.6151e-09,0,1.3205e-06,-1.5709e-05,-2.832e+07,-1005.7,0,5.5399e+05,-2413.7,10978,11571,1,11571,1,-3.2628e-05,-5.8203e-10,0,1.9922e-05,-8.7703e-06,-1.327e+07,-155.44,0,7.0207e+06,-479.43,11570,12705,1,12705,1,4.7063e-05,-1.5339e-11,0,5.9768e-05,6.1375e-06,1.3408e+07,-4.1629,0,1.9516e+07,-69.705,12704,656.67,0,656.67,0,4.5991e-05,5.7257e-10,0,2.3535e-05,8.6073e-06,1.5442e+07,166.23,0,7.6723e+06,378.51,656.67,1
2268,0.29,12139,1,12139,1,7.4702e-06,-2.1502e-11,0,4.1579e-05,-1.3612e-06,-1203.6,-1.8838,0,1.3872e+07,-462.94,12138,13320,1,13320,1,8.704e-05,3.735e-09,0,8.704e-05,1.3533e-05,2.38e+07,1003.8,0,2.9324e+07,286.42,13319,12138,1,12138,1,7.4702e-06,2.5271e-11,0,4.1257e-05,-1.354e-06,2.3805e+06,7.638,0,1.3881e+07,-382.41,12137,10979,1,10979,1,-7.2097e-05,-6.0742e-09,0,1.3692e-06,-1.6263e-05,-2.9324e+07,-1631.7,0,5.7433e+05,-2184.5,10978,11571,1,11571,1,-3.3786e-05,-3.9714e-10,0,2.0627e-05,-9.0802e-06,-1.3741e+07,-111.72,0,7.2695e+06,-708.45,11570,12705,1,12705,1,4.8726e-05,5.3283e-10,0,6.1883e-05,6.355e-06,1.3881e+07,157.99,0,2.0207e+07,-148.79,12704,656.67,0,656.67,0,4.7619e-05,1.1638e-09,0,2.4367e-05,8.9119e-06,1.5988e+07,313.43,0,7.9439e+06,379.54,656.67,1
2268,0.3,12139,1,12139,1,7.7305e-06,-1.1258e-09,0,4.3015e-05,-1.4082e-06,-369.47,-314.42,0,1.4351e+07,-304.08,12138,13320,1,13320,1,9.0058e-05,2.645e-09,0,9.0058e-05,1.4001e-05,2.4626e+07,658.88,0,3.0339e+07,233.13,13319,12138,1,12138,1,7.7303e-06,-7.8967e-10,0,4.2683e-05,-1.4001e-06,2.4634e+06,-237.65,0,1.4362e+07,-181.93,12137,10979,1,10979,1,-7.4593e-05,-6.9809e-09,0,1.4144e-06,-1.6823e-05,-3.0339e+07,-1875.8,0,5.9345e+05,-1402.5,10978,11571,1,11571,1,-3.4951e-05,-2.0637e-09,0,2.1339e-05,-9.3942e-06,-1.4214e+07,-595.63,0,7.5206e+06,-491.67,11570,12705,1,12705,1,5.0412e-05,3.0787e-11,0,6.4022e-05,6.5744e-06,1.4362e+07,8.9238,0,2.0905e+07,-52.696,12704,656.67,0,656.67,0,4.9262e-05,1.6999e-09,0,2.5209e-05,9.2193e-06,1.654e+07,459.14,0,8.2179e+06,325.21,656.67,1
2268,0.31,12139,1,12139,1,7.9869e-06,-6.3605e-10,0,4.4444e-05,-1.4548e-06,-570.28,-168.95,0,1.4828e+07,-285.2,12138,13320,1,13320,1,9.3045e-05,4.3135e-09,0,9.3045e-05,1.4465e-05,2.5442e+07,1187.8,0,3.1345e+07,112.21,13319,12138,1,12138,1,7.9867e-06,-3.9193e-10,0,4.4101e-05,-1.4466e-06,2.5451e+06,-101.96,0,1.4839e+07,-168.13,12137,10979,1,10979,1,-7.7067e-05,-6.4872e-09,0,1.4622e-06,-1.7386e-05,-3.1345e+07,-1742.9,0,6.1346e+05,-2587.7,10978,11571,1,11571,1,-3.6112e-05,-1.3198e-09,0,2.2048e-05,-9.7062e-06,-1.4687e+07,-398.28,0,7.7705e+06,-452.51,11570,12705,1,12705,1,5.2087e-05,1.6167e-10,0,6.6149e-05,6.793e-06,1.4839e+07,48.713,0,2.16e+07,-56.12,12704,656.67,0,656.67,0,5.09e-05,1.601e-09,0,2.6046e-05,9.5257e-06,1.709e+07,432.35,0,8.4911e+06,317.46,656.67,1
2268,0.32,12139,1,12139,1,8.2503e-06,-3.6253e-10,0,4.5901e-05,-1.5028e-06,-54.096,-95.844,0,1.5314e+07,-301.66,12138,13320,1,13320,1,9.6089e-05,1.1902e-09,0,9.6089e-05,1.4939e-05,2.6275e+07,390.12,0,3.237e+07,288.72,13319,12138,1,12138,1,8.2497e-06,-2.3082e-10,0,4.5544e-05,-1.495e-06,2.6289e+06,-60.889,0,1.5325e+07,-184.18,12137,10979,1,10979,1,-7.9587e-05,-3.6851e-09,0,1.5088e-06,-1.7952e-05,-3.237e+07,-990.45,0,6.3304e+05,-1487.7,10978,11571,1,11571,1,-3.7293e-05,-6.4814e-10,0,2.2772e-05,-1.0024e-05,-1.5167e+07,-183.11,0,8.0246e+06,-479.76,11570,12705,1,12705,1,5.3794e-05,4.4316e-11,0,6.8315e-05,7.0152e-06,1.5325e+07,13.889,0,2.2307e+07,-63.146,12704,656.67,0,656.67,0,5.2568e-05,6.5218e-10,0,2.6901e-05,9.8379e-06,1.765e+07,182.95,0,8.7694e+06,315.18,656.67,1
2268,0.33,12139,1,12139,1,8.5029e-06,2.9628e-10,0,4.7319e-05,-1.5493e-06,-836.42,81.914,0,1.5787e+07,-492.11,12138,13320,1,13320,1,9.9055e-05,5.0356e-09,0,9.9055e-05,1.54e-05,2.7086e+07,1353.2,0,3.3371e+07,463.82,13319,12138,1,12138,1,8.5024e-06,2.2521e-10,0,4.6951e-05,-1.5406e-06,2.7094e+06,63.928,0,1.5798e+07,-269.14,12137,10979,1,10979,1,-8.2049e-05,-5.4e-09,0,1.5575e-06,-1.8511e-05,-3.3371e+07,-1451,0,6.5346e+05,-3208.2,10978,11571,1,11571,1,-3.8448e-05,-1.9164e-10,0,2.3475e-05,-1.0335e-05,-1.5636e+07,-56.12,0,8.2725e+06,-784.95,11570,12705,1,12705,1,5.5453e-05,8.0876e-10,0,7.0426e-05,7.2322e-06,1.5798e+07,223.43,0,2.2996e+07,-66.072,12704,656.67,0,656.67,0,5.4192e-05,1.3717e-09,0,2.7731e-05,1.0142e-05,1.8195e+07,377.19,0,9.0403e+06,596.9,656.67,1
2268,0.34,12139,1,12139,1,8.7673e-06,5.3223e-11,0,4.8775e-05,-1.5967e-06,159.47,10.121,0,1.6273e+07,-212.52,12138,13320,1,13320,1,0.0001021,2.8649e-09,0,0.0001021,1.5874e-05,2.792e+07,726.2,0,3.4397e+07,216.25,13319,12138,1,12138,1,8.7672e-06,2.6009e-11,0,4.8395e-05,-1.5885e-06,2.7938e+06,7.3203,0,1.6285e+07,-150.65,12137,10979,1,10979,1,-8.457e-05,-3.0499e-09,0,1.6023e-06,-1.9074e-05,-3.4397e+07,-768.15,0,6.7233e+05,-1340.1,10978,11571,1,11571,1,-3.9627e-05,-5.4464e-10,0,2.4197e-05,-1.0651e-05,-1.6116e+07,-158.32,0,8.5268e+06,-319.07,11570,12705,1,12705,1,5.7162e-05,6.754e-10,0,7.2592e-05,7.4541e-06,1.6285e+07,193.17,0,2.3703e+07,-41.778,12704,656.67,0,656.67,0,5.5859e-05,1.0948e-09,0,2.8585e-05,1.0454e-05,1.8755e+07,307.66,0,9.3184e+06,222.2,656.67,1
2268,0.35,12139,1,12139,1,9.0218e-06,-4.1426e-10,0,5.0194e-05,-1.6431e-06,-82.327,-114.81,0,1.6746e+07,-217.21,12138,13320,1,13320,1,0.00010508,8.2521e-10,0,0.00010508,1.6336e-05,2.8732e+07,230.57,0,3.5398e+07,136.78,13319,12138,1,12138,1,9.0216e-06,-2.8949e-10,0,4.9805e-05,-1.6339e-06,2.8749e+06,-87.375,0,1.6759e+07,-150.24,12137,10979,1,10979,1,-8.7031e-05,-2.9781e-09,0,1.6505e-06,-1.9628e-05,-3.5398e+07,-828.69,0,6.924e+05,-1043.7,10978,11571,1,11571,1,-4.0783e-05,-4.3884e-10,0,2.4902e-05,-1.0961e-05,-1.6586e+07,-133.91,0,8.7753e+06,-356.15,11570,12705,1,12705,1,5.8826e-05,-1.5338e-10,0,7.4706e-05,7.6714e-06,1.6759e+07,-44.178,0,2.4394e+07,-39.659,12704,656.67,0,656.67,0,5.7485e-05,5.14e-10,0,2.9417e-05,1.0758e-05,1.9301e+07,135.38,0,9.5896e+06,209.69,656.67,1
2268,0.36,12139,1,12139,1,9.2782e-06,3.3799e-10,0,5.1624e-05,-1.69e-06,-271.46,100.9,0,1.7223e+07,-306.18,12138,13320,1,13320,1,0.00010807,6.2792e-09,0,0.00010807,1.6801e-05,2.9551e+07,1686.8,0,3.6407e+07,155.45,13319,12138,1,12138,1,9.278e-06,3.0298e-10,0,5.1223e-05,-1.6811e-06,2.9566e+06,95.29,0,1.7236e+07,-263.32,12137,10979,1,10979,1,-8.9511e-05,-4.8302e-09,0,1.6978e-06,-2.0188e-05,-3.6407e+07,-1327,0,7.1228e+05,-1216.8,10978,11571,1,11571,1,-4.1944e-05,-5.9373e-11,0,2.5611e-05,-1.1273e-05,-1.7059e+07,-18.61,0,9.0252e+06,-527.37,11570,12705,1,12705,1,6.0501e-05,6.9327e-10,0,7.6833e-05,7.89e-06,1.7236e+07,213.26,0,2.5089e+07,-65.383,12704,656.67,0,656.67,0,5.9122e-05,1.3081e-09,0,3.0254e-05,1.1064e-05,1.9851e+07,348.24,0,9.8627e+06,265.94,656.67,1
2268,0.37,12139,1,12139,1,9.5349e-06,-2.3108e-10,0,5.305e-05,-1.7365e-06,-140.87,-65.656,0,1.7699e+07,-211.87,12138,13320,1,13320,1,0.00011106,5.7258e-09,0,0.00011106,1.7266e-05,3.0368e+07,1543.5,0,3.7414e+07,136.08,13319,12138,1,12138,1,9.5344e-06,-9.7296e-11,0,5.2639e-05,-1.727e-06,3.0383e+06,-27.456,0,1.7712e+07,-194.61,12137,10979,1,10979,1,-9.1987e-05,-6.8981e-09,0,1.7446e-06,-2.0745e-05,-3.7414e+07,-1853.4,0,7.3191e+05,-887.75,10978,11571,1,11571,1,-4.3104e-05,-1.0174e-09,0,2.6319e-05,-1.1585e-05,-1.753e+07,-304.63,0,9.2747e+06,-350.51,11570,12705,1,12705,1,6.2174e-05,3.79e-10,0,7.8958e-05,8.108e-06,1.7712e+07,111.73,0,2.5782e+07,-32.104,12704,656.67,0,656.67,0,6.0755e-05,1.6459e-09,0,3.109e-05,1.137e-05,2.0399e+07,446.27,0,1.0135e+07,188.34,656.67,1
2268,0.38,12139,1,12139,1,9.7977e-06,3.8784e-10,0,5.4509e-05,-1.7839e-06,96.207,106.37,0,1.8186e+07,-74.737,12138,13320,1,13320,1,0.00011411,2.7823e-09,0,0.00011411,1.774e-05,3.1202e+07,774.68,0,3.8441e+07,320.51,13319,12138,1,12138,1,9.7976e-06,3.127e-10,0,5.4084e-05,-1.7749e-06,3.1221e+06,85.421,0,1.8199e+07,-27.968,12137,10979,1,10979,1,-9.4513e-05,-2.5347e-09,0,1.7912e-06,-2.1315e-05,-3.8441e+07,-827.12,0,7.5157e+05,-964.9,10978,11571,1,11571,1,-4.4286e-05,-2.0613e-10,0,2.7042e-05,-1.1902e-05,-1.8011e+07,-59.976,0,9.5292e+06,-122.59,11570,12705,1,12705,1,6.3882e-05,1.1768e-09,0,8.1126e-05,8.3306e-06,1.8199e+07,338.08,0,2.649e+07,23.624,12704,656.67,0,656.67,0,6.2426e-05,1.096e-09,0,3.1945e-05,1.1682e-05,2.096e+07,317.56,0,1.0414e+07,192.73,656.67,1
2268,0.39,12139,1,12139,1,1.0056e-05,7.3269e-10,0,5.5943e-05,-1.831e-06,144.6,214.01,0,1.8664e+07,-100.33,12138,13320,1,13320,1,0.00011711,4.6386e-09,0,0.00011711,1.8208e-05,3.2024e+07,1195.1,0,3.9454e+07,340.64,13319,12138,1,12138,1,1.0055e-05,5.1813e-10,0,5.5505e-05,-1.821e-06,3.2044e+06,145.18,0,1.8677e+07,-60.775,12137,10979,1,10979,1,-9.7003e-05,-3.6391e-09,0,1.838e-06,-2.1876e-05,-3.9454e+07,-959.53,0,7.712e+05,-621.52,10978,11571,1,11571,1,-4.545e-05,-1.9686e-10,0,2.7753e-05,-1.2215e-05,-1.8484e+07,-53.473,0,9.7796e+06,-180.76,11570,12705,1,12705,1,6.5561e-05,1.7307e-09,0,8.3259e-05,8.5495e-06,1.8677e+07,491.02,0,2.7186e+07,-2.1615,12704,656.67,0,656.67,0,6.4068e-05,1.4763e-09,0,3.2786e-05,1.199e-05,2.1511e+07,417.22,0,1.0688e+07,156.49,656.67,1
2268,0.4,12139,1,12139,1,1.0312e-05,-6.3723e-10,0,5.7371e-05,-1.8777e-06,100.83,-182.11,0,1.9141e+07,-113.41,12138,13320,1,13320,1,0.0001201,3.4545e-10,0,0.0001201,1.8672e-05,3.2841e+07,94.712,0,4.046e+07,194.18,13319,12138,1,12138,1,1.0312e-05,-6.2604e-10,0,5.6925e-05,-1.8675e-06,3.2861e+06,-182.53,0,1.9155e+07,-31.346,12137,10979,1,10979,1,-9.9477e-05,-3.1641e-09,0,1.8854e-06,-2.2441e-05,-4.046e+07,-880.66,0,7.9105e+05,-3443.6,10978,11571,1,11571,1,-4.6612e-05,-9.577e-10,0,2.8463e-05,-1.2528e-05,-1.8957e+07,-270.4,0,1.003e+07,-137.06,11570,12705,1,12705,1,6.7237e-05,-2.4751e-10,0,8.5387e-05,8.7681e-06,1.9155e+07,-72.046,0,2.7881e+07,4.041,12704,656.67,0,656.67,0,6.5704e-05,4.8756e-10,0,3.3623e-05,1.2296e-05,2.2061e+07,139.2,0,1.0961e+07,256.65,656.67,1
2268,0.41,12139,1,12139,1,1.0568e-05,-7.997e-10,0,5.8797e-05,-1.9246e-06,-25.125,-231.15,0,1.9616e+07,-213.7,12138,13320,1,13320,1,0.00012309,1.7286e-09,0,0.00012309,1.9137e-05,3.3659e+07,464.65,0,4.1467e+07,117.5,13319,12138,1,12138,1,1.0568e-05,-7.3498e-10,0,5.834e-05,-1.9144e-06,3.3677e+06,-214.66,0,1.9631e+07,-158.74,12137,10979,1,10979,1,-0.00010195,-4.5294e-09,0,1.9329e-06,-2.2993e-05,-4.1467e+07,-1260.9,0,8.1095e+05,-1343.3,10978,11571,1,11571,1,-4.7772e-05,-1.2959e-09,0,2.917e-05,-1.2839e-05,-1.9428e+07,-394.56,0,1.0279e+07,-352.05,11570,12705,1,12705,1,6.8908e-05,-1.7851e-10,0,8.751e-05,8.9861e-06,1.9631e+07,-50.32,0,2.8575e+07,-30.123,12704,656.67,0,656.67,0,6.7336e-05,8.7032e-10,0,3.4458e-05,1.2601e-05,2.2609e+07,243.9,0,1.1233e+07,219.77,656.67,1
2268,0.42,12139,1,12139,1,1.0824e-05,6.7524e-10,0,6.0224e-05,-1.971e-06,-194.38,195.57,0,2.0092e+07,-152.59,12138,13320,1,13320,1,0.00012608,6.4991e-09,0,0.00012608,1.9602e-05,3.4476e+07,1810.3,0,4.2475e+07,94.911,13319,12138,1,12138,1,1.0824e-05,1.9085e-10,0,5.9758e-05,-1.9606e-06,3.4494e+06,54.795,0,2.0108e+07,-77.867,12137,10979,1,10979,1,-0.00010443,-4.6822e-09,0,1.9804e-06,-2.355e-05,-4.2475e+07,-1303.6,0,8.3091e+05,-1116.4,10978,11571,1,11571,1,-4.8933e-05,-2.475e-10,0,2.9879e-05,-1.3151e-05,-1.9901e+07,-70.817,0,1.0529e+07,-253.28,11570,12705,1,12705,1,7.0582e-05,1.5063e-09,0,8.9637e-05,9.2047e-06,2.0108e+07,436.51,0,2.9269e+07,-7.1537,12704,656.67,0,656.67,0,6.8971e-05,1.5872e-09,0,3.5294e-05,1.2907e-05,2.3157e+07,443.96,0,1.1506e+07,194.26,656.67,1
2268,0.43,12139,1,12139,1,1.1082e-05,-2.4654e-10,0,6.1657e-05,-2.0179e-06,-263.57,-66.556,0,2.0571e+07,-146.03,12138,13320,1,13320,1,0.00012908,4.4985e-09,0,0.00012908,2.0067e-05,3.5295e+07,1252,0,4.3483e+07,133.33,13319,12138,1,12138,1,1.1081e-05,-2.0454e-10,0,6.1179e-05,-2.0074e-06,3.5313e+06,-56.613,0,2.0586e+07,-85.935,12137,10979,1,10979,1,-0.00010691,-6.9149e-09,0,2.0278e-06,-2.4116e-05,-4.3483e+07,-1925,0,8.5075e+05,-2416.4,10978,11571,1,11571,1,-5.0097e-05,-1.1373e-09,0,3.0589e-05,-1.3464e-05,-2.0374e+07,-327.99,0,1.0779e+07,-241.56,11570,12705,1,12705,1,7.2261e-05,5.8163e-10,0,9.1768e-05,9.4236e-06,2.0586e+07,169.01,0,2.9965e+07,0.42878,12704,656.67,0,656.67,0,7.0613e-05,1.6151e-09,0,3.6134e-05,1.3214e-05,2.3709e+07,446.99,0,1.178e+07,210.88,656.67,1
2268,0.44,12139,1,12139,1,1.1339e-05,-1.4356e-10,0,6.3089e-05,-2.0649e-06,-168.69,-37.197,0,2.1048e+07,-197.11,12138,13320,1,13320,1,0.00013207,3.656e-09,0,0.00013207,2.0533e-05,3.6113e+07,1017.6,0,4.4491e+07,186.36,13319,12138,1,12138,1,1.1339e-05,-6.5831e-11,0,6.2599e-05,-2.0537e-06,3.6133e+06,-19.301,0,2.1064e+07,-135.95,12137,10979,1,10979,1,-0.00010939,-5.7992e-09,0,2.0746e-06,-2.4669e-05,-4.4491e+07,-1614.7,0,8.7032e+05,-806.81,10978,11571,1,11571,1,-5.1259e-05,-4.9609e-10,0,3.1299e-05,-1.3777e-05,-2.0847e+07,-149.88,0,1.1029e+07,-353.01,11570,12705,1,12705,1,7.3938e-05,3.5289e-10,0,9.3898e-05,9.6422e-06,2.1064e+07,109.15,0,3.0661e+07,-22.684,12704,656.67,0,656.67,0,7.2252e-05,1.1906e-09,0,3.6973e-05,1.3521e-05,2.4259e+07,319.24,0,1.2053e+07,202.75,656.67,1
2268,0.45,12139,1,12139,1,1.1596e-05,-2.4627e-10,0,6.4526e-05,-2.1121e-06,-803.08,-67.15,0,2.1528e+07,-374.78,12138,13320,1,13320,1,0.00013508,2.2861e-09,0,0.00013508,2.1001e-05,3.6935e+07,635.5,0,4.5505e+07,310.15,13319,12138,1,12138,1,1.1596e-05,-7.9496e-11,0,6.4026e-05,-2.1005e-06,3.6952e+06,-23.094,0,2.1544e+07,-182.79,12137,10979,1,10979,1,-0.00011188,-5.3748e-09,0,2.1226e-06,-2.5251e-05,-4.5505e+07,-1444.6,0,8.904e+05,-7180.2,10978,11571,1,11571,1,-5.2429e-05,-4.3459e-10,0,3.2012e-05,-1.4091e-05,-2.1322e+07,-129.06,0,1.1281e+07,-522.2,11570,12705,1,12705,1,7.5621e-05,1.2936e-10,0,9.6036e-05,9.862e-06,2.1544e+07,42.791,0,3.1359e+07,-46.736,12704,656.67,0,656.67,0,7.3898e-05,9.7994e-10,0,3.7816e-05,1.383e-05,2.4812e+07,258.15,0,1.2328e+07,638.49,656.67,1
2268,0.46,12139,1,12139,1,1.1859e-05,-4.0402e-10,0,6.598e-05,-2.1594e-06,-116.27,-112.81,0,2.2013e+07,-132.88,12138,13320,1,13320,1,0.00013812,1.3071e-09,0,0.00013812,2.1473e-05,3.7768e+07,427.41,0,4.653e+07,154.43,13319,12138,1,12138,1,1.1859e-05,-2.2681e-10,0,6.5466e-05,-2.1481e-06,3.779e+06,-60.68,0,2.2029e+07,-74.904,12137,10979,1,10979,1,-0.0001144,-2.3964e-09,0,2.1694e-06,-2.58e-05,-4.653e+07,-725.44,0,9.1016e+05,-1042.7,10978,11571,1,11571,1,-5.3607e-05,-7.8515e-10,0,3.2733e-05,-1.4408e-05,-2.1802e+07,-219.94,0,1.1535e+07,-217.28,11570,12705,1,12705,1,7.7325e-05,7.9498e-12,0,9.8199e-05,1.0084e-05,2.2029e+07,2.0534,0,3.2065e+07,-7.0252,12704,656.67,0,656.67,0,7.5563e-05,6.2841e-10,0,3.8668e-05,1.4141e-05,2.5371e+07,189.04,0,1.2605e+07,181.03,656.67,1
2268,0.47,12139,1,12139,1,1.2116e-05,-4.5822e-10,0,6.7408e-05,-2.206e-06,-67.246,-128.28,0,2.2489e+07,-97.513,12138,13320,1,13320,1,0.00014111,9.3926e-10,0,0.00014111,2.1938e-05,3.8586e+07,306.09,0,4.7538e+07,70.544,13319,12138,1,12138,1,1.2116e-05,-3.8199e-10,0,6.6884e-05,-2.1945e-06,3.8609e+06,-111.8,0,2.2506e+07,-17.025,12137,10979,1,10979,1,-0.00011688,-3.4082e-09,0,2.2163e-06,-2.6361e-05,-4.7538e+07,-948.91,0,9.2986e+05,-2052.2,10978,11571,1,11571,1,-5.4768e-05,-7.0559e-10,0,3.3442e-05,-1.4719e-05,-2.2274e+07,-211.16,0,1.1785e+07,-91.787,11570,12705,1,12705,1,7.9e-05,-1.1718e-10,0,0.00010033,1.0302e-05,2.2506e+07,-32.657,0,3.276e+07,9.8849,12704,656.67,0,656.67,0,7.7198e-05,4.5445e-10,0,3.9505e-05,1.4447e-05,2.592e+07,124.04,0,1.2878e+07,219.09,656.67,1
2268,0.48,12139,1,12139,1,1.237e-05,-3.0541e-11,0,6.8823e-05,-2.2524e-06,-64.933,-8.2985,0,2.2962e+07,-138.59,12138,13320,1,13320,1,0.00014408,7.0892e-09,0,0.00014408,2.24e-05,3.9397e+07,1904.8,0,4.8537e+07,249.16,13319,12138,1,12138,1,1.237e-05,-1.9337e-10,0,6.8289e-05,-2.2402e-06,3.942e+06,-54.142,0,2.2979e+07,-49.172,12137,10979,1,10979,1,-0.00011934,-5.5134e-09,0,2.2628e-06,-2.6912e-05,-4.8537e+07,-1534.7,0,9.4929e+05,-1111.7,10978,11571,1,11571,1,-5.5919e-05,-1.3772e-09,0,3.4145e-05,-1.5029e-05,-2.2742e+07,-405.34,0,1.2032e+07,-263.69,11570,12705,1,12705,1,8.066e-05,8.5554e-10,0,0.00010243,1.0519e-05,2.2979e+07,243.59,0,3.3448e+07,16.362,12704,656.67,0,656.67,0,7.8819e-05,2.0381e-09,0,4.0334e-05,1.475e-05,2.6464e+07,568.82,0,1.3149e+07,217.31,656.67,1
2268,0.49,12139,1,12139,1,1.2629e-05,-5.4967e-10,0,7.0258e-05,-2.2995e-06,151.42,-157.55,0,2.344e+07,-151.9,12138,13320,1,13320,1,0.00014709,5.7887e-09,0,0.00014709,2.2867e-05,4.022e+07,1555.1,0,4.9551e+07,197.77,13319,12138,1,12138,1,1.2629e-05,-3.8156e-10,0,6.9713e-05,-2.2866e-06,4.0244e+06,-107.03,0,2.3458e+07,-87.046,12137,10979,1,10979,1,-0.00012183,-5.7219e-09,0,2.3094e-06,-2.7474e-05,-4.9551e+07,-1592.4,0,9.6884e+05,-927.32,10978,11571,1,11571,1,-5.7084e-05,-1.9356e-09,0,3.4857e-05,-1.5342e-05,-2.3216e+07,-559.98,0,1.2283e+07,-253.06,11570,12705,1,12705,1,8.2342e-05,5.1955e-10,0,0.00010457,1.0738e-05,2.3458e+07,149.81,0,3.4145e+07,-12.793,12704,656.67,0,656.67,0,8.0462e-05,2.1338e-09,0,4.1175e-05,1.5058e-05,2.7016e+07,595.64,0,1.3423e+07,196.89,656.67,1
2268,0.5,12139,1,12139,1,1.2887e-05,-5.8989e-10,0,7.1697e-05,-2.3461e-06,-36.533,-167.45,0,2.392e+07,-2.0967,12138,13320,1,13320,1,0.0001501,2.5928e-09,0,0.0001501,2.3335e-05,4.1043e+07,721.48,0,5.0564e+07,124.06,13319,12138,1,12138,1,1.2887e-05,-4.5158e-10,0,7.1141e-05,-2.3328e-06,4.1066e+06,-132.49,0,2.3938e+07,6.0671,12137,10979,1,10979,1,-0.00012432,-3.7227e-09,0,2.3575e-06,-2.804e-05,-5.0564e+07,-1036.7,0,9.8901e+05,-1737.4,10978,11571,1,11571,1,-5.8254e-05,-1.4732e-09,0,3.557e-05,-1.5656e-05,-2.3691e+07,-427.13,0,1.2534e+07,-14.768,11570,12705,1,12705,1,8.4027e-05,1.4032e-10,0,0.00010671,1.0958e-05,2.3938e+07,37.204,0,3.4844e+07,28.647,12704,656.67,0,656.67,0,8.211e-05,1.257e-09,0,4.2018e-05,1.5366e-05,2.7569e+07,354.47,0,1.3698e+07,118.39,656.67,1
2268,0.51,12139,1,12139,1,1.3145e-05,-2.4248e-10,0,7.3132e-05,-2.3932e-06,-54.032,-69.105,0,2.4399e+07,-50.178,12138,13320,1,13320,1,0.0001531,3.2115e-09,0,0.0001531,2.3802e-05,4.1863e+07,895.05,0,5.1575e+07,136.99,13319,12138,1,12138,1,1.3144e-05,-2.5758e-10,0,7.2564e-05,-2.38e-06,4.1888e+06,-75.922,0,2.4417e+07,-11.462,12137,10979,1,10979,1,-0.0001268,-3.8955e-09,0,2.4044e-06,-2.8599e-05,-5.1575e+07,-1085.1,0,1.0087e+06,-1329.3,10978,11571,1,11571,1,-5.9419e-05,-1.0213e-09,0,3.6282e-05,-1.5969e-05,-2.4165e+07,-301.37,0,1.2785e+07,-94.505,11570,12705,1,12705,1,8.5708e-05,3.3031e-10,0,0.00010885,1.1177e-05,2.4417e+07,95.918,0,3.5541e+07,25.337,12704,656.67,0,656.67,0,8.3753e-05,1.1923e-09,0,4.2859e-05,1.5673e-05,2.8121e+07,330.78,0,1.3972e+07,141.7,656.67,1
2268,0.52,12139,1,12139,1,1.3402e-05,1.7014e-10,0,7.4563e-05,-2.44e-06,-82.147,49.694,0,2.4877e+07,-36.538,12138,13320,1,13320,1,0.00015609,3.2149e-09,0,0.00015609,2.4267e-05,4.2682e+07,863.58,0,5.2584e+07,97.449,13319,12138,1,12138,1,1.3402e-05,1.927e-11,0,7.3984e-05,-2.4266e-06,4.2708e+06,5.567,0,2.4895e+07,-21.026,12137,10979,1,10979,1,-0.00012929,-3.8394e-09,0,2.4518e-06,-2.9156e-05,-5.2584e+07,-1069.1,0,1.0286e+06,-537.33,10978,11571,1,11571,1,-6.0582e-05,-2.6262e-10,0,3.6992e-05,-1.6282e-05,-2.4638e+07,-73.976,0,1.3036e+07,-69.596,11570,12705,1,12705,1,8.7386e-05,6.7273e-10,0,0.00011098,1.1396e-05,2.4895e+07,198.78,0,3.6237e+07,8.3875,12704,656.67,0,656.67,0,8.5393e-05,9.3968e-10,0,4.3698e-05,1.598e-05,2.8671e+07,255.18,0,1.4245e+07,62.652,656.67,1
2268,0.53,12139,1,12139,1,1.366e-05,-7.8952e-10,0,7.5998e-05,-2.4869e-06,62.881,-225.13,0,2.5355e+07,-12.139,12138,13320,1,13320,1,0.0001591,3.1527e-09,0,0.0001591,2.4735e-05,4.3505e+07,831.31,0,5.3598e+07,91.956,13319,12138,1,12138,1,1.366e-05,-5.5668e-10,0,7.5408e-05,-2.4729e-06,4.3531e+06,-172.16,0,2.5374e+07,-6.9719,12137,10979,1,10979,1,-0.00013178,-4.2402e-09,0,2.4986e-06,-2.9717e-05,-5.3598e+07,-1180.6,0,1.0482e+06,-200.51,10978,11571,1,11571,1,-6.1748e-05,-1.8514e-09,0,3.7704e-05,-1.6595e-05,-2.5113e+07,-537.4,0,1.3286e+07,-43.174,11570,12705,1,12705,1,8.9069e-05,1.1332e-10,0,0.00011311,1.1615e-05,2.5374e+07,31.327,0,3.6935e+07,21.553,12704,656.67,0,656.67,0,8.7036e-05,1.4561e-09,0,4.4539e-05,1.6288e-05,2.9223e+07,410.3,0,1.4519e+07,41.023,656.67,1
2268,0.54,12139,1,12139,1,1.3918e-05,-6.3108e-10,0,7.7436e-05,-2.5344e-06,-132.76,-178.38,0,2.5835e+07,-202.92,12138,13320,1,13320,1,0.00016211,4.6464e-09,0,0.00016211,2.5203e-05,4.4328e+07,1291.4,0,5.4611e+07,242.14,13319,12138,1,12138,1,1.3918e-05,-3.646e-10,0,7.6835e-05,-2.5209e-06,4.4352e+06,-96.552,0,2.5854e+07,-54.89,12137,10979,1,10979,1,-0.00013427,-6.0051e-09,0,2.5463e-06,-3.0286e-05,-5.4611e+07,-1673.1,0,1.0682e+06,-3203.4,10978,11571,1,11571,1,-6.2917e-05,-1.5738e-09,0,3.8417e-05,-1.691e-05,-2.5588e+07,-456.5,0,1.3538e+07,-355.04,11570,12705,1,12705,1,9.0753e-05,2.2077e-10,0,0.00011525,1.1835e-05,2.5854e+07,65.52,0,3.7633e+07,19.786,12704,656.67,0,656.67,0,8.8683e-05,1.491e-09,0,4.5381e-05,1.6596e-05,2.9776e+07,414.26,0,1.4794e+07,368.05,656.67,1
2268,0.55,12139,1,12139,1,1.4177e-05,-2.6343e-10,0,7.8868e-05,-2.5811e-06,296.72,-74.289,0,2.6313e+07,-41.764,12138,13320,1,13320,1,0.00016511,3.5382e-09,0,0.00016511,2.5668e-05,4.5147e+07,944.73,0,5.562e+07,56.093,13319,12138,1,12138,1,1.4176e-05,-2.2213e-10,0,7.8256e-05,-2.5664e-06,4.5177e+06,-62.646,0,2.6333e+07,-37.035,12137,10979,1,10979,1,-0.00013675,-3.4901e-09,0,2.5923e-06,-3.0839e-05,-5.562e+07,-966.42,0,1.0876e+06,-564.6,10978,11571,1,11571,1,-6.4079e-05,-1.2738e-09,0,3.9128e-05,-1.7222e-05,-2.6061e+07,-367.68,0,1.3788e+07,-74.661,11570,12705,1,12705,1,9.2433e-05,5.8227e-10,0,0.00011738,1.2054e-05,2.6333e+07,158.74,0,3.8329e+07,-7.1375,12704,656.67,0,656.67,0,9.0323e-05,1.4049e-09,0,4.6221e-05,1.6903e-05,3.0327e+07,396.29,0,1.5068e+07,50.751,656.67,1
2268,0.56,12139,1,12139,1,1.4437e-05,5.3634e-10,0,8.0321e-05,-2.6286e-06,-27.206,151.68,0,2.6798e+07,-107.58,12138,13320,1,13320,1,0.00016814,1.5806e-09,0,0.00016814,2.6141e-05,4.5978e+07,440.1,0,5.6644e+07,240.57,13319,12138,1,12138,1,1.4437e-05,5.669e-10,0,7.9696e-05,-2.6138e-06,4.6006e+06,160.77,0,2.6817e+07,-49.784,12137,10979,1,10979,1,-0.00013927,-1.0913e-09,0,2.6407e-06,-3.141e-05,-5.6644e+07,-372.59,0,1.1078e+06,-1367.4,10978,11571,1,11571,1,-6.5259e-05,1.4003e-10,0,3.9848e-05,-1.7539e-05,-2.654e+07,41.303,0,1.4042e+07,-176.43,11570,12705,1,12705,1,9.4132e-05,9.5517e-10,0,0.00011954,1.2276e-05,2.6817e+07,267.3,0,3.9035e+07,-4.7802,12704,656.67,0,656.67,0,9.1987e-05,4.9331e-10,0,4.7073e-05,1.7214e-05,3.0885e+07,144.79,0,1.5345e+07,154.32,656.67,1
2268,0.57,12139,1,12139,1,1.4691e-05,-9.062e-11,0,8.1734e-05,-2.6748e-06,-33.545,-24.977,0,2.7269e+07,-82.886,12138,13320,1,13320,1,0.0001711,2.6855e-09,0,0.0001711,2.6601e-05,4.6787e+07,724.17,0,5.764e+07,71.771,13319,12138,1,12138,1,1.4691e-05,-8.8386e-11,0,8.1099e-05,-2.6597e-06,4.6816e+06,-24.26,0,2.7289e+07,-25.939,12137,10979,1,10979,1,-0.00014172,-2.8431e-09,0,2.6873e-06,-3.1963e-05,-5.764e+07,-791.56,0,1.1274e+06,-1882.1,10978,11571,1,11571,1,-6.6408e-05,-7.2675e-10,0,4.055e-05,-1.7848e-05,-2.7008e+07,-209.19,0,1.4289e+07,-88.355,11570,12705,1,12705,1,9.579e-05,4.7554e-10,0,0.00012165,1.2492e-05,2.7289e+07,133.53,0,3.9722e+07,11.836,12704,656.67,0,656.67,0,9.3606e-05,9.8506e-10,0,4.7901e-05,1.7517e-05,3.1429e+07,273.5,0,1.5615e+07,204.58,656.67,1
2268,0.58,12139,1,12139,1,1.4948e-05,2.695e-10,0,8.3166e-05,-2.7214e-06,-201.87,77.53,0,2.7747e+07,-35.444,12138,13320,1,13320,1,0.0001741,4.1469e-09,0,0.0001741,2.7068e-05,4.7607e+07,1093.4,0,5.8652e+07,71.84,13319,12138,1,12138,1,1.4948e-05,8.3016e-11,0,8.2521e-05,-2.7062e-06,4.7635e+06,22.017,0,2.7768e+07,-20.918,12137,10979,1,10979,1,-0.0001442,-3.35e-09,0,2.735e-06,-3.2519e-05,-5.8652e+07,-922.98,0,1.1474e+06,-682.23,10978,11571,1,11571,1,-6.7573e-05,-3.7525e-10,0,4.126e-05,-1.816e-05,-2.7481e+07,-110.73,0,1.454e+07,-71.08,11570,12705,1,12705,1,9.7469e-05,9.7695e-10,0,0.00012378,1.2711e-05,2.7768e+07,287.74,0,4.0418e+07,19.872,12704,656.67,0,656.67,0,9.5246e-05,1.2252e-09,0,4.874e-05,1.7824e-05,3.1979e+07,333.14,0,1.5889e+07,73.327,656.67,1
2268,0.59,12139,1,12139,1,1.5207e-05,-5.685e-10,0,8.4606e-05,-2.7686e-06,-9.2206,-160.9,0,2.8227e+07,-20.693,12138,13320,1,13320,1,0.00017712,3.4368e-09,0,0.00017712,2.7536e-05,4.8432e+07,1003.9,0,5.9668e+07,137.14,13319,12138,1,12138,1,1.5207e-05,-4.5517e-10,0,8.3949e-05,-2.753e-06,4.8461e+06,-130.22,0,2.8248e+07,5.4906,12137,10979,1,10979,1,-0.0001467,-4.1379e-09,0,2.7818e-06,-3.3087e-05,-5.9668e+07,-1151.8,0,1.167e+06,-1726.8,10978,11571,1,11571,1,-6.8742e-05,-1.8009e-09,0,4.1974e-05,-1.8475e-05,-2.7957e+07,-518.92,0,1.4791e+07,-44.532,11570,12705,1,12705,1,9.9157e-05,3.5942e-10,0,0.00012592,1.2931e-05,2.8248e+07,104.15,0,4.1118e+07,41.554,12704,656.67,0,656.67,0,9.6894e-05,1.611e-09,0,4.9584e-05,1.8132e-05,3.2533e+07,456.58,0,1.6164e+07,138.38,656.67,1
2268,0.6,12139,1,12139,1,1.5465e-05,-3.679e-10,0,8.6038e-05,-2.8157e-06,357.64,-104.91,0,2.8705e+07,-37.897,12138,13320,1,13320,1,0.00018012,4.0823e-09,0,0.00018012,2.8002e-05,4.9252e+07,1076.5,0,6.0677e+07,63.936,13319,12138,1,12138,1,1.5465e-05,-3.1547e-10,0,8.537e-05,-2.7997e-06,4.9285e+06,-84.33,0,2.8727e+07,-30.264,12137,10979,1,10979,1,-0.00014918,-3.8724e-09,0,2.8274e-06,-3.3643e-05,-6.0677e+07,-1040.3,0,1.1862e+06,-197.32,10978,11571,1,11571,1,-6.9904e-05,-1.6163e-09,0,4.2685e-05,-1.8787e-05,-2.843e+07,-467.45,0,1.5042e+07,-69.215,11570,12705,1,12705,1,0.00010084,6.1017e-10,0,0.00012805,1.315e-05,2.8727e+07,173.91,0,4.1814e+07,-4.7038,12704,656.67,0,656.67,0,9.8534e-05,1.6746e-09,0,5.0423e-05,1.8439e-05,3.3083e+07,475.34,0,1.6437e+07,48.037,656.67,1
2268,0.61,12139,1,12139,1,1.5721e-05,-6.3042e-10,0,8.7464e-05,-2.8621e-06,-41.204,-180.19,0,2.9181e+07,-31.1,12138,13320,1,13320,1,0.00018311,5.544e-09,0,0.00018311,2.8467e-05,5.007e+07,1534.9,0,6.1685e+07,158.49,13319,12138,1,12138,1,1.572e-05,-4.3401e-10,0,8.6786e-05,-2.8459e-06,5.0097e+06,-121.3,0,2.9203e+07,-16.309,12137,10979,1,10979,1,-0.00015166,-5.749e-09,0,2.8758e-06,-3.4201e-05,-6.1685e+07,-1600.8,0,1.2065e+06,-929.56,10978,11571,1,11571,1,-7.1065e-05,-2.2729e-09,0,4.3393e-05,-1.9099e-05,-2.8902e+07,-663.41,0,1.5291e+07,-59.722,11570,12705,1,12705,1,0.00010251,6.0548e-10,0,0.00013018,1.3368e-05,2.9203e+07,180.95,0,4.2507e+07,21.056,12704,656.67,0,656.67,0,0.00010017,2.3286e-09,0,5.1259e-05,1.8745e-05,3.3632e+07,658.78,0,1.671e+07,106.27,656.67,1
2268,0.62,12139,1,12139,1,1.5981e-05,-1.2811e-09,0,8.8912e-05,-2.9095e-06,24.776,-365.53,0,2.9664e+07,2.3006,12138,13320,1,13320,1,0.00018614,1.79e-09,0,0.00018614,2.8939e-05,5.0899e+07,583.83,0,6.2706e+07,80.223,13319,12138,1,12138,1,1.5981e-05,-9.2445e-10,0,8.8223e-05,-2.893e-06,5.0928e+06,-266.51,0,2.9686e+07,1.2556,12137,10979,1,10979,1,-0.00015417,-4.5577e-09,0,2.9232e-06,-3.4768e-05,-6.2706e+07,-1283.1,0,1.2263e+06,-184.69,10978,11571,1,11571,1,-7.2241e-05,-2.3291e-09,0,4.4111e-05,-1.9415e-05,-2.938e+07,-670.58,0,1.5544e+07,-22.023,11570,12705,1,12705,1,0.0001042,-1.5638e-10,0,0.00013233,1.3589e-05,2.9686e+07,-45.043,0,4.3211e+07,27.719,12704,656.67,0,656.67,0,0.00010183,1.4302e-09,0,5.2107e-05,1.9055e-05,3.4189e+07,408.25,0,1.6987e+07,33.734,656.67,1
2268,0.63,12139,1,12139,1,1.624e-05,-1.0461e-09,0,9.035e-05,-2.9567e-06,332.4,-298.79,0,3.0143e+07,-14.947,12138,13320,1,13320,1,0.00018915,5.6876e-10,0,0.00018915,2.9406e-05,5.1721e+07,193.21,0,6.3719e+07,36.898,13319,12138,1,12138,1,1.624e-05,-8.5758e-10,0,8.9648e-05,-2.9399e-06,5.1755e+06,-249.58,0,3.0166e+07,-17.276,12137,10979,1,10979,1,-0.00015666,-3.1635e-09,0,2.969e-06,-3.5329e-05,-6.3719e+07,-889.85,0,1.2456e+06,-89.54,10978,11571,1,11571,1,-7.3408e-05,-1.7661e-09,0,4.4824e-05,-1.9729e-05,-2.9854e+07,-506.93,0,1.5795e+07,-27.411,11570,12705,1,12705,1,0.00010589,-2.3579e-10,0,0.00013447,1.3809e-05,3.0166e+07,-63.357,0,4.391e+07,-2.2835,12704,656.67,0,656.67,0,0.00010347,9.5997e-10,0,5.295e-05,1.9363e-05,3.4741e+07,272.65,0,1.7261e+07,19.349,656.67,1
2268,0.64,12139,1,12139,1,1.6502e-05,3.2426e-10,0,9.1808e-05,-3.0043e-06,-58.338,95.294,0,3.063e+07,-51.512,12138,13320,1,13320,1,0.00019219,4.8446e-09,0,0.00019219,2.988e-05,5.2554e+07,1348.7,0,6.4745e+07,169.37,13319,12138,1,12138,1,1.6501e-05,2.7064e-10,0,9.1093e-05,-2.9871e-06,5.2585e+06,77.476,0,3.0652e+07,-42.763,12137,10979,1,10979,1,-0.00015919,-5.5854e-09,0,3.0185e-06,-3.5899e-05,-6.4745e+07,-1554.2,0,1.2663e+06,-576.76,10978,11571,1,11571,1,-7.4591e-05,-9.2461e-10,0,4.5546e-05,-2.0046e-05,-3.0336e+07,-270.55,0,1.605e+07,-99.074,11570,12705,1,12705,1,0.00010759,1.9023e-09,0,0.00013664,1.4031e-05,3.0652e+07,544.65,0,4.4617e+07,-4.6709,12704,656.67,0,656.67,0,0.00010514,2.1312e-09,0,5.3805e-05,1.9676e-05,3.5303e+07,617.16,0,1.754e+07,69.687,656.67,1
2268,0.65,12139,1,12139,1,1.6753e-05,-5.8027e-10,0,9.3207e-05,-3.05e-06,-82.667,-162.88,0,3.1097e+07,-31.49,12138,13320,1,13320,1,0.00019512,3.4056e-09,0,0.00019512,3.0335e-05,5.3355e+07,926,0,6.5733e+07,109.77,13319,12138,1,12138,1,1.6753e-05,-5.1355e-10,0,9.2483e-05,-3.0327e-06,5.3387e+06,-157.75,0,3.112e+07,-20.781,12137,10979,1,10979,1,-0.00016161,-3.3695e-09,0,3.0648e-06,-3.6445e-05,-6.5733e+07,-903.37,0,1.2858e+06,-274.18,10978,11571,1,11571,1,-7.573e-05,-1.548e-09,0,4.6241e-05,-2.0352e-05,-3.0799e+07,-468.8,0,1.6295e+07,-59.376,11570,12705,1,12705,1,0.00010924,1.8612e-10,0,0.00013872,1.4245e-05,3.112e+07,50.033,0,4.5298e+07,11.121,12704,656.67,0,656.67,0,0.00010674,1.405e-09,0,5.4624e-05,1.9976e-05,3.584e+07,391.38,0,1.7807e+07,65.24,656.67,1
2268,0.66,12139,1,12139,1,1.7012e-05,1.4565e-10,0,9.4643e-05,-3.0972e-06,124.28,40.595,0,3.1576e+07,-40.127,12138,13320,1,13320,1,0.00019812,3.0202e-09,0,0.00019812,3.0802e-05,5.4176e+07,790.46,0,6.6743e+07,94.819,13319,12138,1,12138,1,1.7012e-05,-8.9206e-12,0,9.3908e-05,-3.0796e-06,5.4212e+06,-2.2617,0,3.1599e+07,-26.118,12137,10979,1,10979,1,-0.0001641,-1.7782e-09,0,3.1113e-06,-3.7006e-05,-6.6743e+07,-495.2,0,1.3053e+06,-241.57,10978,11571,1,11571,1,-7.6896e-05,-1.8683e-10,0,4.6954e-05,-2.0666e-05,-3.1273e+07,-53.996,0,1.6546e+07,-57.802,11570,12705,1,12705,1,0.00011092,4.0056e-10,0,0.00014086,1.4465e-05,3.1599e+07,120.39,0,4.5996e+07,-6.4625,12704,656.67,0,656.67,0,0.00010839,6.6806e-10,0,5.5466e-05,2.0284e-05,3.6393e+07,180.36,0,1.8081e+07,47.408,656.67,1
2268,0.67,12139,1,12139,1,1.7268e-05,-3.9014e-10,0,9.6073e-05,-3.1439e-06,72.384,-112.57,0,3.2053e+07,-9.9901,12138,13320,1,13320,1,0.00020112,5.0207e-09,0,0.00020112,3.1269e-05,5.4996e+07,1325.9,0,6.7755e+07,145.1,13319,12138,1,12138,1,1.7268e-05,-3.7171e-10,0,9.5328e-05,-3.1261e-06,5.503e+06,-99.407,0,3.2077e+07,-15.739,12137,10979,1,10979,1,-0.00016659,-4.1008e-09,0,3.1585e-06,-3.7567e-05,-6.7755e+07,-1141.9,0,1.3251e+06,-493.81,10978,11571,1,11571,1,-7.8059e-05,-1.8307e-09,0,4.7664e-05,-2.0979e-05,-3.1746e+07,-528.95,0,1.6796e+07,-43.322,11570,12705,1,12705,1,0.0001126,6.6139e-10,0,0.00014299,1.4684e-05,3.2077e+07,185.32,0,4.6691e+07,25.726,12704,656.67,0,656.67,0,0.00011003,1.918e-09,0,5.6304e-05,2.059e-05,3.6942e+07,539.82,0,1.8355e+07,59.829,656.67,1
2268,0.68,12139,1,12139,1,1.7532e-05,4.9743e-11,0,9.7542e-05,-3.1919e-06,-80.28,14.981,0,3.2543e+07,-21.947,12138,13320,1,13320,1,0.00020419,3.2699e-09,0,0.00020419,3.1745e-05,5.5834e+07,1016.3,0,6.8787e+07,195.08,13319,12138,1,12138,1,1.7532e-05,-1.8506e-11,0,9.6782e-05,-3.1736e-06,5.587e+06,-5.9918,0,3.2566e+07,-20.104,12137,10979,1,10979,1,-0.00016912,-3.6253e-09,0,3.2069e-06,-3.8139e-05,-6.8787e+07,-1010.1,0,1.3454e+06,-282.33,10978,11571,1,11571,1,-7.925e-05,-6.6956e-10,0,4.8391e-05,-2.1299e-05,-3.2231e+07,-187.18,0,1.7052e+07,-53.984,11570,12705,1,12705,1,0.00011431,7.3889e-10,0,0.00014517,1.4908e-05,3.2566e+07,208.51,0,4.7403e+07,11.555,12704,656.67,0,656.67,0,0.00011171,1.231e-09,0,5.7165e-05,2.0905e-05,3.7507e+07,360.71,0,1.8635e+07,54.094,656.67,1
2268,0.69,12139,1,12139,1,1.7785e-05,-3.2252e-10,0,9.8942e-05,-3.238e-06,402.1,-92.959,0,3.301e+07,-32.642,12138,13320,1,13320,1,0.00020713,3.388e-09,0,0.00020713,3.2202e-05,5.6638e+07,916.7,0,6.9777e+07,61.511,13319,12138,1,12138,1,1.7785e-05,-1.8444e-10,0,9.8174e-05,-3.2195e-06,5.6676e+06,-51.003,0,3.3035e+07,-28.216,12137,10979,1,10979,1,-0.00017156,-3.366e-09,0,3.2516e-06,-3.8689e-05,-6.9777e+07,-910.96,0,1.3642e+06,-451.08,10978,11571,1,11571,1,-8.0389e-05,-1.3286e-09,0,4.9087e-05,-2.1605e-05,-3.2694e+07,-383.13,0,1.7297e+07,-49.498,11570,12705,1,12705,1,0.00011596,4.6831e-10,0,0.00014726,1.5122e-05,3.3035e+07,142.97,0,4.8085e+07,-3.8079,12704,656.67,0,656.67,0,0.00011331,1.3861e-09,0,5.7986e-05,2.1205e-05,3.8045e+07,391.49,0,1.8903e+07,53.943,656.67,1
2268,0.7,12139,1,12139,1,1.8045e-05,-2.6675e-10,0,0.00010039,-3.2852e-06,75.862,-76.784,0,3.3494e+07,-2.8462,12138,13320,1,13320,1,0.00021016,1.0673e-09,0,0.00021016,3.2673e-05,5.7467e+07,297.34,0,7.0799e+07,62.028,13319,12138,1,12138,1,1.8045e-05,-2.1556e-10,0,9.9613e-05,-3.2664e-06,5.7505e+06,-62.084,0,3.3519e+07,-3.5469,12137,10979,1,10979,1,-0.00017407,-1.3518e-09,0,3.3003e-06,-3.9254e-05,-7.0799e+07,-374.22,0,1.3846e+06,-89.523,10978,11571,1,11571,1,-8.1568e-05,-6.7495e-10,0,4.9807e-05,-2.1922e-05,-3.3173e+07,-197.72,0,1.7551e+07,-15.337,11570,12705,1,12705,1,0.00011766,7.5707e-11,0,0.00014942,1.5344e-05,3.3519e+07,21.599,0,4.879e+07,8.2441,12704,656.67,0,656.67,0,0.00011497,5.1446e-10,0,5.8836e-05,2.1516e-05,3.8604e+07,145.9,0,1.918e+07,22.159,656.67,1
2268,0.71,12139,1,12139,1,1.8302e-05,-4.2359e-10,0,0.00010182,-3.3319e-06,96.634,-119.93,0,3.397e+07,-2.9413,12138,13320,1,13320,1,0.00021315,2.3893e-09,0,0.00021315,3.3138e-05,5.8285e+07,605.63,0,7.1806e+07,176.19,13319,12138,1,12138,1,1.8301e-05,-3.0495e-10,0,0.00010103,-3.313e-06,5.8323e+06,-89.631,0,3.3996e+07,10.812,12137,10979,1,10979,1,-0.00017655,-2.5553e-09,0,3.3474e-06,-3.9814e-05,-7.1806e+07,-711.54,0,1.4043e+06,-631.11,10978,11571,1,11571,1,-8.2728e-05,-1.1021e-09,0,5.0515e-05,-2.2233e-05,-3.3645e+07,-321.08,0,1.7801e+07,-12.24,11570,12705,1,12705,1,0.00011933,1.3889e-10,0,0.00015154,1.5562e-05,3.3996e+07,38.968,0,4.9484e+07,30.11,12704,656.67,0,656.67,0,0.00011661,9.7907e-10,0,5.9673e-05,2.1822e-05,3.9152e+07,270.25,0,1.9453e+07,78.555,656.67,1
2268,0.72,12139,1,12139,1,1.8558e-05,-6.5924e-10,0,0.00010325,-3.3786e-06,11.95,-189.02,0,3.4447e+07,-9.6509,12138,13320,1,13320,1,0.00021614,2.7762e-09,0,0.00021614,3.3604e-05,5.9103e+07,904.65,0,7.2815e+07,108.14,13319,12138,1,12138,1,1.8558e-05,-3.7307e-10,0,0.00010245,-3.3594e-06,5.914e+06,-104.42,0,3.4473e+07,-12.151,12137,10979,1,10979,1,-0.00017903,-4.1606e-09,0,3.3946e-06,-4.0372e-05,-7.2815e+07,-1129.4,0,1.4241e+06,-105.91,10978,11571,1,11571,1,-8.3889e-05,-1.7499e-09,0,5.1223e-05,-2.2545e-05,-3.4117e+07,-498.03,0,1.805e+07,-38.384,11570,12705,1,12705,1,0.00012101,2.7227e-10,0,0.00015367,1.578e-05,3.4473e+07,85.384,0,5.0178e+07,16.668,12704,656.67,0,656.67,0,0.00011824,1.5336e-09,0,6.0509e-05,2.2128e-05,3.9701e+07,434.95,0,1.9725e+07,37.506,656.67,1
2268,0.73,12139,1,12139,1,1.8815e-05,-1.646e-10,0,0.00010468,-3.4255e-06,36.939,-46.704,0,3.4924e+07,-15.767,12138,13320,1,13320,1,0.00021914,3.2446e-09,0,0.00021914,3.4069e-05,5.9921e+07,871.52,0,7.3822e+07,61.554,13319,12138,1,12138,1,1.8815e-05,-1.5993e-10,0,0.00010387,-3.4059e-06,5.996e+06,-42.402,0,3.495e+07,-16.257,12137,10979,1,10979,1,-0.0001815,-2.7991e-09,0,3.4416e-06,-4.0931e-05,-7.3822e+07,-779.33,0,1.4438e+06,-124.35,10978,11571,1,11571,1,-8.5051e-05,-1.0616e-09,0,5.1933e-05,-2.2858e-05,-3.459e+07,-306.01,0,1.8301e+07,-36.354,11570,12705,1,12705,1,0.00012268,5.7696e-10,0,0.0001558,1.5999e-05,3.495e+07,159.43,0,5.0873e+07,4.5629,12704,656.67,0,656.67,0,0.00011988,1.2177e-09,0,6.1348e-05,2.2435e-05,4.0252e+07,346.55,0,1.9999e+07,32.385,656.67,1
2268,0.74,12139,1,12139,1,1.9074e-05,-5.5507e-10,0,0.00010612,-3.4725e-06,-53.703,-158.44,0,3.5405e+07,-6.1312,12138,13320,1,13320,1,0.00022215,2.6306e-09,0,0.00022215,3.4538e-05,6.0746e+07,706.59,0,7.4838e+07,90.377,13319,12138,1,12138,1,1.9074e-05,-4.1557e-10,0,0.0001053,-3.4527e-06,6.0784e+06,-117.72,0,3.5431e+07,-4.962,12137,10979,1,10979,1,-0.000184,-3.0114e-09,0,3.4892e-06,-4.1494e-05,-7.4838e+07,-838.41,0,1.4638e+06,-328.44,10978,11571,1,11571,1,-8.6221e-05,-1.4697e-09,0,5.2647e-05,-2.3172e-05,-3.5066e+07,-429.23,0,1.8552e+07,-25.991,11570,12705,1,12705,1,0.00012437,1.4921e-10,0,0.00015794,1.6219e-05,3.5431e+07,45.287,0,5.1573e+07,14.922,12704,656.67,0,656.67,0,0.00012153,1.1677e-09,0,6.2192e-05,2.2743e-05,4.0805e+07,329.46,0,2.0274e+07,40.629,656.67,1
2268,0.75,12139,1,12139,1,1.9335e-05,6.3486e-12,0,0.00010757,-3.5201e-06,80.084,0.48443,0,3.5888e+07,-47.277,12138,13320,1,13320,1,0.00022518,7.8744e-10,0,0.00022518,3.5008e-05,6.1574e+07,219.13,0,7.5858e+07,16.71,13319,12138,1,12138,1,1.9335e-05,6.8595e-12,0,0.00010673,-3.5002e-06,6.1616e+06,2.0247,0,3.5915e+07,-41.763,12137,10979,1,10979,1,-0.00018651,-7.8442e-10,0,3.5362e-06,-4.206e-05,-7.5858e+07,-255.65,0,1.4835e+06,-213.33,10978,11571,1,11571,1,-8.7398e-05,-1.5258e-10,0,5.3366e-05,-2.3488e-05,-3.5544e+07,-43.239,0,1.8805e+07,-71.558,11570,12705,1,12705,1,0.00012607,1.6863e-10,0,0.0001601,1.644e-05,3.5915e+07,47.661,0,5.2277e+07,-14.189,12704,656.67,0,656.67,0,0.00012319,2.6097e-10,0,6.3041e-05,2.3054e-05,4.1363e+07,74.455,0,2.0551e+07,39.617,656.67,1
2268,0.76,12139,1,12139,1,1.9588e-05,-9.1103e-10,0,0.00010898,-3.5662e-06,-35.534,-260.1,0,3.6359e+07,-17.714,12138,13320,1,13320,1,0.00022815,2.7561e-09,0,0.00022815,3.547e-05,6.2386e+07,766.89,0,7.6859e+07,87.252,13319,12138,1,12138,1,1.9588e-05,-6.3833e-10,0,0.00010814,-3.5459e-06,6.2424e+06,-183.65,0,3.6387e+07,-15.295,12137,10979,1,10979,1,-0.00018897,-4.2077e-09,0,3.5833e-06,-4.2614e-05,-7.6859e+07,-1171.6,0,1.5033e+06,-170.4,10978,11571,1,11571,1,-8.8547e-05,-2.1668e-09,0,5.4068e-05,-2.3797e-05,-3.6012e+07,-630.92,0,1.9053e+07,-51.45,11570,12705,1,12705,1,0.00012772,1.7398e-10,0,0.0001622,1.6656e-05,3.6387e+07,44.865,0,5.2964e+07,11.204,12704,656.67,0,656.67,0,0.00012481,1.5837e-09,0,6.3869e-05,2.3356e-05,4.1906e+07,449.34,0,2.0821e+07,45.954,656.67,1
2268,0.77,12139,1,12139,1,1.9846e-05,-2.226e-11,0,0.00011041,-3.6132e-06,172.07,-7.4387,0,3.6837e+07,0.29246,12138,13320,1,13320,1,0.00023114,4.4226e-09,0,0.00023114,3.5935e-05,6.3204e+07,1187.8,0,7.7866e+07,91.828,13319,12138,1,12138,1,1.9846e-05,-9.9685e-11,0,0.00010956,-3.5926e-06,6.3246e+06,-28.575,0,3.6865e+07,-1.7628,12137,10979,1,10979,1,-0.00019145,-3.2262e-09,0,3.6295e-06,-4.3173e-05,-7.7866e+07,-891.83,0,1.5227e+06,-119.75,10978,11571,1,11571,1,-8.9709e-05,-1.1001e-09,0,5.4778e-05,-2.411e-05,-3.6484e+07,-313.46,0,1.9303e+07,-22.653,11570,12705,1,12705,1,0.0001294,8.4244e-10,0,0.00016433,1.6875e-05,3.6865e+07,238.59,0,5.366e+07,24.392,12704,656.67,0,656.67,0,0.00012645,1.5406e-09,0,6.4709e-05,2.3663e-05,4.2457e+07,436,0,2.1094e+07,34.975,656.67,1
2268,0.78,12139,1,12139,1,2.0104e-05,-7.5436e-10,0,0.00011185,-3.6601e-06,49.583,-215.91,0,3.7316e+07,-10.506,12138,13320,1,13320,1,0.00023415,3.5138e-09,0,0.00023415,3.6403e-05,6.4028e+07,973.53,0,7.8881e+07,86.835,13319,12138,1,12138,1,2.0104e-05,-4.7364e-10,0,0.00011098,-3.6392e-06,6.4067e+06,-129.77,0,3.7345e+07,-11.33,12137,10979,1,10979,1,-0.00019394,-4.5859e-09,0,3.6772e-06,-4.3736e-05,-7.8881e+07,-1258.7,0,1.5427e+06,-122.18,10978,11571,1,11571,1,-9.0877e-05,-2.0848e-09,0,5.5491e-05,-2.4424e-05,-3.6959e+07,-591.8,0,1.9554e+07,-37.01,11570,12705,1,12705,1,0.00013109,2.8938e-10,0,0.00016647,1.7095e-05,3.7345e+07,85.354,0,5.4359e+07,17.238,12704,656.67,0,656.67,0,0.0001281,1.8156e-09,0,6.555e-05,2.3971e-05,4.3009e+07,518.22,0,2.1369e+07,40.002,656.67,1
2268,0.79,12139,1,12139,1,2.0362e-05,-6.0211e-11,0,0.00011328,-3.707e-06,174.29,-17.837,0,3.7794e+07,-3.0019,12138,13320,1,13320,1,0.00023714,3.1917e-09,0,0.00023714,3.6867e-05,6.4844e+07,873.49,0,7.9887e+07,73.433,13319,12138,1,12138,1,2.0362e-05,-8.2335e-12,0,0.0001124,-3.6858e-06,6.4888e+06,-2.36,0,3.7822e+07,-7.3983,12137,10979,1,10979,1,-0.00019641,-3.3162e-09,0,3.7238e-06,-4.4293e-05,-7.9887e+07,-954.52,0,1.5622e+06,-76.397,10978,11571,1,11571,1,-9.2038e-05,-8.2555e-10,0,5.62e-05,-2.4736e-05,-3.7431e+07,-237.64,0,1.9804e+07,-24.051,11570,12705,1,12705,1,0.00013276,6.7958e-10,0,0.0001686,1.7313e-05,3.7822e+07,197.97,0,5.5053e+07,18.048,12704,656.67,0,656.67,0,0.00012973,1.2733e-09,0,6.6388e-05,2.4278e-05,4.3559e+07,363.46,0,2.1642e+07,28.113,656.67,1
2268,0.8,12139,1,12139,1,2.0621e-05,-1.2523e-10,0,0.00011472,-3.7541e-06,89.648,-36.686,0,3.8275e+07,6.0033,12138,13320,1,13320,1,0.00024016,3.7226e-09,0,0.00024016,3.7337e-05,6.567e+07,994.05,0,8.0905e+07,107.4,13319,12138,1,12138,1,2.0621e-05,-1.0031e-10,0,0.00011383,-3.7326e-06,6.5713e+06,-27.168,0,3.8303e+07,0.83899,12137,10979,1,10979,1,-0.00019892,-3.083e-09,0,3.7715e-06,-4.4858e-05,-8.0905e+07,-858.34,0,1.5822e+06,-99.848,10978,11571,1,11571,1,-9.321e-05,-1.1515e-09,0,5.6916e-05,-2.5051e-05,-3.7908e+07,-326.86,0,2.0056e+07,-16.787,11570,12705,1,12705,1,0.00013445,7.1678e-10,0,0.00017075,1.7534e-05,3.8303e+07,206.41,0,5.5754e+07,28.353,12704,656.67,0,656.67,0,0.00013139,1.4237e-09,0,6.7234e-05,2.4587e-05,4.4113e+07,404.17,0,2.1918e+07,33.736,656.67,1
2268,0.81,12139,1,12139,1,2.0882e-05,-4.9964e-10,0,0.00011617,-3.8017e-06,224.42,-142.23,0,3.8758e+07,-24.679,12138,13320,1,13320,1,0.00024319,2.3448e-10,0,0.00024319,3.7809e-05,6.65e+07,76.48,0,8.1926e+07,52.437,13319,12138,1,12138,1,2.0882e-05,-3.8019e-10,0,0.00011527,-3.78e-06,6.6545e+06,-107.03,0,3.8787e+07,-23.982,12137,10979,1,10979,1,-0.00020143,-1.8123e-09,0,3.8186e-06,-4.5424e-05,-8.1926e+07,-485.11,0,1.602e+06,-138.33,10978,11571,1,11571,1,-9.4387e-05,-8.6603e-10,0,5.7635e-05,-2.5367e-05,-3.8387e+07,-253.64,0,2.031e+07,-37.844,11570,12705,1,12705,1,0.00013615,-6.6772e-11,0,0.0001729,1.7755e-05,3.8787e+07,-18.724,0,5.6458e+07,-10.217,12704,656.67,0,656.67,0,0.00013305,4.9193e-10,0,6.8083e-05,2.4897e-05,4.4671e+07,138.09,0,2.2195e+07,20.472,656.67,1
2268,0.82,12139,1,12139,1,2.1135e-05,-2.1215e-10,0,0.00011759,-3.8478e-06,-35.012,-60.724,0,3.9231e+07,7.5871,12138,13320,1,13320,1,0.00024616,2.8911e-09,0,0.00024616,3.827e-05,6.731e+07,788.84,0,8.2925e+07,84.402,13319,12138,1,12138,1,2.1135e-05,-1.3439e-10,0,0.00011667,-3.8257e-06,6.7353e+06,-37.649,0,3.926e+07,2.8526,12137,10979,1,10979,1,-0.00020388,-2.6993e-09,0,3.8662e-06,-4.5978e-05,-8.2925e+07,-743.33,0,1.6219e+06,-48.603,10978,11571,1,11571,1,-9.5539e-05,-1.0767e-09,0,5.8337e-05,-2.5676e-05,-3.8855e+07,-304.46,0,2.0557e+07,-11.695,11570,12705,1,12705,1,0.00013781,4.6536e-10,0,0.00017501,1.7972e-05,3.926e+07,130.56,0,5.7147e+07,22.071,12704,656.67,0,656.67,0,0.00013467,1.1931e-09,0,6.8913e-05,2.5201e-05,4.5215e+07,339.08,0,2.2465e+07,25.746,656.67,1
2268,0.83,12139,1,12139,1,2.1392e-05,-6.1449e-10,0,0.00011901,-3.8945e-06,29.466,-175.76,0,3.9707e+07,3.9664,12138,13320,1,13320,1,0.00024915,4.9796e-09,0,0.00024915,3.8735e-05,6.813e+07,1326.5,0,8.3935e+07,128.22,13319,12138,1,12138,1,2.1392e-05,-2.7214e-10,0,0.00011809,-3.8722e-06,6.8171e+06,-81.873,0,3.9737e+07,-4.9602,12137,10979,1,10979,1,-0.00020637,-6.0656e-09,0,3.913e-06,-4.6538e-05,-8.3935e+07,-1665.4,0,1.6416e+06,-109.03,10978,11571,1,11571,1,-9.6699e-05,-2.2437e-09,0,5.9046e-05,-2.5988e-05,-3.9327e+07,-633.72,0,2.0807e+07,-34.607,11570,12705,1,12705,1,0.00013948,8.1658e-10,0,0.00017714,1.819e-05,3.9737e+07,230.37,0,5.7841e+07,37.636,12704,656.67,0,656.67,0,0.0001363,2.3836e-09,0,6.9749e-05,2.5507e-05,4.5764e+07,678.77,0,2.2738e+07,49.241,656.67,1
2268,0.84,12139,1,12139,1,2.1651e-05,-1.0567e-09,0,0.00012046,-3.9418e-06,29.27,-302.74,0,4.0188e+07,-23.722,12138,13320,1,13320,1,0.00025218,2.2076e-09,0,0.00025218,3.9205e-05,6.8956e+07,614.26,0,8.4953e+07,67.172,13319,12138,1,12138,1,2.1651e-05,-6.3225e-10,0,0.00011952,-3.9195e-06,6.8998e+06,-179.71,0,4.0219e+07,-24.809,12137,10979,1,10979,1,-0.00020887,-5.0307e-09,0,3.9601e-06,-4.7102e-05,-8.4953e+07,-1364.9,0,1.6614e+06,-160.7,10978,11571,1,11571,1,-9.7872e-05,-2.3213e-09,0,5.9762e-05,-2.6303e-05,-3.9804e+07,-665.54,0,2.1059e+07,-58.791,11570,12705,1,12705,1,0.00014118,2.2288e-10,0,0.00017929,1.841e-05,4.0219e+07,60.194,0,5.8542e+07,10.054,12704,656.67,0,656.67,0,0.00013795,1.7415e-09,0,7.0595e-05,2.5816e-05,4.6319e+07,496.57,0,2.3013e+07,43.575,656.67,1
2268,0.85,12139,1,12139,1,2.1914e-05,-9.3023e-11,0,0.00012192,-3.9896e-06,155.71,-26.26,0,4.0675e+07,-21.48,12138,13320,1,13320,1,0.00025521,1.9685e-09,0,0.00025521,3.9677e-05,6.9786e+07,668.48,0,8.5975e+07,115.34,13319,12138,1,12138,1,2.1914e-05,-1.8789e-11,0,0.00012097,-3.9668e-06,6.9834e+06,-5.0475,0,4.0704e+07,-13.242,12137,10979,1,10979,1,-0.00021138,-2.9286e-09,0,4.0075e-06,-4.767e-05,-8.5975e+07,-815.4,0,1.6813e+06,-951.53,10978,11571,1,11571,1,-9.9053e-05,-5.1448e-10,0,6.0483e-05,-2.6621e-05,-4.0284e+07,-148.78,0,2.1313e+07,-40.079,11570,12705,1,12705,1,0.00014288,3.7784e-10,0,0.00018145,1.8633e-05,4.0704e+07,108.73,0,5.9249e+07,3.8087,12704,656.67,0,656.67,0,0.00013962,8.4227e-10,0,7.1449e-05,2.6128e-05,4.6879e+07,244.8,0,2.3292e+07,61.246,656.67,1
2268,0.86,12139,1,12139,1,2.2167e-05,-9.8257e-10,0,0.00012332,-4.0356e-06,124.51,-280.94,0,4.1144e+07,-12.33,12138,13320,1,13320,1,0.00025817,2.6676e-09,0,0.00025817,4.0137e-05,7.0595e+07,737.88,0,8.6972e+07,79.102,13319,12138,1,12138,1,2.2166e-05,-5.7768e-10,0,0.00012237,-4.0125e-06,7.0639e+06,-166.06,0,4.1175e+07,-14.468,12137,10979,1,10979,1,-0.00021383,-4.76e-09,0,4.054e-06,-4.8222e-05,-8.6972e+07,-1294,0,1.7008e+06,-108.54,10978,11571,1,11571,1,-0.0001002,-2.3427e-09,0,6.1183e-05,-2.6929e-05,-4.075e+07,-671.54,0,2.156e+07,-42.769,11570,12705,1,12705,1,0.00014453,2.3433e-10,0,0.00018355,1.8848e-05,4.1175e+07,66.959,0,5.9934e+07,15.933,12704,656.67,0,656.67,0,0.00014123,1.7435e-09,0,7.2274e-05,2.643e-05,4.742e+07,496.02,0,2.3561e+07,38.786,656.67,1
2268,0.87,12139,1,12139,1,2.2426e-05,4.2147e-10,0,0.00012477,-4.0829e-06,-7.4046,120.44,0,4.1627e+07,-3.4579,12138,13320,1,13320,1,0.00026119,2.2623e-09,0,0.00026119,4.0607e-05,7.1421e+07,630.13,0,8.799e+07,46.166,13319,12138,1,12138,1,2.2427e-05,1.7328e-10,0,0.0001238,-4.0596e-06,7.1468e+06,53.205,0,4.1658e+07,-3.7713,12137,10979,1,10979,1,-0.00021634,-3.4323e-10,0,4.1021e-06,-4.8786e-05,-8.799e+07,-95.578,0,1.7209e+06,-104.3,10978,11571,1,11571,1,-0.00010137,-3.9255e-11,0,6.1901e-05,-2.7245e-05,-4.1229e+07,-10.796,0,2.1813e+07,-15.471,11570,12705,1,12705,1,0.00014623,8.1662e-10,0,0.0001857,1.9069e-05,4.1658e+07,232.83,0,6.0637e+07,12.197,12704,656.67,0,656.67,0,0.00014289,6.0343e-10,0,7.3123e-05,2.674e-05,4.7977e+07,170.64,0,2.3837e+07,22.674,656.67,1
2268,0.88,12139,1,12139,1,2.2683e-05,-6.1585e-10,0,0.0001262,-4.1297e-06,5.1575,-176.44,0,4.2104e+07,-1.6065,12138,13320,1,13320,1,0.00026419,9.1791e-10,0,0.00026419,4.1073e-05,7.224e+07,285.93,0,8.8999e+07,53.232,13319,12138,1,12138,1,2.2683e-05,-5.3725e-10,0,0.00012522,-4.1061e-06,7.2287e+06,-157.95,0,4.2135e+07,-2.6489,12137,10979,1,10979,1,-0.00021882,-1.934e-09,0,4.1491e-06,-4.9346e-05,-8.8999e+07,-555.55,0,1.7406e+06,-1198.8,10978,11571,1,11571,1,-0.00010254,-1.1748e-09,0,6.261e-05,-2.7557e-05,-4.1701e+07,-344.82,0,2.2063e+07,-11.395,11570,12705,1,12705,1,0.0001479,-1.0758e-10,0,0.00018783,1.9288e-05,4.2135e+07,-31.506,0,6.1332e+07,8.779,12704,656.67,0,656.67,0,0.00014453,6.8927e-10,0,7.396e-05,2.7047e-05,4.8527e+07,196.96,0,2.411e+07,45.397,656.67,1
2268,0.89,12139,1,12139,1,2.2943e-05,-1.2777e-10,0,0.00012764,-4.177e-06,18.376,-37.143,0,4.2586e+07,-38.666,12138,13320,1,13320,1,0.0002672,2.4806e-10,0,0.0002672,4.1541e-05,7.3065e+07,66.704,0,9.0015e+07,27.155,13319,12138,1,12138,1,2.2943e-05,-1.2858e-10,0,0.00012665,-4.1533e-06,7.3115e+06,-38.527,0,4.2617e+07,-35.913,12137,10979,1,10979,1,-0.00022131,-4.4314e-10,0,4.1964e-06,-4.9909e-05,-9.0015e+07,-123.56,0,1.7605e+06,-234.68,10978,11571,1,11571,1,-0.00010371,-1.6385e-10,0,6.3326e-05,-2.7872e-05,-4.2178e+07,-50.735,0,2.2315e+07,-60.922,11570,12705,1,12705,1,0.00014959,-8.7564e-11,0,0.00018998,1.9508e-05,4.2617e+07,-23.2,0,6.2033e+07,-9.5466,12704,656.67,0,656.67,0,0.00014618,7.7706e-11,0,7.4807e-05,2.7356e-05,4.9082e+07,22.521,0,2.4386e+07,31.425,656.67,1
2268,0.9,12139,1,12139,1,2.3198e-05,-1.6152e-10,0,0.00012906,-4.2234e-06,144.77,-45.236,0,4.3059e+07,-12.389,12138,13320,1,13320,1,0.00027017,2.9467e-09,0,0.00027017,4.2003e-05,7.3878e+07,791.47,0,9.1016e+07,56.965,13319,12138,1,12138,1,2.3198e-05,-1.0678e-10,0,0.00012806,-4.1993e-06,7.3927e+06,-29.403,0,4.3091e+07,-10.365,12137,10979,1,10979,1,-0.00022378,-2.7969e-09,0,4.2427e-06,-5.0464e-05,-9.1016e+07,-778.75,0,1.78e+06,-123.08,10978,11571,1,11571,1,-0.00010486,-9.4647e-10,0,6.4029e-05,-2.8182e-05,-4.2646e+07,-273.77,0,2.2563e+07,-33.307,11570,12705,1,12705,1,0.00015126,5.1741e-10,0,0.00019209,1.9725e-05,4.3091e+07,149.09,0,6.2723e+07,12.427,12704,656.67,0,656.67,0,0.00014781,1.1338e-09,0,7.5637e-05,2.766e-05,4.9627e+07,319.78,0,2.4657e+07,32.248,656.67,1
2268,0.91,12139,1,12139,1,2.3458e-05,-7.3179e-10,0,0.00013051,-4.2707e-06,254.82,-208.64,0,4.3541e+07,-18.31,12138,13320,1,13320,1,0.0002732,9.2453e-10,0,0.0002732,4.2474e-05,7.4706e+07,301.25,0,9.2035e+07,42.276,13319,12138,1,12138,1,2.3458e-05,-5.6616e-10,0,0.00012949,-4.2464e-06,7.4756e+06,-156.78,0,4.3573e+07,-20.909,12137,10979,1,10979,1,-0.00022628,-2.6872e-09,0,4.2897e-06,-5.103e-05,-9.2035e+07,-748.15,0,1.7997e+06,-123.03,10978,11571,1,11571,1,-0.00010603,-1.434e-09,0,6.4746e-05,-2.8497e-05,-4.3123e+07,-415.33,0,2.2816e+07,-31.358,11570,12705,1,12705,1,0.00015295,-6.7557e-11,0,0.00019424,1.9946e-05,4.3573e+07,-17.592,0,6.3425e+07,-3.6161,12704,656.67,0,656.67,0,0.00014946,8.7314e-10,0,7.6484e-05,2.7969e-05,5.0182e+07,247.52,0,2.4933e+07,23.409,656.67,1
2268,0.92,12139,1,12139,1,2.3713e-05,-8.4593e-10,0,0.00013193,-4.3172e-06,101.7,-243.06,0,4.4015e+07,-1.8805,12138,13320,1,13320,1,0.00027618,2.5513e-09,0,0.00027618,4.2938e-05,7.5521e+07,728.95,0,9.304e+07,63.36,13319,12138,1,12138,1,2.3713e-05,-4.1967e-10,0,0.0001309,-4.2924e-06,7.5569e+06,-120.37,0,4.4048e+07,-3.8931,12137,10979,1,10979,1,-0.00022875,-4.7374e-09,0,4.3369e-06,-5.1586e-05,-9.304e+07,-1294.3,0,1.8195e+06,-80.991,10978,11571,1,11571,1,-0.00010719,-1.9681e-09,0,6.5452e-05,-2.8808e-05,-4.3594e+07,-571.08,0,2.3064e+07,-24.031,11570,12705,1,12705,1,0.00015462,1.8907e-10,0,0.00019636,2.0163e-05,4.4048e+07,55.035,0,6.4116e+07,20.708,12704,656.67,0,656.67,0,0.00015109,1.6441e-09,0,7.7317e-05,2.8274e-05,5.0729e+07,468.28,0,2.5205e+07,30.565,656.67,1
2268,0.93,12139,1,12139,1,2.3971e-05,1.8093e-10,0,0.00013336,-4.364e-06,-138.24,51.369,0,4.4494e+07,-19.672,12138,13320,1,13320,1,0.00027918,3.8941e-09,0,0.00027918,4.3404e-05,7.634e+07,1071.8,0,9.4051e+07,60.304,13319,12138,1,12138,1,2.397e-05,-7.1714e-11,0,0.00013233,-4.3391e-06,7.6388e+06,-18.468,0,4.4527e+07,-17.058,12137,10979,1,10979,1,-0.00023124,-3.0313e-09,0,4.3849e-06,-5.2146e-05,-9.4051e+07,-843.85,0,1.8395e+06,-153.78,10978,11571,1,11571,1,-0.00010836,-7.3122e-10,0,6.6164e-05,-2.9121e-05,-4.4068e+07,-210.67,0,2.3315e+07,-55.479,11570,12705,1,12705,1,0.0001563,1.0517e-09,0,0.00019849,2.0383e-05,4.4527e+07,300.1,0,6.4813e+07,19.945,12704,656.67,0,656.67,0,0.00015273,1.3896e-09,0,7.8158e-05,2.8582e-05,5.1281e+07,395.01,0,2.5479e+07,44.792,656.67,1
2268,0.94,12139,1,12139,1,2.4227e-05,-3.5971e-10,0,0.00013479,-4.4107e-06,81.07,-102.32,0,4.4969e+07,1.7585,12138,13320,1,13320,1,0.00028217,5.4106e-09,0,0.00028217,4.3868e-05,7.7157e+07,1459.7,0,9.5056e+07,150.3,13319,12138,1,12138,1,2.4227e-05,-2.7699e-10,0,0.00013374,-4.3855e-06,7.7206e+06,-74.645,0,4.5003e+07,-3.368,12137,10979,1,10979,1,-0.00023371,-5.1053e-09,0,4.4312e-06,-5.2704e-05,-9.5056e+07,-1393.4,0,1.859e+06,-306.62,10978,11571,1,11571,1,-0.00010951,-1.8831e-09,0,6.687e-05,-2.9432e-05,-4.4538e+07,-542.61,0,2.3564e+07,-33.925,11570,12705,1,12705,1,0.00015797,8.0704e-10,0,0.00020061,2.06e-05,4.5003e+07,228.84,0,6.5506e+07,33.249,12704,656.67,0,656.67,0,0.00015436,2.15e-09,0,7.8993e-05,2.8887e-05,5.1829e+07,613.63,0,2.5751e+07,48.838,656.67,1
2268,0.95,12139,1,12139,1,2.4487e-05,-7.8381e-10,0,0.00013623,-4.458e-06,59.14,-224,0,4.5451e+07,-2.5258,12138,13320,1,13320,1,0.00028519,1.9553e-09,0,0.00028519,4.4338e-05,7.7984e+07,530.3,0,9.6075e+07,62.135,13319,12138,1,12138,1,2.4487e-05,-4.6056e-10,0,0.00013517,-4.4325e-06,7.8034e+06,-131.26,0,4.5485e+07,-5.6437,12137,10979,1,10979,1,-0.00023621,-3.9165e-09,0,4.4787e-06,-5.3269e-05,-9.6075e+07,-1064.4,0,1.8789e+06,-56.429,10978,11571,1,11571,1,-0.00011069,-1.6275e-09,0,6.7587e-05,-2.9748e-05,-4.5016e+07,-464.88,0,2.3817e+07,-20.305,11570,12705,1,12705,1,0.00015966,7.0654e-11,0,0.00020276,2.0821e-05,4.5485e+07,19.588,0,6.6208e+07,15.393,12704,656.67,0,656.67,0,0.00015602,1.2766e-09,0,7.984e-05,2.9197e-05,5.2384e+07,363.78,0,2.6027e+07,22.697,656.67,1
2268,0.96,12139,1,12139,1,2.4746e-05,-4.3527e-10,0,0.00013767,-4.5052e-06,19.097,-124.66,0,4.5932e+07,-14.365,12138,13320,1,13320,1,0.0002882,5.9626e-10,0,0.0002882,4.4807e-05,7.8808e+07,165.96,0,9.709e+07,36.926,13319,12138,1,12138,1,2.4746e-05,-3.5501e-10,0,0.0001366,-4.4795e-06,7.886e+06,-101.11,0,4.5966e+07,-10.727,12137,10979,1,10979,1,-0.00023871,-1.657e-09,0,4.5262e-06,-5.3832e-05,-9.709e+07,-459.39,0,1.8988e+06,-111.78,10978,11571,1,11571,1,-0.00011186,-8.5475e-10,0,6.8302e-05,-3.0062e-05,-4.5492e+07,-248.47,0,2.4069e+07,-24.368,11570,12705,1,12705,1,0.00016135,-5.6005e-12,0,0.00020491,2.1041e-05,4.5966e+07,-1.6255,0,6.6908e+07,1.4182,12704,656.67,0,656.67,0,0.00015767,5.2832e-10,0,8.0685e-05,2.9506e-05,5.2939e+07,150.94,0,2.6303e+07,24.488,656.67,1
2268,0.97,12139,1,12139,1,2.5005e-05,-3.5827e-10,0,0.00013912,-4.5523e-06,25.278,-102.32,0,4.6413e+07,-3.6537,12138,13320,1,13320,1,0.00029122,2.3791e-10,0,0.00029122,4.5275e-05,7.9631e+07,77.685,0,9.8105e+07,16.505,13319,12138,1,12138,1,2.5005e-05,-3.58e-10,0,0.00013803,-4.5263e-06,7.9685e+06,-102.38,0,4.6447e+07,-1.0494,12137,10979,1,10979,1,-0.00024121,-8.1762e-10,0,4.5735e-06,-5.4394e-05,-9.8105e+07,-227.65,0,1.9187e+06,-109.77,10978,11571,1,11571,1,-0.00011303,-5.4957e-10,0,6.9017e-05,-3.0377e-05,-4.5968e+07,-159.9,0,2.4321e+07,-6.5175,11570,12705,1,12705,1,0.00016304,-1.5903e-10,0,0.00020705,2.1262e-05,4.6447e+07,-44.904,0,6.7608e+07,2.6204,12704,656.67,0,656.67,0,0.00015932,2.3169e-10,0,8.1529e-05,2.9815e-05,5.3493e+07,65.749,0,2.6578e+07,10.797,656.67,1
2268,0.98,12139,1,12139,1,2.526e-05,-5.4093e-10,0,0.00014053,-4.5988e-06,70.53,-156.02,0,4.6886e+07,3.5296,12138,13320,1,13320,1,0.00029419,1.9366e-09,0,0.00029419,4.5738e-05,8.0445e+07,511.49,0,9.9107e+07,59.562,13319,12138,1,12138,1,2.526e-05,-3.7937e-10,0,0.00013944,-4.5724e-06,8.0498e+06,-110.39,0,4.6921e+07,1.6381,12137,10979,1,10979,1,-0.00024367,-2.8309e-09,0,4.6198e-06,-5.495e-05,-9.9107e+07,-770.58,0,1.9381e+06,-49.193,10978,11571,1,11571,1,-0.00011418,-1.3005e-09,0,6.9721e-05,-3.0687e-05,-4.6437e+07,-375.33,0,2.4569e+07,-10.78,11570,12705,1,12705,1,0.0001647,9.9174e-11,0,0.00020916,2.1479e-05,4.6921e+07,27.723,0,6.8298e+07,18.007,12704,656.67,0,656.67,0,0.00016095,1.025e-09,0,8.2361e-05,3.0119e-05,5.4038e+07,290.97,0,2.6849e+07,18.719,656.67,1
2268,0.99,12139,1,12139,1,2.5518e-05,-6.4512e-10,0,0.00014197,-4.6458e-06,7.7444,-183.61,0,4.7366e+07,-6.9642,12138,13320,1,13320,1,0.00029721,2.5635e-09,0,0.00029721,4.6206e-05,8.1269e+07,703.47,0,1.0012e+08,81.047,13319,12138,1,12138,1,2.5518e-05,-4.7234e-10,0,0.00014087,-4.6193e-06,8.1321e+06,-140.14,0,4.7401e+07,-7.6761,12137,10979,1,10979,1,-0.00024617,-3.3495e-09,0,4.6674e-06,-5.5513e-05,-1.0012e+08,-911.98,0,1.9581e+06,-126.81,10978,11571,1,11571,1,-0.00011535,-1.7143e-09,0,7.0435e-05,-3.1001e-05,-4.6913e+07,-491.76,0,2.482e+07,-31.4,11570,12705,1,12705,1,0.00016639,2.3063e-10,0,0.0002113,2.1698e-05,4.7401e+07,60.947,0,6.8997e+07,18.872,12704,656.67,0,656.67,0,0.00016259,1.3913e-09,0,8.3203e-05,3.0427e-05,5.4591e+07,395.55,0,2.7124e+07,36.417,656.67,1
2268,1,12139,1,12139,1,2.5777e-05,-3.3661e-10,0,0.00014341,-4.6929e-06,-41.334,-96.056,0,4.7847e+07,6.8911,12138,13320,1,13320,1,0.00030022,8.8325e-10,0,0.00030022,4.6674e-05,8.2093e+07,274.62,0,1.0114e+08,38.08,13319,12138,1,12138,1,2.5778e-05,-1.9534e-10,0,0.0001423,-4.6661e-06,8.2147e+06,-57.185,0,4.7882e+07,6.3189,12137,10979,1,10979,1,-0.00024866,-1.6879e-09,0,4.7151e-06,-5.6075e-05,-1.0114e+08,-469.95,0,1.9781e+06,-105.66,10978,11571,1,11571,1,-0.00011652,-8.0405e-10,0,7.115e-05,-3.1315e-05,-4.7389e+07,-232.55,0,2.5072e+07,-3.1659,11570,12705,1,12705,1,0.00016808,1.1811e-10,0,0.00021345,2.1919e-05,4.7882e+07,30.324,0,6.9698e+07,19.278,12704,656.67,0,656.67,0,0.00016424,6.3209e-10,0,8.4048e-05,3.0736e-05,5.5146e+07,179.6,0,2.7399e+07,15.723,656.67,1
2268,1.01,12139,1,12139,1,2.6036e-05,-6.1784e-10,0,0.00014485,-4.74e-06,-6.0684,-176.89,0,4.8327e+07,-4.4553,12138,13320,1,13320,1,0.00030322,2.7876e-11,0,0.00030322,4.7142e-05,8.2915e+07,9.5473,0,1.0215e+08,3.6633,13319,12138,1,12138,1,2.6036e-05,-6.8342e-10,0,0.00014372,-4.7129e-06,8.297e+06,-200.72,0,4.8362e+07,-2.0294,12137,10979,1,10979,1,-0.00025115,-1.1179e-09,0,4.7621e-06,-5.6637e-05,-1.0215e+08,-303.27,0,1.9978e+06,-72.796,10978,11571,1,11571,1,-0.00011769,-8.6842e-10,0,7.1862e-05,-3.1629e-05,-4.7863e+07,-252.4,0,2.5323e+07,-5.0075,11570,12705,1,12705,1,0.00016976,-3.7952e-10,0,0.00021559,2.2138e-05,4.8362e+07,-110.12,0,7.0396e+07,-0.30149,12704,656.67,0,656.67,0,0.00016589,3.1063e-10,0,8.4891e-05,3.1044e-05,5.5699e+07,87.792,0,2.7674e+07,8.0322,656.67,1
2268,1.02,12139,1,12139,1,2.6291e-05,-5.3662e-10,0,0.00014627,-4.7865e-06,13.023,-153.28,0,4.88e+07,-7.0032,12138,13320,1,13320,1,0.0003062,3.2947e-09,0,0.0003062,4.7605e-05,8.373e+07,977.67,0,1.0315e+08,81.197,13319,12138,1,12138,1,2.6291e-05,-3.55e-10,0,0.00014514,-4.7592e-06,8.3784e+06,-104.09,0,4.8836e+07,-10.228,12137,10979,1,10979,1,-0.00025362,-3.855e-09,0,4.8088e-06,-5.7194e-05,-1.0315e+08,-1056.9,0,2.0174e+06,-125.24,10978,11571,1,11571,1,-0.00011884,-1.6161e-09,0,7.2567e-05,-3.194e-05,-4.8333e+07,-462.09,0,2.5572e+07,-29.078,11570,12705,1,12705,1,0.00017143,2.8147e-10,0,0.0002177,2.2355e-05,4.8836e+07,82.643,0,7.1087e+07,20.677,12704,656.67,0,656.67,0,0.00016752,1.5336e-09,0,8.5723e-05,3.1348e-05,5.6244e+07,436.37,0,2.7945e+07,38.298,656.67,1
2268,1.03,12139,1,12139,1,2.655e-05,-3.5128e-10,0,0.00014771,-4.8336e-06,8.9913,-100.07,0,4.928e+07,-24.109,12138,13320,1,13320,1,0.00030921,2.4541e-09,0,0.00030921,4.8072e-05,8.4552e+07,667.78,0,1.0417e+08,70.553,13319,12138,1,12138,1,2.655e-05,-2.3087e-10,0,0.00014656,-4.8061e-06,8.4608e+06,-62.127,0,4.9316e+07,-16.253,12137,10979,1,10979,1,-0.00025611,-2.7408e-09,0,4.856e-06,-5.7755e-05,-1.0417e+08,-755.2,0,2.0372e+06,-212.84,10978,11571,1,11571,1,-0.00012001,-1.2024e-09,0,7.328e-05,-3.2253e-05,-4.8808e+07,-346.37,0,2.5823e+07,-46.571,11570,12705,1,12705,1,0.00017311,3.0831e-10,0,0.00021984,2.2575e-05,4.9316e+07,90.414,0,7.1785e+07,9.0725,12704,656.67,0,656.67,0,0.00016916,1.1458e-09,0,8.6566e-05,3.1656e-05,5.6797e+07,327.46,0,2.822e+07,50.01,656.67,1
2268,1.04,12139,1,12139,1,2.6807e-05,-3.4791e-10,0,0.00014914,-4.8804e-06,38.108,-99.522,0,4.9757e+07,-0.7033,12138,13320,1,13320,1,0.00031221,2.4011e-09,0,0.00031221,4.8538e-05,8.5371e+07,620.12,0,1.0518e+08,51.369,13319,12138,1,12138,1,2.6807e-05,-1.9421e-10,0,0.00014798,-4.8525e-06,8.5427e+06,-52.449,0,4.9794e+07,-1.9577,12137,10979,1,10979,1,-0.00025859,-3.0289e-09,0,4.903e-06,-5.8315e-05,-1.0518e+08,-829.21,0,2.0569e+06,-105.18,10978,11571,1,11571,1,-0.00012117,-1.1154e-09,0,7.3991e-05,-3.2566e-05,-4.9281e+07,-317.49,0,2.6073e+07,-14.889,11570,12705,1,12705,1,0.00017479,2.8594e-10,0,0.00022197,2.2794e-05,4.9794e+07,79.798,0,7.248e+07,17.97,12704,656.67,0,656.67,0,0.0001708,1.098e-09,0,8.7404e-05,3.1963e-05,5.7347e+07,312.13,0,2.8493e+07,24.596,656.67,1
2268,1.05,12139,1,12139,1,2.7066e-05,-1.9018e-10,0,0.00015058,-4.9278e-06,-23.377,-54.245,0,5.0239e+07,-77.743,12138,13320,1,13320,1,0.00031522,9.7747e-10,0,0.00031522,4.9007e-05,8.6195e+07,318.6,0,1.0619e+08,39.783,13319,12138,1,12138,1,2.7066e-05,-1.0191e-10,0,0.00014941,-4.8998e-06,8.6253e+06,-28.342,0,5.0275e+07,-66.761,12137,10979,1,10979,1,-0.00026109,-1.4444e-09,0,4.9504e-06,-5.8878e-05,-1.0619e+08,-471.86,0,2.0768e+06,-405.61,10978,11571,1,11571,1,-0.00012235,-4.8304e-10,0,7.4706e-05,-3.2881e-05,-4.9757e+07,-140.39,0,2.6325e+07,-113.96,11570,12705,1,12705,1,0.00017648,6.6334e-11,0,0.00022412,2.3014e-05,5.0275e+07,19.341,0,7.3181e+07,-28.763,12704,656.67,0,656.67,0,0.00017245,4.01e-10,0,8.825e-05,3.2272e-05,5.7902e+07,116.28,0,2.8769e+07,63.262,656.67,1
2268,1.06,12139,1,12139,1,2.7324e-05,1.4945e-10,0,0.00015202,-4.9745e-06,5.3704,42.773,0,5.0717e+07,-0.84205,12138,13320,1,13320,1,0.00031822,1.058e-09,0,0.00031822,4.9474e-05,8.7017e+07,299.52,0,1.072e+08,25.39,13319,12138,1,12138,1,2.7324e-05,4.8916e-11,0,0.00015084,-4.9461e-06,8.7076e+06,13.437,0,5.0755e+07,-0.3578,12137,10979,1,10979,1,-0.00026358,-1.7911e-10,0,4.9976e-06,-5.9439e-05,-1.072e+08,-61.28,0,2.0966e+06,-43.862,10978,11571,1,11571,1,-0.00012351,-3.3058e-11,0,7.5418e-05,-3.3194e-05,-5.0232e+07,-9.3518,0,2.6576e+07,-4.0913,11570,12705,1,12705,1,0.00017816,2.821e-10,0,0.00022625,2.3234e-05,5.0755e+07,80.063,0,7.3879e+07,5.184,12704,656.67,0,656.67,0,0.0001741,2.5953e-10,0,8.9091e-05,3.258e-05,5.8454e+07,75.246,0,2.9043e+07,9.7873,656.67,1
2268,1.07,12139,1,12139,1,2.758e-05,-6.8901e-10,0,0.00015344,-5.0211e-06,19.349,-196.97,0,5.1192e+07,-5.7174,12138,13320,1,13320,1,0.00032122,3.286e-09,0,0.00032122,4.9939e-05,8.7835e+07,923.53,0,1.0821e+08,131.75,13319,12138,1,12138,1,2.758e-05,-5.563e-10,0,0.00015225,-4.9924e-06,8.7891e+06,-157.84,0,5.123e+07,-10.437,12137,10979,1,10979,1,-0.00026605,-3.8424e-09,0,5.0445e-06,-5.9998e-05,-1.0821e+08,-1053.7,0,2.1163e+06,-123.24,10978,11571,1,11571,1,-0.00012467,-1.8705e-09,0,7.6125e-05,-3.3505e-05,-5.0702e+07,-542.43,0,2.6825e+07,-33.524,11570,12705,1,12705,1,0.00017983,2.3888e-10,0,0.00022837,2.3451e-05,5.123e+07,69.558,0,7.4571e+07,17.505,12704,656.67,0,656.67,0,0.00017573,1.5544e-09,0,8.9925e-05,3.2885e-05,5.9002e+07,444.01,0,2.9315e+07,39.18,656.67,1
2268,1.08,12139,1,12139,1,2.7838e-05,-1.5754e-10,0,0.00015488,-5.0682e-06,0.73941,-44.793,0,5.1672e+07,-6.9433,12138,13320,1,13320,1,0.00032422,1.5256e-09,0,0.00032422,5.0405e-05,8.8655e+07,475.33,0,1.0922e+08,42.066,13319,12138,1,12138,1,2.7838e-05,-1.0954e-10,0,0.00015368,-5.0393e-06,8.8715e+06,-30.415,0,5.171e+07,-5.0923,12137,10979,1,10979,1,-0.00026854,-1.917e-09,0,5.0918e-06,-6.0558e-05,-1.0922e+08,-533.7,0,2.1361e+06,-158.06,10978,11571,1,11571,1,-0.00012584,-5.8705e-10,0,7.6838e-05,-3.3819e-05,-5.1177e+07,-168.19,0,2.7076e+07,-18.005,11570,12705,1,12705,1,0.00018151,2.0079e-10,0,0.00023051,2.3671e-05,5.171e+07,58.088,0,7.5269e+07,11.733,12704,656.67,0,656.67,0,0.00017737,6.6777e-10,0,9.0768e-05,3.3193e-05,5.9554e+07,190.35,0,2.959e+07,26.826,656.67,1
2268,1.09,12139,1,12139,1,2.8095e-05,-2.1878e-10,0,0.00015631,-5.1149e-06,-17.634,-63.861,0,5.2148e+07,4.5812,12138,13320,1,13320,1,0.00032721,2.8437e-09,0,0.00032721,5.087e-05,8.9473e+07,772.15,0,1.1023e+08,85.218,13319,12138,1,12138,1,2.8095e-05,-1.5106e-10,0,0.00015509,-5.0856e-06,8.9533e+06,-46.079,0,5.2187e+07,1.2192,12137,10979,1,10979,1,-0.00027102,-2.4972e-09,0,5.1387e-06,-6.1117e-05,-1.1023e+08,-705.34,0,2.1558e+06,-76.466,10978,11571,1,11571,1,-0.000127,-9.9752e-10,0,7.7546e-05,-3.4131e-05,-5.1649e+07,-285.95,0,2.7326e+07,-17.264,11570,12705,1,12705,1,0.00018319,3.4028e-10,0,0.00023264,2.3889e-05,5.2187e+07,94.024,0,7.5963e+07,23.367,12704,656.67,0,656.67,0,0.00017901,1.0904e-09,0,9.1604e-05,3.3499e-05,6.0103e+07,312.46,0,2.9862e+07,28.883,656.67,1
2268,1.1,12139,1,12139,1,2.8352e-05,-1.1153e-09,0,0.00015774,-5.1617e-06,101.01,-317.57,0,5.2625e+07,7.7909,12138,13320,1,13320,1,0.00033021,3.4285e-09,0,0.00033021,5.1337e-05,9.0295e+07,937.65,0,1.1124e+08,106.97,13319,12138,1,12138,1,2.8352e-05,-8.4971e-10,0,0.00015651,-5.1322e-06,9.0353e+06,-250.67,0,5.2665e+07,3.0844,12137,10979,1,10979,1,-0.0002735,-5.3606e-09,0,5.1853e-06,-6.1678e-05,-1.1124e+08,-1456.2,0,2.1754e+06,-90.82,10978,11571,1,11571,1,-0.00012816,-2.4907e-09,0,7.8256e-05,-3.4443e-05,-5.2122e+07,-726.56,0,2.7576e+07,-19.951,11570,12705,1,12705,1,0.00018486,1.0689e-10,0,0.00023477,2.4108e-05,5.2665e+07,30.416,0,7.6659e+07,36.629,12704,656.67,0,656.67,0,0.00018065,1.894e-09,0,9.2442e-05,3.3805e-05,6.0653e+07,537.69,0,3.0135e+07,37.975,656.67,1
2268,1.11,12139,1,12139,1,2.8615e-05,3.2761e-10,0,0.0001592,-5.2096e-06,-0.083236,93.483,0,5.3114e+07,-11.371,12138,13320,1,13320,1,0.00033326,1.1107e-09,0,0.00033326,5.1811e-05,9.1128e+07,295.67,0,1.1227e+08,46.216,13319,12138,1,12138,1,2.8615e-05,3.2478e-10,0,0.00015796,-5.1799e-06,9.119e+06,94.334,0,5.3152e+07,-7.9238,12137,10979,1,10979,1,-0.00027603,-3.6096e-10,0,5.2335e-06,-6.2247e-05,-1.1227e+08,-100.5,0,2.1956e+06,-109.77,10978,11571,1,11571,1,-0.00012935,7.9641e-11,0,7.8981e-05,-3.4762e-05,-5.2604e+07,23.479,0,2.7832e+07,-18.606,11570,12705,1,12705,1,0.00018658,5.3511e-10,0,0.00023694,2.4331e-05,5.3152e+07,157.38,0,7.7369e+07,-2.0536,12704,656.67,0,656.67,0,0.00018232,2.926e-10,0,9.33e-05,3.4119e-05,6.1216e+07,81.91,0,3.0415e+07,16.7,656.67,1
2268,1.12,12139,1,12139,1,2.8869e-05,-3.767e-10,0,0.00016061,-5.2557e-06,-14.698,-108.32,0,5.3584e+07,4.7039,12138,13320,1,13320,1,0.00033622,2.9646e-09,0,0.00033622,5.2271e-05,9.1937e+07,810.28,0,1.1326e+08,72.461,13319,12138,1,12138,1,2.8869e-05,-1.9667e-10,0,0.00015936,-5.2256e-06,9.1998e+06,-56.745,0,5.3623e+07,1.503,12137,10979,1,10979,1,-0.00027848,-3.7539e-09,0,5.2803e-06,-6.28e-05,-1.1326e+08,-1021.9,0,2.2152e+06,-56.54,10978,11571,1,11571,1,-0.00013049,-1.3015e-09,0,7.9681e-05,-3.507e-05,-5.3071e+07,-375.38,0,2.8078e+07,-15.949,11570,12705,1,12705,1,0.00018823,4.352e-10,0,0.00023904,2.4547e-05,5.3623e+07,122.39,0,7.8055e+07,25.375,12704,656.67,0,656.67,0,0.00018394,1.4288e-09,0,9.4126e-05,3.4421e-05,6.1758e+07,407.26,0,3.0684e+07,25.786,656.67,1
2268,1.13,12139,1,12139,1,2.9126e-05,8.0373e-11,0,0.00016204,-5.3026e-06,5.0366,22.562,0,5.4062e+07,1.306,12138,13320,1,13320,1,0.00033921,4.6391e-09,0,0.00033921,5.2737e-05,9.2756e+07,1393.3,0,1.1427e+08,92.369,13319,12138,1,12138,1,2.9126e-05,1.2789e-11,0,0.00016078,-5.2723e-06,9.2817e+06,4.3773,0,5.4101e+07,-4.9653,12137,10979,1,10979,1,-0.00028096,-3.9278e-09,0,5.3273e-06,-6.3359e-05,-1.1427e+08,-1093.8,0,2.2349e+06,-97.698,10978,11571,1,11571,1,-0.00013166,-1.075e-09,0,8.0391e-05,-3.5383e-05,-5.3544e+07,-306.84,0,2.8329e+07,-30.593,11570,12705,1,12705,1,0.00018991,1.1843e-09,0,0.00024117,2.4766e-05,5.4101e+07,333.03,0,7.875e+07,32.092,12704,656.67,0,656.67,0,0.00018558,1.8064e-09,0,9.4965e-05,3.4728e-05,6.2308e+07,515.88,0,3.0958e+07,40.856,656.67,1
2268,1.14,12139,1,12139,1,2.9385e-05,-1.5762e-10,0,0.00016348,-5.3499e-06,14.504,-45.222,0,5.4543e+07,-22.299,12138,13320,1,13320,1,0.00034223,1.3217e-09,0,0.00034223,5.3206e-05,9.3581e+07,368.01,0,1.1529e+08,19.578,13319,12138,1,12138,1,2.9385e-05,-7.5302e-11,0,0.00016221,-5.3194e-06,9.3645e+06,-21.644,0,5.4583e+07,-11.714,12137,10979,1,10979,1,-0.00028346,-1.3883e-09,0,5.3745e-06,-6.3923e-05,-1.1529e+08,-386.51,0,2.2547e+06,-153.13,10978,11571,1,11571,1,-0.00013283,-5.3711e-10,0,8.1107e-05,-3.5698e-05,-5.4021e+07,-154.93,0,2.8581e+07,-35.407,11570,12705,1,12705,1,0.0001916,1.6006e-10,0,0.00024332,2.4986e-05,5.4583e+07,45.33,0,7.9452e+07,0.36212,12704,656.67,0,656.67,0,0.00018723,5.1308e-10,0,9.5811e-05,3.5037e-05,6.2864e+07,146.04,0,3.1234e+07,32.466,656.67,1
2268,1.15,12139,1,12139,1,2.9643e-05,1.2321e-10,0,0.00016492,-5.3966e-06,-33.611,34.222,0,5.5021e+07,3.8661,12138,13320,1,13320,1,0.00034523,2.5481e-09,0,0.00034523,5.3672e-05,9.4401e+07,693.12,0,1.163e+08,77.204,13319,12138,1,12138,1,2.9643e-05,-1.7302e-11,0,0.00016364,-5.3658e-06,9.4465e+06,-5.3002,0,5.5061e+07,2.1348,12137,10979,1,10979,1,-0.00028594,-1.6244e-09,0,5.4217e-06,-6.4483e-05,-1.163e+08,-451.88,0,2.2745e+06,-100.66,10978,11571,1,11571,1,-0.00013399,-4.5652e-10,0,8.1818e-05,-3.6011e-05,-5.4494e+07,-132.82,0,2.8831e+07,-12.634,11570,12705,1,12705,1,0.00019328,6.3563e-10,0,0.00024545,2.5205e-05,5.5061e+07,181.59,0,8.0148e+07,20.262,12704,656.67,0,656.67,0,0.00018887,8.7309e-10,0,9.665e-05,3.5344e-05,6.3414e+07,246.49,0,3.1507e+07,27.183,656.67,1
2268,1.16,12139,1,12139,1,2.9903e-05,-7.841e-10,0,0.00016636,-5.4442e-06,153.48,-223.99,0,5.5504e+07,-24.101,12138,13320,1,13320,1,0.00034826,5.453e-10,0,0.00034826,5.4144e-05,9.5231e+07,178.12,0,1.1732e+08,45.97,13319,12138,1,12138,1,2.9903e-05,-7.0635e-10,0,0.00016507,-5.4131e-06,9.5295e+06,-203.72,0,5.5545e+07,-24.235,12137,10979,1,10979,1,-0.00028846,-2.3026e-09,0,5.4684e-06,-6.505e-05,-1.1732e+08,-626.78,0,2.2942e+06,-153.12,10978,11571,1,11571,1,-0.00013517,-1.3392e-09,0,8.2536e-05,-3.6327e-05,-5.4972e+07,-390.91,0,2.9084e+07,-38.365,11570,12705,1,12705,1,0.00019497,-1.7258e-10,0,0.00024761,2.5426e-05,5.5545e+07,-47.32,0,8.0851e+07,-9.9267,12704,656.67,0,656.67,0,0.00019053,6.8367e-10,0,9.7499e-05,3.5654e-05,6.3971e+07,193.86,0,3.1784e+07,22.265,656.67,1
2268,1.17,12139,1,12139,1,3.0157e-05,-1.404e-10,0,0.00016778,-5.4903e-06,6.9072,-41.615,0,5.5976e+07,16.285,12138,13320,1,13320,1,0.00035122,3.2113e-09,0,0.00035122,5.4604e-05,9.604e+07,835.7,0,1.1832e+08,76.102,13319,12138,1,12138,1,3.0157e-05,-8.3991e-11,0,0.00016648,-5.4589e-06,9.6105e+06,-24.84,0,5.6017e+07,13.362,12137,10979,1,10979,1,-0.00029091,-3.2872e-09,0,5.5157e-06,-6.5603e-05,-1.1832e+08,-896.96,0,2.314e+06,-55.986,10978,11571,1,11571,1,-0.00013632,-1.0029e-09,0,8.3238e-05,-3.6636e-05,-5.544e+07,-287.25,0,2.9332e+07,-5.414,11570,12705,1,12705,1,0.00019663,5.9755e-10,0,0.00024971,2.5643e-05,5.6017e+07,177.04,0,8.1539e+07,40.246,12704,656.67,0,656.67,0,0.00019215,1.3138e-09,0,9.8328e-05,3.5958e-05,6.4515e+07,372.48,0,3.2054e+07,26.403,656.67,1
2268,1.18,12139,1,12139,1,3.0415e-05,-4.9035e-10,0,0.00016921,-5.5373e-06,-35.283,-139.92,0,5.6454e+07,-12.158,12138,13320,1,13320,1,0.00035423,3.7503e-09,0,0.00035423,5.5071e-05,9.6861e+07,1134.1,0,1.1933e+08,89.657,13319,12138,1,12138,1,3.0415e-05,-2.7573e-10,0,0.0001679,-5.5057e-06,9.6925e+06,-77.468,0,5.6496e+07,-14.128,12137,10979,1,10979,1,-0.0002934,-4.6227e-09,0,5.5629e-06,-6.6164e-05,-1.1933e+08,-1281.9,0,2.3338e+06,-135.09,10978,11571,1,11571,1,-0.00013748,-1.7488e-09,0,8.3949e-05,-3.6949e-05,-5.5913e+07,-494.09,0,2.9582e+07,-44.915,11570,12705,1,12705,1,0.00019831,6.4359e-10,0,0.00025185,2.5862e-05,5.6496e+07,184.33,0,8.2236e+07,21.783,12704,656.67,0,656.67,0,0.00019379,1.8016e-09,0,9.9168e-05,3.6265e-05,6.5066e+07,514.53,0,3.2328e+07,46.496,656.67,1
2268,1.19,12139,1,12139,1,3.0673e-05,-7.6117e-10,0,0.00017065,-5.5842e-06,-32.326,-217.63,0,5.6934e+07,11.115,12138,13320,1,13320,1,0.00035724,2.9109e-09,0,0.00035724,5.554e-05,9.7685e+07,791.04,0,1.2035e+08,90.45,13319,12138,1,12138,1,3.0673e-05,-3.7308e-10,0,0.00016933,-5.5522e-06,9.7749e+06,-109.27,0,5.6976e+07,7.6587,12137,10979,1,10979,1,-0.00029589,-4.9171e-09,0,5.6102e-06,-6.6726e-05,-1.2035e+08,-1338.5,0,2.3536e+06,-65.477,10978,11571,1,11571,1,-0.00013865,-2.0092e-09,0,8.4663e-05,-3.7263e-05,-5.6389e+07,-570.94,0,2.9834e+07,-14.032,11570,12705,1,12705,1,0.0002,3.5115e-10,0,0.00025399,2.6082e-05,5.6976e+07,101.75,0,8.2935e+07,34.545,12704,656.67,0,656.67,0,0.00019544,1.7685e-09,0,0.00010001,3.6573e-05,6.5619e+07,503.95,0,3.2603e+07,32.46,656.67,1
2268,1.2,12139,1,12139,1,3.0932e-05,-8.8455e-11,0,0.00017209,-5.6314e-06,-12.468,-24.943,0,5.7414e+07,-8.8753,12138,13320,1,13320,1,0.00036024,3.6316e-10,0,0.00036024,5.6006e-05,9.8506e+07,101.16,0,1.2136e+08,16.475,13319,12138,1,12138,1,3.0932e-05,-3.5275e-11,0,0.00017075,-5.5992e-06,9.8574e+06,-9.2686,0,5.7456e+07,-4.5499,12137,10979,1,10979,1,-0.00029838,-1.2603e-09,0,5.6574e-06,-6.7287e-05,-1.2136e+08,-350.94,0,2.3734e+06,-54.54,10978,11571,1,11571,1,-0.00013982,-1.9766e-10,0,8.5376e-05,-3.7577e-05,-5.6864e+07,-56.685,0,3.0085e+07,-16.88,11570,12705,1,12705,1,0.00020168,1.0332e-10,0,0.00025613,2.6301e-05,5.7456e+07,29.747,0,8.3633e+07,2.404,12704,656.67,0,656.67,0,0.00019708,2.8226e-10,0,0.00010085,3.6881e-05,6.6172e+07,79.663,0,3.2878e+07,15.359,656.67,1
2268,1.21,12139,1,12139,1,3.1189e-05,-8.1703e-10,0,0.00017352,-5.6781e-06,-48.794,-233.16,0,5.789e+07,-20.25,12138,13320,1,13320,1,0.00036324,4.5817e-09,0,0.00036324,5.6473e-05,9.9327e+07,1223.2,0,1.2237e+08,131.23,13319,12138,1,12138,1,3.1189e-05,-4.17e-10,0,0.00017217,-5.6461e-06,9.9391e+06,-121.87,0,5.7933e+07,-9.9264,12137,10979,1,10979,1,-0.00030086,-7.2908e-09,0,5.7045e-06,-6.7848e-05,-1.2237e+08,-2029.8,0,2.3932e+06,-607.76,10978,11571,1,11571,1,-0.00014098,-2.4658e-09,0,8.6084e-05,-3.7889e-05,-5.7336e+07,-716.91,0,3.0335e+07,-49.964,11570,12705,1,12705,1,0.00020336,6.6567e-10,0,0.00025825,2.652e-05,5.7933e+07,195.13,0,8.4328e+07,38.222,12704,656.67,0,656.67,0,0.00019872,2.3893e-09,0,0.00010169,3.7187e-05,6.6721e+07,677.77,0,3.315e+07,96.827,656.67,1
2268,1.22,12139,1,12139,1,3.1447e-05,1.4429e-10,0,0.00017496,-5.7254e-06,0.57205,41.939,0,5.837e+07,-62.568,12138,13320,1,13320,1,0.00036624,2.1015e-09,0,0.00036624,5.6939e-05,1.0015e+08,613.98,0,1.2338e+08,109,13319,12138,1,12138,1,3.1447e-05,1.7904e-11,0,0.0001736,-5.6931e-06,1.0022e+07,4.9496,0,5.8413e+07,-35.668,12137,10979,1,10979,1,-0.00030335,-3.0763e-09,0,5.7516e-06,-6.841e-05,-1.2338e+08,-856.64,0,2.4129e+06,-977.42,10978,11571,1,11571,1,-0.00014215,-1.6307e-10,0,8.6798e-05,-3.8203e-05,-5.7811e+07,-47.228,0,3.0586e+07,-99.546,11570,12705,1,12705,1,0.00020504,4.9356e-10,0,0.00026039,2.6739e-05,5.8413e+07,141.19,0,8.5026e+07,5.7807,12704,656.67,0,656.67,0,0.00020037,6.4772e-10,0,0.00010253,3.7496e-05,6.7274e+07,180.95,0,3.3425e+07,103.65,656.67,1
2268,1.23,12139,1,12139,1,3.1705e-05,5.927e-11,0,0.00017639,-5.7721e-06,8.3649,15.968,0,5.8848e+07,-4.9858,12138,13320,1,13320,1,0.00036925,4.694e-09,0,0.00036925,5.7406e-05,1.0097e+08,1280.6,0,1.2439e+08,88.359,13319,12138,1,12138,1,3.1705e-05,-1.1709e-10,0,0.00017502,-5.7391e-06,1.0104e+07,-34.905,0,5.8891e+07,-2.1707,12137,10979,1,10979,1,-0.00030583,-3.143e-09,0,5.7987e-06,-6.8969e-05,-1.2439e+08,-874.97,0,2.4327e+06,-168.87,10978,11571,1,11571,1,-0.00014331,-1.1971e-09,0,8.7508e-05,-3.8516e-05,-5.8284e+07,-341.38,0,3.0837e+07,-24.939,11570,12705,1,12705,1,0.00020672,1.0192e-09,0,0.00026253,2.6958e-05,5.8891e+07,292.75,0,8.5723e+07,22.85,12704,656.67,0,656.67,0,0.00020201,1.7216e-09,0,0.00010337,3.7803e-05,6.7825e+07,487.63,0,3.3699e+07,42.562,656.67,1
2268,1.24,12139,1,12139,1,3.1963e-05,-5.2567e-10,0,0.00017783,-5.8192e-06,-48.874,-150.19,0,5.9328e+07,-4.7723,12138,13320,1,13320,1,0.00037226,2.4017e-09,0,0.00037226,5.7875e-05,1.0179e+08,645.05,0,1.2541e+08,65.722,13319,12138,1,12138,1,3.1963e-05,-3.5152e-10,0,0.00017645,-5.786e-06,1.0186e+07,-98.252,0,5.9372e+07,-7.5618,12137,10979,1,10979,1,-0.00030833,-3.154e-09,0,5.846e-06,-6.9532e-05,-1.2541e+08,-866.21,0,2.4525e+06,-116.96,10978,11571,1,11571,1,-0.00014448,-1.4284e-09,0,8.8223e-05,-3.883e-05,-5.876e+07,-411.96,0,3.1088e+07,-24.356,11570,12705,1,12705,1,0.00020841,2.2466e-10,0,0.00026467,2.7178e-05,5.9372e+07,63.175,0,8.6422e+07,17.209,12704,656.67,0,656.67,0,0.00020366,1.2314e-09,0,0.00010422,3.8111e-05,6.8378e+07,350.18,0,3.3974e+07,30.464,656.67,1
2268,1.25,12139,1,12139,1,3.2224e-05,-1.6783e-10,0,0.00017928,-5.8667e-06,4.9172,-46.861,0,5.9812e+07,-10.16,12138,13320,1,13320,1,0.00037529,7.0128e-10,0,0.00037529,5.8345e-05,1.0262e+08,181.23,0,1.2643e+08,28.09,13319,12138,1,12138,1,3.2224e-05,-9.1445e-11,0,0.00017788,-5.8332e-06,1.0269e+07,-24.622,0,5.9855e+07,-5.255,12137,10979,1,10979,1,-0.00031084,-1.2392e-09,0,5.8934e-06,-7.0097e-05,-1.2643e+08,-329.92,0,2.4724e+06,-105.32,10978,11571,1,11571,1,-0.00014566,-3.6404e-10,0,8.8942e-05,-3.9146e-05,-5.9239e+07,-103.22,0,3.1342e+07,-17.667,11570,12705,1,12705,1,0.00021011,8.4799e-11,0,0.00026682,2.74e-05,5.9855e+07,24.368,0,8.7126e+07,0.057151,12704,656.67,0,656.67,0,0.00020532,3.6352e-10,0,0.00010507,3.8422e-05,6.8936e+07,101.35,0,3.4251e+07,18.208,656.67,1
2268,1.26,12139,1,12139,1,3.2479e-05,-5.9773e-10,0,0.0001807,-5.9131e-06,-8.7132,-170.89,0,6.0285e+07,-6.9912,12138,13320,1,13320,1,0.00037826,6.6201e-11,0,0.00037826,5.8808e-05,1.0343e+08,15.096,0,1.2743e+08,29.967,13319,12138,1,12138,1,3.2479e-05,-5.4884e-10,0,0.00017929,-5.8793e-06,1.035e+07,-157.72,0,6.0329e+07,-1.6343,12137,10979,1,10979,1,-0.0003133,-1.6669e-09,0,5.9402e-06,-7.0653e-05,-1.2743e+08,-482.34,0,2.4921e+06,-343.8,10978,11571,1,11571,1,-0.00014681,-8.4307e-10,0,8.9646e-05,-3.9456e-05,-5.9708e+07,-239.51,0,3.159e+07,-8.7339,11570,12705,1,12705,1,0.00021177,-3.0165e-10,0,0.00026894,2.7617e-05,6.0329e+07,-87.602,0,8.7816e+07,2.5402,12704,656.67,0,656.67,0,0.00020694,3.9279e-10,0,0.0001059,3.8726e-05,6.9482e+07,111.51,0,3.4522e+07,24.367,656.67,1
2268,1.27,12139,1,12139,1,3.2736e-05,-3.8369e-10,0,0.00018213,-5.96e-06,-21.461,-109.65,0,6.0763e+07,-35.166,12138,13320,1,13320,1,0.00038126,2.1049e-09,0,0.00038126,5.9273e-05,1.0425e+08,585.71,0,1.2844e+08,42.081,13319,12138,1,12138,1,3.2736e-05,-2.4317e-10,0,0.00018071,-5.9261e-06,1.0432e+07,-66.684,0,6.0807e+07,-28.319,12137,10979,1,10979,1,-0.00031578,-2.5136e-09,0,5.9873e-06,-7.1213e-05,-1.2844e+08,-699.9,0,2.5118e+06,-243.8,10978,11571,1,11571,1,-0.00014797,-1.0924e-09,0,9.0356e-05,-3.9769e-05,-6.0181e+07,-313.53,0,3.184e+07,-58.815,11570,12705,1,12705,1,0.00021345,1.7112e-10,0,0.00027107,2.7835e-05,6.0807e+07,53.695,0,8.8512e+07,-3.1164,12704,656.67,0,656.67,0,0.00020858,9.37e-10,0,0.00010674,3.9033e-05,7.0032e+07,264.72,0,3.4795e+07,45.348,656.67,1
2268,1.28,12139,1,12139,1,3.2996e-05,-7.6464e-10,0,0.00018357,-6.0071e-06,38.304,-218.15,0,6.1244e+07,-10.353,12138,13320,1,13320,1,0.00038428,4.683e-10,0,0.00038428,5.9743e-05,1.0508e+08,152.72,0,1.2946e+08,26.344,13319,12138,1,12138,1,3.2996e-05,-6.2951e-10,0,0.00018214,-5.9728e-06,1.0515e+07,-183.45,0,6.1288e+07,-8.628,12137,10979,1,10979,1,-0.00031829,-2.4639e-09,0,6.0344e-06,-7.1777e-05,-1.2946e+08,-667.37,0,2.5316e+06,-83.934,10978,11571,1,11571,1,-0.00014915,-1.2598e-09,0,9.1071e-05,-4.0084e-05,-6.0657e+07,-362.87,0,3.2092e+07,-20.49,11570,12705,1,12705,1,0.00021514,-1.6614e-10,0,0.00027321,2.8056e-05,6.1288e+07,-46.902,0,8.9212e+07,2.264,12704,656.67,0,656.67,0,0.00021023,7.0919e-10,0,0.00010758,3.9342e-05,7.0586e+07,201.22,0,3.5071e+07,18.285,656.67,1
2268,1.29,12139,1,12139,1,3.3251e-05,-4.0748e-10,0,0.00018499,-6.0536e-06,-13.774,-115.8,0,6.1719e+07,6.4321,12138,13320,1,13320,1,0.00038726,2.607e-09,0,0.00038726,6.0206e-05,1.0589e+08,711.01,0,1.3046e+08,78.855,13319,12138,1,12138,1,3.3251e-05,-2.4633e-10,0,0.00018355,-6.019e-06,1.0596e+07,-68.377,0,6.1763e+07,2.3778,12137,10979,1,10979,1,-0.00032075,-3.3497e-09,0,6.0815e-06,-7.2333e-05,-1.3046e+08,-912.38,0,2.5513e+06,-56.509,10978,11571,1,11571,1,-0.0001503,-1.2673e-09,0,9.1777e-05,-4.0394e-05,-6.1127e+07,-356.46,0,3.2341e+07,-14.268,11570,12705,1,12705,1,0.00021681,3.0784e-10,0,0.00027533,2.8273e-05,6.1763e+07,87.825,0,8.9904e+07,26.859,12704,656.67,0,656.67,0,0.00021186,1.2942e-09,0,0.00010842,3.9647e-05,7.1133e+07,369.31,0,3.5343e+07,26.335,656.67,1
2268,1.3,12139,1,12139,1,3.3509e-05,-3.9335e-11,0,0.00018643,-6.1005e-06,-6.7878,-11.458,0,6.2197e+07,7.5038,12138,13320,1,13320,1,0.00039026,3.9906e-09,0,0.00039026,6.0672e-05,1.0671e+08,1081.4,0,1.3147e+08,93.101,13319,12138,1,12138,1,3.3509e-05,-2.8032e-11,0,0.00018498,-6.0656e-06,1.0679e+07,-8.3483,0,6.2242e+07,2.7358,12137,10979,1,10979,1,-0.00032324,-3.2436e-09,0,6.1285e-06,-7.2893e-05,-1.3147e+08,-886.07,0,2.5711e+06,-91.057,10978,11571,1,11571,1,-0.00015147,-1.0234e-09,0,9.2488e-05,-4.0707e-05,-6.1601e+07,-298.39,0,3.2591e+07,-18.519,11570,12705,1,12705,1,0.00021849,8.8086e-10,0,0.00027746,2.8492e-05,6.2242e+07,255.53,0,9.06e+07,37.022,12704,656.67,0,656.67,0,0.0002135,1.5116e-09,0,0.00010926,3.9954e-05,7.1684e+07,430.11,0,3.5616e+07,36.928,656.67,1
2268,1.31,12139,1,12139,1,3.3769e-05,-1.6831e-10,0,0.00018787,-6.1478e-06,6.5196,-47.99,0,6.2678e+07,1.229,12138,13320,1,13320,1,0.00039327,6.532e-10,0,0.00039327,6.1142e-05,1.0754e+08,179.34,0,1.3249e+08,34.455,13319,12138,1,12138,1,3.3769e-05,-1.1711e-10,0,0.00018641,-6.1126e-06,1.0761e+07,-32.191,0,6.2724e+07,-0.33452,12137,10979,1,10979,1,-0.00032574,-9.5303e-10,0,6.1759e-06,-7.3457e-05,-1.3249e+08,-264.6,0,2.5909e+06,-36.758,10978,11571,1,11571,1,-0.00015264,-3.6408e-10,0,9.3204e-05,-4.1023e-05,-6.2078e+07,-103.85,0,3.2844e+07,-3.9552,11570,12705,1,12705,1,0.00022018,3.4962e-11,0,0.00027961,2.8713e-05,6.2724e+07,9.5425,0,9.1302e+07,6.5808,12704,656.67,0,656.67,0,0.00021516,3.1217e-10,0,0.0001101,4.0263e-05,7.224e+07,89.157,0,3.5892e+07,9.4914,656.67,1
2268,1.32,12139,1,12139,1,3.4025e-05,-4.4001e-10,0,0.0001893,-6.1945e-06,15.24,-125.61,0,6.3155e+07,3.7504,12138,13320,1,13320,1,0.00039627,1.5221e-09,0,0.00039627,6.1607e-05,1.0836e+08,417.73,0,1.3349e+08,55.379,13319,12138,1,12138,1,3.4025e-05,-2.8668e-10,0,0.00018783,-6.1591e-06,1.0843e+07,-85.279,0,6.3201e+07,2.2663,12137,10979,1,10979,1,-0.00032822,-2.4073e-09,0,6.2229e-06,-7.4016e-05,-1.3349e+08,-658.1,0,2.6106e+06,-50.423,10978,11571,1,11571,1,-0.0001538,-1.0455e-09,0,9.3913e-05,-4.1335e-05,-6.255e+07,-301.83,0,3.3094e+07,-10.749,11570,12705,1,12705,1,0.00022185,8.0821e-11,0,0.00028174,2.8931e-05,6.3201e+07,22.065,0,9.1997e+07,15.977,12704,656.67,0,656.67,0,0.00021679,8.3295e-10,0,0.00011094,4.0569e-05,7.2789e+07,236.39,0,3.6165e+07,18.642,656.67,1
2268,1.33,12139,1,12139,1,3.4285e-05,4.2766e-10,0,0.00019074,-6.2418e-06,-17.461,121.38,0,6.3637e+07,1.8924,12138,13320,1,13320,1,0.00039929,9.7428e-10,0,0.00039929,6.2077e-05,1.0918e+08,263.46,0,1.3451e+08,18.436,13319,12138,1,12138,1,3.4285e-05,4.5997e-10,0,0.00018926,-6.2061e-06,1.0926e+07,132.62,0,6.3683e+07,3.561,12137,10979,1,10979,1,-0.00033072,-1.1047e-10,0,6.2703e-06,-7.4581e-05,-1.3451e+08,-37.832,0,2.6305e+06,-44.13,10978,11571,1,11571,1,-0.00015497,2.1224e-10,0,9.463e-05,-4.165e-05,-6.3027e+07,61.774,0,3.3346e+07,-2.6351,11570,12705,1,12705,1,0.00022354,6.3797e-10,0,0.00028389,2.9152e-05,6.3683e+07,181.23,0,9.2698e+07,8.4855,12704,656.67,0,656.67,0,0.00021845,2.7525e-10,0,0.00011179,4.0879e-05,7.3345e+07,76.839,0,3.6441e+07,9.4771,656.67,1
2268,1.34,12139,1,12139,1,3.4541e-05,-1.244e-10,0,0.00019217,-6.2885e-06,9.8558,-35.593,0,6.4112e+07,-15.22,12138,13320,1,13320,1,0.00040227,2.6131e-09,0,0.00040227,6.2541e-05,1.1e+08,729.43,0,1.3552e+08,70.365,13319,12138,1,12138,1,3.4541e-05,-1.2301e-10,0,0.00019067,-6.2527e-06,1.1008e+07,-32.554,0,6.4159e+07,-11.624,12137,10979,1,10979,1,-0.00033319,-2.0075e-09,0,6.3171e-06,-7.5138e-05,-1.3552e+08,-559.04,0,2.6502e+06,-166.9,10978,11571,1,11571,1,-0.00015613,-8.9118e-10,0,9.5336e-05,-4.1961e-05,-6.3498e+07,-256.99,0,3.3595e+07,-37.215,11570,12705,1,12705,1,0.00022521,4.4477e-10,0,0.00028601,2.937e-05,6.4159e+07,129.51,0,9.3391e+07,9.6677,12704,656.67,0,656.67,0,0.00022008,1.0205e-09,0,0.00011262,4.1184e-05,7.3892e+07,290.72,0,3.6713e+07,35.75,656.67,1
2268,1.35,12139,1,12139,1,3.4802e-05,2.3139e-10,0,0.00019362,-6.3359e-06,4.7601,65.558,0,6.4596e+07,-5.3851,12138,13320,1,13320,1,0.00040531,6.4642e-10,0,0.00040531,6.3012e-05,1.1083e+08,172.59,0,1.3654e+08,19.914,13319,12138,1,12138,1,3.4802e-05,2.3612e-10,0,0.00019211,-6.2997e-06,1.1091e+07,67.457,0,6.4643e+07,-1.9115,12137,10979,1,10979,1,-0.0003357,-3.5255e-10,0,6.3646e-06,-7.5704e-05,-1.3654e+08,-88.083,0,2.6701e+06,-79.776,10978,11571,1,11571,1,-0.00015731,4.0759e-11,0,9.6056e-05,-4.2278e-05,-6.3977e+07,10.925,0,3.3848e+07,-9.1036,11570,12705,1,12705,1,0.00022691,4.1534e-10,0,0.00028817,2.9591e-05,6.4643e+07,122.97,0,9.4095e+07,4.0747,12704,656.67,0,656.67,0,0.00022174,2.2618e-10,0,0.00011347,4.1495e-05,7.445e+07,63.16,0,3.6991e+07,14.246,656.67,1
2268,1.36,12139,1,12139,1,3.5056e-05,-6.0628e-10,0,0.00019503,-6.3822e-06,11.764,-173.36,0,6.5068e+07,6.2921,12138,13320,1,13320,1,0.00040827,1.1821e-09,0,0.00040827,6.3473e-05,1.1164e+08,322.15,0,1.3754e+08,49.199,13319,12138,1,12138,1,3.5056e-05,-4.9019e-10,0,0.00019352,-6.3457e-06,1.1172e+07,-136.91,0,6.5115e+07,5.1468,12137,10979,1,10979,1,-0.00033816,-2.6296e-09,0,6.4112e-06,-7.6259e-05,-1.3754e+08,-717.95,0,2.6897e+06,-42.006,10978,11571,1,11571,1,-0.00015846,-1.1967e-09,0,9.6758e-05,-4.2587e-05,-6.4445e+07,-348.02,0,3.4096e+07,-5.9221,11570,12705,1,12705,1,0.00022857,-2.3805e-11,0,0.00029028,2.9808e-05,6.5115e+07,-6.6465,0,9.4784e+07,20.224,12704,656.67,0,656.67,0,0.00022336,8.0348e-10,0,0.0001143,4.1798e-05,7.4994e+07,228.79,0,3.7261e+07,17.126,656.67,1
2268,1.37,12139,1,12139,1,3.5315e-05,-2.2326e-10,0,0.00019647,-6.4293e-06,-3.8922,-62.567,0,6.5548e+07,4.7591,12138,13320,1,13320,1,0.00041129,2.4206e-09,0,0.00041129,6.3942e-05,1.1246e+08,664.74,0,1.3855e+08,74.691,13319,12138,1,12138,1,3.5315e-05,-9.794e-11,0,0.00019494,-6.3925e-06,1.1254e+07,-26.046,0,6.5596e+07,1.5341,12137,10979,1,10979,1,-0.00034065,-2.463e-09,0,6.4585e-06,-7.6821e-05,-1.3855e+08,-671.42,0,2.7095e+06,-89.795,10978,11571,1,11571,1,-0.00015963,-1.0145e-09,0,9.7472e-05,-4.2901e-05,-6.492e+07,-285.49,0,3.4348e+07,-13.039,11570,12705,1,12705,1,0.00023026,3.9952e-10,0,0.00029242,3.0027e-05,6.5596e+07,121.1,0,9.5483e+07,25.877,12704,656.67,0,656.67,0,0.00022501,1.1068e-09,0,0.00011514,4.2107e-05,7.5547e+07,315.52,0,3.7536e+07,27.795,656.67,1
2268,1.38,12139,1,12139,1,3.5575e-05,-1.8701e-10,0,0.00019792,-6.4768e-06,-28.28,-53.667,0,6.6032e+07,-14.15,12138,13320,1,13320,1,0.00041431,1.0801e-09,0,0.00041431,6.4412e-05,1.1329e+08,283.18,0,1.3957e+08,24.081,13319,12138,1,12138,1,3.5575e-05,-9.6911e-11,0,0.00019638,-6.4397e-06,1.1337e+07,-28.303,0,6.6079e+07,-13.828,12137,10979,1,10979,1,-0.00034316,-1.4731e-09,0,6.5061e-06,-7.7387e-05,-1.3957e+08,-402.63,0,2.7295e+06,-74.44,10978,11571,1,11571,1,-0.0001608,-6.1231e-10,0,9.819e-05,-4.3217e-05,-6.5399e+07,-175.68,0,3.4601e+07,-24.923,11570,12705,1,12705,1,0.00023196,1.5057e-10,0,0.00029457,3.0249e-05,6.6079e+07,44.491,0,9.6186e+07,-2.0974,12704,656.67,0,656.67,0,0.00022667,5.4419e-10,0,0.00011599,4.2417e-05,7.6105e+07,154.73,0,3.7813e+07,14.669,656.67,1
2268,1.39,12139,1,12139,1,3.5832e-05,-5.2011e-10,0,0.00019935,-6.5234e-06,-8.6478,-148.55,0,6.6507e+07,-2.25,12138,13320,1,13320,1,0.0004173,8.5274e-11,0,0.0004173,6.4877e-05,1.1411e+08,24.086,0,1.4058e+08,16.759,13319,12138,1,12138,1,3.5832e-05,-4.7536e-10,0,0.0001978,-6.4861e-06,1.1419e+07,-133.16,0,6.6555e+07,-1.2963,12137,10979,1,10979,1,-0.00034564,-1.3135e-09,0,6.553e-06,-7.7945e-05,-1.4058e+08,-359.38,0,2.7491e+06,-42.725,10978,11571,1,11571,1,-0.00016196,-7.9911e-10,0,9.8898e-05,-4.3529e-05,-6.587e+07,-232.75,0,3.485e+07,-6.4284,11570,12705,1,12705,1,0.00023363,-2.2458e-10,0,0.00029669,3.0467e-05,6.6555e+07,-63.135,0,9.688e+07,2.3795,12704,656.67,0,656.67,0,0.0002283,3.6676e-10,0,0.00011683,4.2723e-05,7.6653e+07,104.08,0,3.8085e+07,8.2362,656.67,1
2268,1.4,12139,1,12139,1,3.609e-05,-5.2805e-10,0,0.00020078,-6.5705e-06,11.502,-150.69,0,6.6987e+07,-9.2763,12138,13320,1,13320,1,0.00042031,8.2408e-11,0,0.00042031,6.5345e-05,1.1493e+08,21.964,0,1.4159e+08,6.6324,13319,12138,1,12138,1,3.609e-05,-5.6918e-10,0,0.00019922,-6.5329e-06,1.1501e+07,-166.36,0,6.7035e+07,-5.7081,12137,10979,1,10979,1,-0.00034813,-1.0461e-09,0,6.6001e-06,-7.8507e-05,-1.4159e+08,-286.48,0,2.7689e+06,-88.704,10978,11571,1,11571,1,-0.00016313,-7.6186e-10,0,9.9611e-05,-4.3843e-05,-6.6345e+07,-221.21,0,3.5101e+07,-13.061,11570,12705,1,12705,1,0.00023531,-2.9784e-10,0,0.00029883,3.0686e-05,6.7035e+07,-86.894,0,9.7578e+07,-1.8322,12704,656.67,0,656.67,0,0.00022995,2.9697e-10,0,0.00011767,4.3031e-05,7.7206e+07,83.142,0,3.836e+07,11.672,656.67,1
2268,1.41,12139,1,12139,1,3.6346e-05,-1.8089e-10,0,0.0002022,-6.6169e-06,15.88,-51.628,0,6.7461e+07,4.7641,12138,13320,1,13320,1,0.00042328,2.3495e-09,0,0.00042328,6.5807e-05,1.1574e+08,638.45,0,1.426e+08,78.963,13319,12138,1,12138,1,3.6346e-05,-9.2395e-11,0,0.00020063,-6.5791e-06,1.1583e+07,-25.947,0,6.751e+07,2.6369,12137,10979,1,10979,1,-0.00035059,-2.4619e-09,0,6.647e-06,-7.9062e-05,-1.426e+08,-671.01,0,2.7886e+06,-56.343,10978,11571,1,11571,1,-0.00016429,-7.6513e-10,0,0.00010032,-4.4153e-05,-6.6815e+07,-221.61,0,3.535e+07,-11.884,11570,12705,1,12705,1,0.00023698,3.3828e-10,0,0.00030095,3.0904e-05,6.751e+07,97.62,0,9.8269e+07,20.465,12704,656.67,0,656.67,0,0.00023157,9.6348e-10,0,0.0001185,4.3335e-05,7.7752e+07,274.21,0,3.8631e+07,22.775,656.67,1
2268,1.42,12139,1,12139,1,3.6603e-05,-2.0148e-10,0,0.00020364,-6.6638e-06,11.71,-57.258,0,6.7939e+07,7.4482,12138,13320,1,13320,1,0.00042628,2.6715e-09,0,0.00042628,6.6273e-05,1.1656e+08,730.95,0,1.4361e+08,71.664,13319,12138,1,12138,1,3.6603e-05,-1.461e-10,0,0.00020205,-6.6257e-06,1.1665e+07,-42.588,0,6.7988e+07,5.7248,12137,10979,1,10979,1,-0.00035308,-2.7565e-09,0,6.694e-06,-7.9622e-05,-1.4361e+08,-752.53,0,2.8083e+06,-54.986,10978,11571,1,11571,1,-0.00016545,-8.6563e-10,0,0.00010103,-4.4466e-05,-6.7288e+07,-250.45,0,3.56e+07,-8.7908,11570,12705,1,12705,1,0.00023866,3.4613e-10,0,0.00030308,3.1123e-05,6.7988e+07,100.4,0,9.8965e+07,24.342,12704,656.67,0,656.67,0,0.00023321,1.0878e-09,0,0.00011934,4.3642e-05,7.8303e+07,311.43,0,3.8905e+07,22.356,656.67,1
2268,1.43,12139,1,12139,1,3.6861e-05,-3.2535e-10,0,0.00020507,-6.7107e-06,3.8283,-92.288,0,6.8417e+07,6.9758,12138,13320,1,13320,1,0.00042929,2.7309e-09,0,0.00042929,6.6741e-05,1.1739e+08,752.7,0,1.4462e+08,75.127,13319,12138,1,12138,1,3.6861e-05,-1.8906e-10,0,0.00020348,-6.6724e-06,1.1747e+07,-53.707,0,6.8467e+07,3.2476,12137,10979,1,10979,1,-0.00035557,-3.0907e-09,0,6.7411e-06,-8.0184e-05,-1.4462e+08,-841.42,0,2.8281e+06,-56.407,10978,11571,1,11571,1,-0.00016662,-1.1567e-09,0,0.00010174,-4.4779e-05,-6.7762e+07,-329.19,0,3.5851e+07,-13.208,11570,12705,1,12705,1,0.00024034,3.5042e-10,0,0.00030522,3.1342e-05,6.8467e+07,100.08,0,9.9662e+07,27.387,12704,656.67,0,656.67,0,0.00023486,1.2522e-09,0,0.00012018,4.395e-05,7.8854e+07,357.62,0,3.9179e+07,25.463,656.67,1
2268,1.44,12139,1,12139,1,3.7119e-05,2.1712e-10,0,0.00020651,-6.7577e-06,-80.783,62.585,0,6.8896e+07,8.6998,12138,13320,1,13320,1,0.00043229,2.3977e-09,0,0.00043229,6.7208e-05,1.1821e+08,647.41,0,1.4563e+08,57.435,13319,12138,1,12138,1,3.7119e-05,5.6742e-11,0,0.0002049,-6.7191e-06,1.1829e+07,16.587,0,6.8946e+07,8.8938,12137,10979,1,10979,1,-0.00035805,-1.4673e-09,0,6.7884e-06,-8.0745e-05,-1.4563e+08,-398.91,0,2.8479e+06,-93.517,10978,11571,1,11571,1,-0.00016778,-2.6459e-10,0,0.00010245,-4.5092e-05,-6.8236e+07,-76.894,0,3.6102e+07,-3.7687,11570,12705,1,12705,1,0.00024202,7.3489e-10,0,0.00030735,3.1561e-05,6.8946e+07,210.45,0,1.0036e+08,26.732,12704,656.67,0,656.67,0,0.0002365,7.7628e-10,0,0.00012102,4.4258e-05,7.9406e+07,219.22,0,3.9453e+07,24.568,656.67,1
2268,1.45,12139,1,12139,1,3.7379e-05,-3.9754e-10,0,0.00020795,-6.805e-06,36.748,-113.56,0,6.9378e+07,-5.8034,12138,13320,1,13320,1,0.00043531,2.3238e-11,0,0.00043531,6.7677e-05,1.1903e+08,7.9585,0,1.4665e+08,9.2935,13319,12138,1,12138,1,3.7379e-05,-4.3602e-10,0,0.00020633,-6.7661e-06,1.1912e+07,-128.31,0,6.9428e+07,-4.0539,12137,10979,1,10979,1,-0.00036055,-6.9998e-10,0,6.8356e-06,-8.1309e-05,-1.4665e+08,-200.17,0,2.8677e+06,-47.666,10978,11571,1,11571,1,-0.00016895,-5.6241e-10,0,0.00010317,-4.5407e-05,-6.8713e+07,-162.73,0,3.6354e+07,-7.9397,11570,12705,1,12705,1,0.00024371,-2.3571e-10,0,0.0003095,3.1782e-05,6.9428e+07,-69.586,0,1.0106e+08,-1.5325,12704,656.67,0,656.67,0,0.00023815,2.0195e-10,0,0.00012187,4.4567e-05,7.9961e+07,56.51,0,3.9729e+07,6.8472,656.67,1
2268,1.46,12139,1,12139,1,3.7636e-05,-6.4979e-10,0,0.00020938,-6.8519e-06,24.448,-185.51,0,6.9856e+07,-2.2787,12138,13320,1,13320,1,0.00043831,6.7078e-11,0,0.00043831,6.8143e-05,1.1985e+08,22.973,0,1.4766e+08,14.831,13319,12138,1,12138,1,3.7636e-05,-6.0309e-10,0,0.00020775,-6.8127e-06,1.1994e+07,-172.67,0,6.9906e+07,-0.85711,12137,10979,1,10979,1,-0.00036304,-1.5492e-09,0,6.8826e-06,-8.1869e-05,-1.4766e+08,-420.15,0,2.8874e+06,-51.249,10978,11571,1,11571,1,-0.00017012,-9.8315e-10,0,0.00010388,-4.572e-05,-6.9186e+07,-288.78,0,3.6605e+07,-5.5227,11570,12705,1,12705,1,0.00024539,-2.8257e-10,0,0.00031163,3.2001e-05,6.9906e+07,-79.239,0,1.0176e+08,3.7464,12704,656.67,0,656.67,0,0.00023979,4.3738e-10,0,0.00012271,4.4874e-05,8.0512e+07,122.79,0,4.0002e+07,9.3843,656.67,1
2268,1.47,12139,1,12139,1,3.7893e-05,-8.7247e-10,0,0.00021081,-6.8987e-06,-4.1135,-247.93,0,7.0333e+07,-9.7736,12138,13320,1,13320,1,0.00044131,2.7089e-10,0,0.00044131,6.8609e-05,1.2067e+08,92.77,0,1.4867e+08,47.834,13319,12138,1,12138,1,3.7893e-05,-7.7615e-10,0,0.00020917,-6.8592e-06,1.2076e+07,-218.39,0,7.0383e+07,-7.4005,12137,10979,1,10979,1,-0.00036552,-2.6031e-09,0,6.9297e-06,-8.2429e-05,-1.4867e+08,-712.76,0,2.9072e+06,-106.72,10978,11571,1,11571,1,-0.00017128,-1.4847e-09,0,0.00010459,-4.6032e-05,-6.9659e+07,-433.41,0,3.6855e+07,-22.187,11570,12705,1,12705,1,0.00024707,-1.8371e-10,0,0.00031376,3.2219e-05,7.0383e+07,-50.124,0,1.0245e+08,3.5503,12704,656.67,0,656.67,0,0.00024143,7.7059e-10,0,0.00012355,4.518e-05,8.1062e+07,217.34,0,4.0276e+07,25.179,656.67,1
2268,1.48,12139,1,12139,1,3.8151e-05,-8.1533e-10,0,0.00021225,-6.9456e-06,-18.1,-232.62,0,7.0811e+07,0.53574,12138,13320,1,13320,1,0.00044431,4.6707e-10,0,0.00044431,6.9076e-05,1.2149e+08,140.51,0,1.4968e+08,41.229,13319,12138,1,12138,1,3.8151e-05,-6.8342e-10,0,0.0002106,-6.9058e-06,1.2158e+07,-196.55,0,7.0862e+07,-0.77295,12137,10979,1,10979,1,-0.00036801,-2.5836e-09,0,6.9769e-06,-8.2989e-05,-1.4968e+08,-704.41,0,2.927e+06,-47.056,10978,11571,1,11571,1,-0.00017245,-1.3946e-09,0,0.0001053,-4.6346e-05,-7.0133e+07,-402.44,0,3.7105e+07,-9.0843,11570,12705,1,12705,1,0.00024875,-1.3999e-10,0,0.00031589,3.2438e-05,7.0862e+07,-42.369,0,1.0315e+08,9.6331,12704,656.67,0,656.67,0,0.00024307,7.6059e-10,0,0.00012439,4.5487e-05,8.1613e+07,216.47,0,4.0549e+07,14.477,656.67,1
2268,1.49,12139,1,12139,1,3.8409e-05,-3.4129e-10,0,0.00021368,-6.9927e-06,-8.7691,-96.753,0,7.1291e+07,-7.8476,12138,13320,1,13320,1,0.00044731,1.9167e-10,0,0.00044731,6.9543e-05,1.2232e+08,65.639,0,1.5069e+08,49.432,13319,12138,1,12138,1,3.8409e-05,-3.19e-10,0,0.00021202,-6.9527e-06,1.224e+07,-94.495,0,7.1342e+07,-6.722,12137,10979,1,10979,1,-0.00037049,-9.7823e-10,0,7.0241e-06,-8.3551e-05,-1.5069e+08,-260.48,0,2.9468e+06,-60.98,10978,11571,1,11571,1,-0.00017361,-5.186e-10,0,0.00010601,-4.6659e-05,-7.0607e+07,-148.32,0,3.7356e+07,-16.667,11570,12705,1,12705,1,0.00025043,-1.4807e-10,0,0.00031803,3.2658e-05,7.1342e+07,-42.253,0,1.0385e+08,-0.69214,12704,656.67,0,656.67,0,0.00024472,2.6534e-10,0,0.00012523,4.5796e-05,8.2166e+07,73.409,0,4.0824e+07,14.332,656.67,1
2268,1.5,12139,1,12139,1,3.8666e-05,-1.301e-10,0,0.00021511,-7.0393e-06,31.639,-36.596,0,7.1767e+07,9.5632,12138,13320,1,13320,1,0.0004503,3.3956e-09,0,0.0004503,7.0007e-05,1.2313e+08,932.58,0,1.517e+08,85.637,13319,12138,1,12138,1,3.8666e-05,-9.6336e-11,0,0.00021344,-6.999e-06,1.2322e+07,-27.726,0,7.1818e+07,7.0035,12137,10979,1,10979,1,-0.00037297,-3.1133e-09,0,7.0709e-06,-8.4109e-05,-1.517e+08,-848.77,0,2.9664e+06,-70.422,10978,11571,1,11571,1,-0.00017477,-9.3483e-10,0,0.00010672,-4.6971e-05,-7.1079e+07,-270.36,0,3.7606e+07,-11.515,11570,12705,1,12705,1,0.0002521,5.4893e-10,0,0.00032016,3.2876e-05,7.1818e+07,156.84,0,1.0454e+08,32.254,12704,656.67,0,656.67,0,0.00024635,1.3245e-09,0,0.00012607,4.6101e-05,8.2714e+07,378.58,0,4.1097e+07,27.094,656.67,1
2268,1.51,12139,1,12139,1,3.8924e-05,-2.0973e-10,0,0.00021655,-7.0864e-06,-0.028225,-59.071,0,7.2247e+07,-0.92351,12138,13320,1,13320,1,0.00045331,1.2503e-09,0,0.00045331,7.0476e-05,1.2396e+08,348.1,0,1.5271e+08,49.863,13319,12138,1,12138,1,3.8924e-05,-2.0634e-10,0,0.00021487,-7.0459e-06,1.2404e+07,-57.392,0,7.2299e+07,-2.8397,12137,10979,1,10979,1,-0.00037546,-1.1662e-09,0,7.1182e-06,-8.4671e-05,-1.5271e+08,-321.29,0,2.9863e+06,-59.009,10978,11571,1,11571,1,-0.00017594,-5.8736e-10,0,0.00010743,-4.7285e-05,-7.1555e+07,-172.65,0,3.7858e+07,-9.7779,11570,12705,1,12705,1,0.00025379,1.0488e-10,0,0.0003223,3.3096e-05,7.2299e+07,26.863,0,1.0524e+08,3.9076,12704,656.67,0,656.67,0,0.000248,4.9429e-10,0,0.00012691,4.641e-05,8.3268e+07,141.25,0,4.1372e+07,16.699,656.67,1
2268,1.52,12139,1,12139,1,3.9186e-05,-7.9425e-11,0,0.000218,-7.1341e-06,2.3316,-22.931,0,7.2732e+07,-18.357,12138,13320,1,13320,1,0.00045636,2.4086e-09,0,0.00045636,7.0948e-05,1.2479e+08,646.81,0,1.5374e+08,58.573,13319,12138,1,12138,1,3.9185e-05,7.1228e-11,0,0.00021631,-7.0932e-06,1.2488e+07,20.874,0,7.2783e+07,-15.429,12137,10979,1,10979,1,-0.00037798,-3.632e-09,0,7.1657e-06,-8.5239e-05,-1.5374e+08,-977.55,0,3.0062e+06,-96.3,10978,11571,1,11571,1,-0.00017712,-7.5122e-10,0,0.00010815,-4.7602e-05,-7.2034e+07,-216.01,0,3.8111e+07,-40.073,11570,12705,1,12705,1,0.00025549,7.2671e-10,0,0.00032446,3.3318e-05,7.2783e+07,214.31,0,1.0595e+08,3.7796,12704,656.67,0,656.67,0,0.00024967,1.2659e-09,0,0.00012776,4.6721e-05,8.3827e+07,360.16,0,4.165e+07,26.689,656.67,1
2268,1.53,12139,1,12139,1,3.944e-05,2.9662e-10,0,0.00021942,-7.1803e-06,1.2143,84.46,0,7.3204e+07,2.4965,12138,13320,1,13320,1,0.00045932,2.0682e-09,0,0.00045932,7.1409e-05,1.256e+08,582.29,0,1.5473e+08,48.28,13319,12138,1,12138,1,3.944e-05,1.0981e-10,0,0.00021771,-7.1393e-06,1.2569e+07,30.648,0,7.3256e+07,2.9703,12137,10979,1,10979,1,-0.00038044,-5.4832e-10,0,7.2124e-06,-8.5793e-05,-1.5473e+08,-165.56,0,3.0258e+06,-81.106,10978,11571,1,11571,1,-0.00017827,-6.2196e-11,0,0.00010886,-4.7912e-05,-7.2502e+07,-16.812,0,3.8359e+07,-6.0754,11570,12705,1,12705,1,0.00025715,5.3108e-10,0,0.00032657,3.3535e-05,7.3256e+07,150.9,0,1.0663e+08,13.164,12704,656.67,0,656.67,0,0.00025129,5.3644e-10,0,0.00012859,4.7025e-05,8.4371e+07,153.82,0,4.192e+07,17.065,656.67,1
2268,1.54,12139,1,12139,1,3.9697e-05,9.0624e-12,0,0.00022085,-7.2271e-06,-4.5166,3.1017,0,7.3681e+07,10.098,12138,13320,1,13320,1,0.00046231,3.4442e-09,0,0.00046231,7.1875e-05,1.2642e+08,945.23,0,1.5574e+08,87.2,13319,12138,1,12138,1,3.9697e-05,-6.2716e-11,0,0.00021913,-7.1857e-06,1.2651e+07,-18.392,0,7.3734e+07,7.1107,12137,10979,1,10979,1,-0.00038292,-2.5264e-09,0,7.2595e-06,-8.6352e-05,-1.5574e+08,-689.07,0,3.0456e+06,-60.689,10978,11571,1,11571,1,-0.00017943,-7.6914e-10,0,0.00010957,-4.8224e-05,-7.2975e+07,-222.55,0,3.8609e+07,-9.834,11570,12705,1,12705,1,0.00025883,6.3847e-10,0,0.0003287,3.3753e-05,7.3734e+07,181.47,0,1.0733e+08,30.33,12704,656.67,0,656.67,0,0.00025292,1.23e-09,0,0.00012943,4.7331e-05,8.4921e+07,351.96,0,4.2193e+07,26.057,656.67,1
2268,1.55,12139,1,12139,1,3.9955e-05,8.2426e-11,0,0.00022229,-7.2741e-06,9.6489,23.573,0,7.416e+07,-0.75029,12138,13320,1,13320,1,0.00046532,2.3824e-09,0,0.00046532,7.2342e-05,1.2724e+08,647.41,0,1.5676e+08,50.16,13319,12138,1,12138,1,3.9955e-05,3.6838e-12,0,0.00022056,-7.2326e-06,1.2733e+07,1.2646,0,7.4213e+07,-0.99008,12137,10979,1,10979,1,-0.00038541,-1.374e-09,0,7.3066e-06,-8.6914e-05,-1.5676e+08,-375.66,0,3.0653e+06,-77.023,10978,11571,1,11571,1,-0.0001806,-4.6493e-10,0,0.00011028,-4.8538e-05,-7.345e+07,-135.11,0,3.886e+07,-13.514,11570,12705,1,12705,1,0.00026051,5.3536e-10,0,0.00033084,3.3973e-05,7.4213e+07,154.31,0,1.0803e+08,14.152,12704,656.67,0,656.67,0,0.00025457,7.9865e-10,0,0.00013027,4.7639e-05,8.5473e+07,227.57,0,4.2467e+07,21.011,656.67,1
2268,1.56,12139,1,12139,1,4.0213e-05,-4.0645e-10,0,0.00022372,-7.3209e-06,13.304,-115.81,0,7.4638e+07,8.9852,12138,13320,1,13320,1,0.00046832,1.4593e-09,0,0.00046832,7.2808e-05,1.2806e+08,393.68,0,1.5777e+08,43.475,13319,12138,1,12138,1,4.0213e-05,-3.1702e-10,0,0.00022198,-7.2791e-06,1.2815e+07,-94.536,0,7.4691e+07,8.7511,12137,10979,1,10979,1,-0.00038789,-2.2638e-09,0,7.3536e-06,-8.7473e-05,-1.5777e+08,-612.41,0,3.085e+06,-42.039,10978,11571,1,11571,1,-0.00018176,-9.1599e-10,0,0.00011099,-4.885e-05,-7.3922e+07,-267.05,0,3.911e+07,-3.0776,11570,12705,1,12705,1,0.00026219,4.8937e-11,0,0.00033297,3.4191e-05,7.4691e+07,12.652,0,1.0872e+08,22.862,12704,656.67,0,656.67,0,0.00025621,7.532e-10,0,0.00013111,4.7946e-05,8.6023e+07,212.11,0,4.2741e+07,16.578,656.67,1
2268,1.57,12139,1,12139,1,4.0471e-05,6.9361e-11,0,0.00022515,-7.3679e-06,-10.004,20.091,0,7.5117e+07,10.471,12138,13320,1,13320,1,0.00047132,3.7046e-09,0,0.00047132,7.3276e-05,1.2888e+08,1010.3,0,1.5878e+08,97.206,13319,12138,1,12138,1,4.0471e-05,-5.7136e-11,0,0.0002234,-7.3258e-06,1.2897e+07,-16.503,0,7.5171e+07,4.1342,12137,10979,1,10979,1,-0.00039038,-2.1976e-09,0,7.4008e-06,-8.8035e-05,-1.5878e+08,-600.43,0,3.1048e+06,-91.39,10978,11571,1,11571,1,-0.00018293,-7.8108e-10,0,0.0001117,-4.9164e-05,-7.4397e+07,-221.5,0,3.9362e+07,-11.277,11570,12705,1,12705,1,0.00026387,7.1427e-10,0,0.0003351,3.4411e-05,7.5171e+07,203.77,0,1.0942e+08,33.258,12704,656.67,0,656.67,0,0.00025785,1.2617e-09,0,0.00013195,4.8254e-05,8.6576e+07,360.43,0,4.3015e+07,32.143,656.67,1
2268,1.58,12139,1,12139,1,4.0731e-05,-2.7221e-10,0,0.0002266,-7.4153e-06,-3.2167,-78.245,0,7.56e+07,-8.4418,12138,13320,1,13320,1,0.00047435,3.6718e-10,0,0.00047435,7.3745e-05,1.2971e+08,96.533,0,1.598e+08,19.017,13319,12138,1,12138,1,4.0731e-05,-1.1801e-10,0,0.00022484,-7.3729e-06,1.298e+07,-36.005,0,7.5653e+07,-6.1112,12137,10979,1,10979,1,-0.00039288,-1.5972e-09,0,7.4483e-06,-8.86e-05,-1.598e+08,-428.53,0,3.1248e+06,-53.402,10978,11571,1,11571,1,-0.00018411,-5.3655e-10,0,0.00011242,-4.9479e-05,-7.4875e+07,-154.05,0,3.9614e+07,-18.035,11570,12705,1,12705,1,0.00026557,4.8828e-11,0,0.00033725,3.4632e-05,7.5653e+07,13.808,0,1.1012e+08,1.3935,12704,656.67,0,656.67,0,0.00025951,4.5083e-10,0,0.0001328,4.8564e-05,8.7132e+07,127.49,0,4.3292e+07,11.931,656.67,1
2268,1.59,12139,1,12139,1,4.0986e-05,-7.2597e-10,0,0.00022802,-7.4618e-06,0.21052,-207.26,0,7.6074e+07,3.1059,12138,13320,1,13320,1,0.00047733,1.0162e-09,0,0.00047733,7.4209e-05,1.3052e+08,287.84,0,1.608e+08,49.288,13319,12138,1,12138,1,4.0986e-05,-5.4601e-10,0,0.00022625,-7.4191e-06,1.3061e+07,-159.6,0,7.6128e+07,1.2966,12137,10979,1,10979,1,-0.00039536,-2.906e-09,0,7.4951e-06,-8.9157e-05,-1.608e+08,-793.2,0,3.1444e+06,-50.883,10978,11571,1,11571,1,-0.00018526,-1.3895e-09,0,0.00011312,-4.979e-05,-7.5345e+07,-398.82,0,3.9863e+07,-9.4811,11570,12705,1,12705,1,0.00026723,-1.4551e-11,0,0.00033937,3.4849e-05,7.6128e+07,-3.8492,0,1.1082e+08,16.707,12704,656.67,0,656.67,0,0.00026114,9.1197e-10,0,0.00013363,4.8868e-05,8.7678e+07,260.33,0,4.3563e+07,17.794,656.67,1
2268,1.6,12139,1,12139,1,4.1245e-05,-5.254e-11,0,0.00022946,-7.5089e-06,84.396,-14.239,0,7.6553e+07,0.54379,12138,13320,1,13320,1,0.00048033,2.3629e-09,0,0.00048033,7.4676e-05,1.3134e+08,658.04,0,1.6181e+08,59.972,13319,12138,1,12138,1,4.1245e-05,-3.1007e-11,0,0.00022767,-7.4659e-06,1.3144e+07,-8.6961,0,7.6607e+07,-1.3501,12137,10979,1,10979,1,-0.00039784,-1.9018e-09,0,7.542e-06,-8.9718e-05,-1.6181e+08,-521.47,0,3.1641e+06,-88.9,10978,11571,1,11571,1,-0.00018643,-6.1942e-10,0,0.00011384,-5.0104e-05,-7.5819e+07,-177.11,0,4.0114e+07,-12.473,11570,12705,1,12705,1,0.00026892,3.9096e-10,0,0.00034151,3.5068e-05,7.6607e+07,112.28,0,1.1151e+08,14.722,12704,656.67,0,656.67,0,0.00026278,8.792e-10,0,0.00013447,4.9176e-05,8.823e+07,251.2,0,4.3837e+07,21.964,656.67,1
2268,1.61,12139,1,12139,1,4.1502e-05,-5.6274e-10,0,0.00023089,-7.5556e-06,7.981,-159.89,0,7.703e+07,3.6307,12138,13320,1,13320,1,0.00048333,2.0081e-09,0,0.00048333,7.5142e-05,1.3216e+08,554.94,0,1.6282e+08,62.839,13319,12138,1,12138,1,4.1502e-05,-3.5929e-10,0,0.00022909,-7.5124e-06,1.3226e+07,-101.71,0,7.7085e+07,1.8032,12137,10979,1,10979,1,-0.00040032,-3.2811e-09,0,7.5893e-06,-9.0278e-05,-1.6282e+08,-893.6,0,3.1839e+06,-50.941,10978,11571,1,11571,1,-0.00018759,-1.3142e-09,0,0.00011455,-5.0416e-05,-7.6292e+07,-373.58,0,4.0364e+07,-13.456,11570,12705,1,12705,1,0.00027059,1.4683e-10,0,0.00034364,3.5287e-05,7.7085e+07,41.642,0,1.1221e+08,19.073,12704,656.67,0,656.67,0,0.00026442,1.1354e-09,0,0.00013531,4.9482e-05,8.878e+07,324.2,0,4.4111e+07,22.478,656.67,1
2268,1.62,12139,1,12139,1,4.176e-05,-4.1985e-10,0,0.00023232,-7.6026e-06,37.837,-120.6,0,7.7509e+07,-0.45787,12138,13320,1,13320,1,0.00048633,3.7349e-10,0,0.00048633,7.5608e-05,1.3298e+08,101.46,0,1.6383e+08,19.395,13319,12138,1,12138,1,4.176e-05,-3.2423e-10,0,0.00023052,-7.5592e-06,1.3308e+07,-93.366,0,7.7564e+07,0.34363,12137,10979,1,10979,1,-0.00040281,-1.673e-09,0,7.6362e-06,-9.0838e-05,-1.6383e+08,-460.87,0,3.2036e+06,-49.538,10978,11571,1,11571,1,-0.00018876,-6.5659e-10,0,0.00011526,-5.0729e-05,-7.6766e+07,-187.9,0,4.0615e+07,-4.0704,11570,12705,1,12705,1,0.00027228,-1.174e-10,0,0.00034577,3.5507e-05,7.7564e+07,-33.366,0,1.1291e+08,6.3935,12704,656.67,0,656.67,0,0.00026606,4.0343e-10,0,0.00013615,4.979e-05,8.9332e+07,115.57,0,4.4385e+07,10.173,656.67,1
2268,1.63,12139,1,12139,1,4.2018e-05,-1.3337e-10,0,0.00023376,-7.6496e-06,4.2829,-38.549,0,7.7987e+07,1.3669,12138,13320,1,13320,1,0.00048933,7.4149e-10,0,0.00048933,7.6075e-05,1.338e+08,217.4,0,1.6484e+08,30.436,13319,12138,1,12138,1,4.2018e-05,-6.1154e-11,0,0.00023194,-7.6058e-06,1.339e+07,-17.273,0,7.8043e+07,2.0994,12137,10979,1,10979,1,-0.00040529,-1.6708e-09,0,7.6835e-06,-9.1398e-05,-1.6484e+08,-460.38,0,3.2234e+06,-49.179,10978,11571,1,11571,1,-0.00018992,-3.1844e-10,0,0.00011597,-5.1042e-05,-7.724e+07,-91.895,0,4.0866e+07,-5.8776,11570,12705,1,12705,1,0.00027396,1.2812e-10,0,0.00034791,3.5726e-05,7.8043e+07,36.961,0,1.136e+08,9.917,12704,656.67,0,656.67,0,0.00026771,4.5054e-10,0,0.00013699,5.0098e-05,8.9884e+07,129.67,0,4.4659e+07,12.899,656.67,1
2268,1.64,12139,1,12139,1,4.2277e-05,-7.1632e-10,0,0.0002352,-7.6967e-06,4.8035,-204.64,0,7.8468e+07,-6.6503,12138,13320,1,13320,1,0.00049235,6.1846e-11,0,0.00049235,7.6544e-05,1.3463e+08,21.181,0,1.6586e+08,11.831,13319,12138,1,12138,1,4.2276e-05,-7.6826e-10,0,0.00023337,-7.6527e-06,1.3473e+07,-226.36,0,7.8523e+07,-4.4072,12137,10979,1,10979,1,-0.0004078,-1.4524e-09,0,7.7307e-06,-9.1963e-05,-1.6586e+08,-393.41,0,3.2432e+06,-75.129,10978,11571,1,11571,1,-0.00019109,-1.0133e-09,0,0.00011668,-5.1357e-05,-7.7716e+07,-295.07,0,4.1117e+07,-9.5202,11570,12705,1,12705,1,0.00027564,-4.1351e-10,0,0.00035005,3.5946e-05,7.8523e+07,-120.44,0,1.143e+08,-0.31213,12704,656.67,0,656.67,0,0.00026936,3.9778e-10,0,0.00013784,5.0406e-05,9.0438e+07,111.88,0,4.4934e+07,11.018,656.67,1
2268,1.65,12139,1,12139,1,4.2534e-05,-6.5838e-11,0,0.00023663,-7.7436e-06,4.5671,-18.19,0,7.8946e+07,0.47848,12138,13320,1,13320,1,0.00049535,1.7509e-09,0,0.00049535,7.701e-05,1.3545e+08,482.46,0,1.6687e+08,54.253,13319,12138,1,12138,1,4.2534e-05,-6.3572e-11,0,0.00023479,-7.6994e-06,1.3555e+07,-17.234,0,7.9002e+07,-0.43413,12137,10979,1,10979,1,-0.00041028,-1.2754e-09,0,7.7777e-06,-9.2522e-05,-1.6687e+08,-345.11,0,3.263e+06,-90.16,10978,11571,1,11571,1,-0.00019226,-5.5362e-10,0,0.00011739,-5.167e-05,-7.8189e+07,-157.29,0,4.1368e+07,-9.7341,11570,12705,1,12705,1,0.00027732,2.6654e-10,0,0.00035218,3.6165e-05,7.9002e+07,75.88,0,1.15e+08,13.085,12704,656.67,0,656.67,0,0.000271,6.6674e-10,0,0.00013868,5.0713e-05,9.0989e+07,190.72,0,4.5208e+07,20.673,656.67,1
2268,1.66,12139,1,12139,1,4.2791e-05,-3.4579e-10,0,0.00023806,-7.7903e-06,13.869,-97.893,0,7.9422e+07,8.2573,12138,13320,1,13320,1,0.00049834,2.143e-09,0,0.00049834,7.7475e-05,1.3627e+08,583.88,0,1.6788e+08,55.477,13319,12138,1,12138,1,4.2791e-05,-2.6624e-10,0,0.00023621,-7.7458e-06,1.3636e+07,-76.679,0,7.9478e+07,7.7753,12137,10979,1,10979,1,-0.00041275,-2.5182e-09,0,7.8246e-06,-9.3081e-05,-1.6788e+08,-682.26,0,3.2827e+06,-77.407,10978,11571,1,11571,1,-0.00019341,-1.0432e-09,0,0.0001181,-5.1982e-05,-7.8661e+07,-304.14,0,4.1617e+07,-7.7607,11570,12705,1,12705,1,0.000279,1.9636e-10,0,0.00035431,3.6383e-05,7.9478e+07,58.907,0,1.1569e+08,26.86,12704,656.67,0,656.67,0,0.00027263,9.7417e-10,0,0.00013951,5.1019e-05,9.1537e+07,274.73,0,4.5481e+07,22.026,656.67,1
2268,1.67,12139,1,12139,1,4.3049e-05,-4.3882e-10,0,0.00023949,-7.8373e-06,18.141,-123.19,0,7.9901e+07,0.45582,12138,13320,1,13320,1,0.00050135,7.5145e-10,0,0.00050135,7.7943e-05,1.3709e+08,217.61,0,1.6889e+08,44.874,13319,12138,1,12138,1,4.3049e-05,-3.3584e-10,0,0.00023763,-7.7926e-06,1.3719e+07,-91.798,0,7.9958e+07,-0.12716,12137,10979,1,10979,1,-0.00041525,-1.8321e-09,0,7.8718e-06,-9.3643e-05,-1.6889e+08,-491.51,0,3.3025e+06,-74.005,10978,11571,1,11571,1,-0.00019458,-8.4673e-10,0,0.00011882,-5.2295e-05,-7.9136e+07,-243.79,0,4.1869e+07,-8.3506,11570,12705,1,12705,1,0.00028068,5.6397e-11,0,0.00035645,3.6603e-05,7.9958e+07,15.701,0,1.1639e+08,10.079,12704,656.67,0,656.67,0,0.00027428,5.9212e-10,0,0.00014036,5.1327e-05,9.209e+07,165.3,0,4.5755e+07,16.651,656.67,1
2268,1.68,12139,1,12139,1,4.3306e-05,-4.0714e-10,0,0.00024092,-7.8841e-06,30.633,-115.51,0,8.0378e+07,7.7634,12138,13320,1,13320,1,0.00050434,1.703e-09,0,0.00050434,7.8408e-05,1.3791e+08,462.03,0,1.699e+08,49.785,13319,12138,1,12138,1,4.3306e-05,-2.8385e-10,0,0.00023905,-7.839e-06,1.3801e+07,-81.495,0,8.0435e+07,6.0774,12137,10979,1,10979,1,-0.00041772,-2.6019e-09,0,7.9188e-06,-9.4202e-05,-1.699e+08,-709.74,0,3.3222e+06,-48.739,10978,11571,1,11571,1,-0.00019574,-1.045e-09,0,0.00011952,-5.2608e-05,-7.9608e+07,-298.91,0,4.2118e+07,-7.8211,11570,12705,1,12705,1,0.00028236,1.4608e-10,0,0.00035858,3.6821e-05,8.0435e+07,39.351,0,1.1709e+08,24.542,12704,656.67,0,656.67,0,0.00027591,8.9471e-10,0,0.00014119,5.1633e-05,9.264e+07,252.71,0,4.6028e+07,20,656.67,1
2268,1.69,12139,1,12139,1,4.3567e-05,5.8061e-10,0,0.00024237,-7.9316e-06,-9.6339,165.7,0,8.0862e+07,-1.6377,12138,13320,1,13320,1,0.00050737,1.32e-09,0,0.00050737,7.8879e-05,1.3874e+08,357.5,0,1.7092e+08,12.707,13319,12138,1,12138,1,4.3566e-05,5.9055e-10,0,0.00024049,-7.8862e-06,1.3884e+07,173.8,0,8.0919e+07,-0.0084131,12137,10979,1,10979,1,-0.00042024,-7.5242e-11,0,7.9664e-06,-9.4768e-05,-1.7092e+08,-25.768,0,3.3421e+06,-58.174,10978,11571,1,11571,1,-0.00019692,3.2797e-10,0,0.00012024,-5.2924e-05,-8.0087e+07,92.459,0,4.2372e+07,-3.6522,11570,12705,1,12705,1,0.00028405,8.3469e-10,0,0.00036073,3.7042e-05,8.0919e+07,239.54,0,1.1779e+08,3.5798,12704,656.67,0,656.67,0,0.00027758,3.4116e-10,0,0.00014204,5.1944e-05,9.3197e+07,95.504,0,4.6305e+07,9.1448,656.67,1
2268,1.7,12139,1,12139,1,4.3821e-05,-4.6619e-10,0,0.00024379,-7.9779e-06,19.903,-131.83,0,8.1334e+07,5.1313,12138,13320,1,13320,1,0.00051034,2.7161e-09,0,0.00051034,7.9341e-05,1.3955e+08,733.09,0,1.7192e+08,72.574,13319,12138,1,12138,1,4.3821e-05,-3.8159e-10,0,0.00024189,-7.9323e-06,1.3965e+07,-110.79,0,8.1392e+07,4.3728,12137,10979,1,10979,1,-0.00042269,-2.5323e-09,0,8.0128e-06,-9.5323e-05,-1.7192e+08,-678.31,0,3.3616e+06,-64.319,10978,11571,1,11571,1,-0.00019807,-1.3227e-09,0,0.00012095,-5.3233e-05,-8.0555e+07,-382.93,0,4.262e+07,-11.698,11570,12705,1,12705,1,0.00028571,1.6074e-10,0,0.00036284,3.7259e-05,8.1392e+07,46.889,0,1.1848e+08,22.083,12704,656.67,0,656.67,0,0.0002792,1.1361e-09,0,0.00014287,5.2248e-05,9.3741e+07,319.87,0,4.6576e+07,24.651,656.67,1
2268,1.71,12139,1,12139,1,4.4082e-05,-8.1206e-10,0,0.00024524,-8.0254e-06,-13.197,-231.3,0,8.1818e+07,-7.0422,12138,13320,1,13320,1,0.00051337,1.1799e-10,0,0.00051337,7.9812e-05,1.4038e+08,40.408,0,1.7294e+08,20.799,13319,12138,1,12138,1,4.4082e-05,-8.891e-10,0,0.00024333,-7.9795e-06,1.4048e+07,-261.08,0,8.1876e+07,-4.773,12137,10979,1,10979,1,-0.00042521,-1.5681e-09,0,8.0605e-06,-9.5889e-05,-1.7294e+08,-422.91,0,3.3816e+06,-88.962,10978,11571,1,11571,1,-0.00019925,-1.1798e-09,0,0.00012167,-5.355e-05,-8.1034e+07,-342.49,0,4.2873e+07,-10.099,11570,12705,1,12705,1,0.00028741,-4.5547e-10,0,0.000365,3.748e-05,8.1876e+07,-134,0,1.1918e+08,-0.71561,12704,656.67,0,656.67,0,0.00028086,4.6231e-10,0,0.00014372,5.2558e-05,9.4299e+07,128.27,0,4.6853e+07,12,656.67,1
2268,1.72,12139,1,12139,1,4.4338e-05,-4.7795e-10,0,0.00024667,-8.0721e-06,37.895,-135.9,0,8.2294e+07,-0.99286,12138,13320,1,13320,1,0.00051636,1.6934e-09,0,0.00051636,8.0277e-05,1.412e+08,460.67,0,1.7395e+08,65.349,13319,12138,1,12138,1,4.4339e-05,-3.0684e-10,0,0.00024475,-8.026e-06,1.413e+07,-93.584,0,8.2353e+07,-1.4758,12137,10979,1,10979,1,-0.00042768,-2.3987e-09,0,8.1074e-06,-9.6448e-05,-1.7395e+08,-653.02,0,3.4013e+06,-105.28,10978,11571,1,11571,1,-0.00020041,-1.1725e-09,0,0.00012237,-5.3862e-05,-8.1506e+07,-332.34,0,4.3122e+07,-15.903,11570,12705,1,12705,1,0.00028909,1.2358e-10,0,0.00036712,3.7699e-05,8.2353e+07,35.739,0,1.1988e+08,17.708,12704,656.67,0,656.67,0,0.00028249,9.188e-10,0,0.00014456,5.2864e-05,9.4848e+07,260.59,0,4.7125e+07,27.367,656.67,1
2268,1.73,12139,1,12139,1,4.4596e-05,1.0911e-10,0,0.0002481,-8.119e-06,3.4919,31.442,0,8.2772e+07,0.11248,12138,13320,1,13320,1,0.00051935,1.435e-09,0,0.00051935,8.0742e-05,1.4201e+08,390.25,0,1.7496e+08,26.704,13319,12138,1,12138,1,4.4596e-05,1.4895e-11,0,0.00024617,-8.0726e-06,1.4212e+07,4.4767,0,8.2831e+07,1.2136,12137,10979,1,10979,1,-0.00043016,-5.2526e-10,0,8.1544e-06,-9.7006e-05,-1.7496e+08,-146.34,0,3.421e+06,-63.993,10978,11571,1,11571,1,-0.00020157,-1.6809e-10,0,0.00012308,-5.4174e-05,-8.1979e+07,-49.995,0,4.3373e+07,-4.8374,11570,12705,1,12705,1,0.00029077,3.0494e-10,0,0.00036925,3.7918e-05,8.2831e+07,87.555,0,1.2057e+08,9.3009,12704,656.67,0,656.67,0,0.00028413,4.0633e-10,0,0.0001454,5.3171e-05,9.5399e+07,115.63,0,4.7399e+07,13.488,656.67,1
2268,1.74,12139,1,12139,1,4.4853e-05,-4.4692e-10,0,0.00024953,-8.1658e-06,-18.217,-126.89,0,8.325e+07,6.4017,12138,13320,1,13320,1,0.00052236,2.3614e-09,0,0.00052236,8.1209e-05,1.4284e+08,649.65,0,1.7597e+08,73.567,13319,12138,1,12138,1,4.4853e-05,-2.8236e-10,0,0.00024759,-8.1191e-06,1.4294e+07,-75.957,0,8.3309e+07,3.4829,12137,10979,1,10979,1,-0.00043265,-3.1185e-09,0,8.2017e-06,-9.7568e-05,-1.7597e+08,-850.55,0,3.4409e+06,-76.443,10978,11571,1,11571,1,-0.00020274,-1.2519e-09,0,0.0001238,-5.4487e-05,-8.2452e+07,-359.08,0,4.3623e+07,-11.93,11570,12705,1,12705,1,0.00029244,2.2748e-10,0,0.00037139,3.8137e-05,8.3309e+07,65.53,0,1.2127e+08,26.585,12704,656.67,0,656.67,0,0.00028577,1.1851e-09,0,0.00014624,5.3478e-05,9.5949e+07,338.5,0,4.7673e+07,26.363,656.67,1
2268,1.75,12139,1,12139,1,4.5111e-05,-3.5514e-10,0,0.00025097,-8.2128e-06,-8.2668,-101.63,0,8.3729e+07,0.93751,12138,13320,1,13320,1,0.00052536,4.982e-10,0,0.00052536,8.1676e-05,1.4366e+08,136.55,0,1.7698e+08,17.441,13319,12138,1,12138,1,4.5111e-05,-3.1121e-10,0,0.00024901,-8.1658e-06,1.4376e+07,-87.658,0,8.3788e+07,2.4042,12137,10979,1,10979,1,-0.00043513,-1.3544e-09,0,8.2487e-06,-9.8128e-05,-1.7698e+08,-372.58,0,3.4606e+06,-48.808,10978,11571,1,11571,1,-0.0002039,-6.1089e-10,0,0.00012451,-5.48e-05,-8.2926e+07,-177.83,0,4.3874e+07,-2.2268,11570,12705,1,12705,1,0.00029413,-8.9932e-11,0,0.00037352,3.8356e-05,8.3788e+07,-26.033,0,1.2197e+08,7.8169,12704,656.67,0,656.67,0,0.00028742,3.653e-10,0,0.00014708,5.3786e-05,9.6501e+07,103.65,0,4.7947e+07,10.02,656.67,1
2268,1.76,12139,1,12139,1,4.5369e-05,-2.9098e-10,0,0.0002524,-8.2598e-06,-21.173,-83.469,0,8.4208e+07,-1.3433,12138,13320,1,13320,1,0.00052836,2.9976e-10,0,0.00052836,8.2143e-05,1.4448e+08,88.938,0,1.7799e+08,15.334,13319,12138,1,12138,1,4.5369e-05,-2.3748e-10,0,0.00025044,-8.2126e-06,1.4458e+07,-68.107,0,8.4267e+07,1.0203,12137,10979,1,10979,1,-0.00043762,-1.1895e-09,0,8.2959e-06,-9.8689e-05,-1.7799e+08,-335.9,0,3.4804e+06,-54.132,10978,11571,1,11571,1,-0.00020507,-4.49e-10,0,0.00012522,-5.5114e-05,-8.3401e+07,-128.64,0,4.4125e+07,-2.2008,11570,12705,1,12705,1,0.00029581,-8.0188e-11,0,0.00037566,3.8575e-05,8.4267e+07,-22.562,0,1.2266e+08,4.0524,12704,656.67,0,656.67,0,0.00028906,2.7817e-10,0,0.00014792,5.4093e-05,9.7053e+07,80.307,0,4.8221e+07,9.541,656.67,1
2268,1.77,12139,1,12139,1,4.5626e-05,-1.0868e-09,0,0.00025383,-8.3066e-06,-6.0326,-308.68,0,8.4684e+07,-0.16459,12138,13320,1,13320,1,0.00053137,2.3233e-09,0,0.00053137,8.261e-05,1.453e+08,637.83,0,1.7901e+08,110.06,13319,12138,1,12138,1,4.5626e-05,-8.6215e-10,0,0.00025186,-8.2591e-06,1.454e+07,-239.83,0,8.4745e+07,-5.3628,12137,10979,1,10979,1,-0.00044011,-4.3448e-09,0,8.3428e-06,-9.9251e-05,-1.7901e+08,-1175.1,0,3.5001e+06,-117.42,10978,11571,1,11571,1,-0.00020623,-2.3279e-09,0,0.00012593,-5.5426e-05,-8.3873e+07,-672.76,0,4.4375e+07,-25.929,11570,12705,1,12705,1,0.00029749,1.6313e-10,0,0.00037779,3.8794e-05,8.4745e+07,44.206,0,1.2336e+08,21.855,12704,656.67,0,656.67,0,0.0002907,1.5845e-09,0,0.00014876,5.44e-05,9.7603e+07,450.98,0,4.8494e+07,38.982,656.67,1
2268,1.78,12139,1,12139,1,4.5886e-05,-1.2163e-10,0,0.00025527,-8.3537e-06,-20.914,-34.3,0,8.5165e+07,4.3193,12138,13320,1,13320,1,0.00053437,2.0387e-09,0,0.00053437,8.3077e-05,1.4612e+08,564.46,0,1.8002e+08,62.372,13319,12138,1,12138,1,4.5886e-05,-1.1848e-10,0,0.00025329,-8.306e-06,1.4623e+07,-34.207,0,8.5225e+07,1.8877,12137,10979,1,10979,1,-0.0004426,-1.5321e-09,0,8.3902e-06,-9.9812e-05,-1.8002e+08,-418.9,0,3.5199e+06,-74.707,10978,11571,1,11571,1,-0.0002074,-6.6342e-10,0,0.00012664,-5.5741e-05,-8.4349e+07,-188.9,0,4.4627e+07,-7.5259,11570,12705,1,12705,1,0.00029917,2.338e-10,0,0.00037993,3.9014e-05,8.5225e+07,64.841,0,1.2406e+08,16.99,12704,656.67,0,656.67,0,0.00029235,7.6224e-10,0,0.0001496,5.4709e-05,9.8157e+07,218.42,0,4.877e+07,21.343,656.67,1
2268,1.79,12139,1,12139,1,4.6143e-05,-6.903e-10,0,0.00025671,-8.4007e-06,-0.42649,-197.51,0,8.5644e+07,-1.6451,12138,13320,1,13320,1,0.00053738,2.8105e-10,0,0.00053738,8.3544e-05,1.4694e+08,81.512,0,1.8103e+08,22.93,13319,12138,1,12138,1,4.6143e-05,-5.8182e-10,0,0.00025471,-8.3527e-06,1.4705e+07,-168.2,0,8.5704e+07,-0.59138,12137,10979,1,10979,1,-0.00044509,-2.098e-09,0,8.4372e-06,-0.00010037,-1.8103e+08,-573.02,0,3.5397e+06,-60.737,10978,11571,1,11571,1,-0.00020857,-1.1174e-09,0,0.00012736,-5.6054e-05,-8.4823e+07,-321.89,0,4.4878e+07,-7.0943,11570,12705,1,12705,1,0.00030085,-1.8753e-10,0,0.00038207,3.9233e-05,8.5704e+07,-55.897,0,1.2476e+08,7.1402,12704,656.67,0,656.67,0,0.00029399,5.8616e-10,0,0.00015044,5.5016e-05,9.8709e+07,167.16,0,4.9044e+07,12.594,656.67,1
2268,1.8,12139,1,12139,1,4.6401e-05,-4.5081e-10,0,0.00025814,-8.4476e-06,6.5728,-128.06,0,8.6122e+07,5.0477,12138,13320,1,13320,1,0.00054038,2.4513e-09,0,0.00054038,8.4011e-05,1.4776e+08,678.17,0,1.8204e+08,85.744,13319,12138,1,12138,1,4.6401e-05,-3.4931e-10,0,0.00025613,-8.3993e-06,1.4787e+07,-99.665,0,8.6182e+07,0.30541,12137,10979,1,10979,1,-0.00044757,-2.7214e-09,0,8.4843e-06,-0.00010093,-1.8204e+08,-741.81,0,3.5594e+06,-76.991,10978,11571,1,11571,1,-0.00020973,-1.2822e-09,0,0.00012807,-5.6367e-05,-8.5296e+07,-367.02,0,4.5128e+07,-13.341,11570,12705,1,12705,1,0.00030253,1.7793e-10,0,0.0003842,3.9452e-05,8.6182e+07,51.407,0,1.2545e+08,22.173,12704,656.67,0,656.67,0,0.00029563,1.1391e-09,0,0.00015128,5.5323e-05,9.9259e+07,325.53,0,4.9317e+07,28.001,656.67,1
2268,1.81,12139,1,12139,1,4.6659e-05,-1.7345e-10,0,0.00025957,-8.4945e-06,-5.8011,-49.249,0,8.66e+07,3.5449,12138,13320,1,13320,1,0.00054338,2.1699e-09,0,0.00054338,8.4477e-05,1.4858e+08,600.86,0,1.8305e+08,65.789,13319,12138,1,12138,1,4.6659e-05,-1.7254e-10,0,0.00025755,-8.4459e-06,1.4869e+07,-47.578,0,8.6661e+07,0.66345,12137,10979,1,10979,1,-0.00045006,-1.6843e-09,0,8.5314e-06,-0.00010149,-1.8305e+08,-460.28,0,3.5792e+06,-78.239,10978,11571,1,11571,1,-0.0002109,-7.6855e-10,0,0.00012878,-5.668e-05,-8.577e+07,-219.61,0,4.5379e+07,-9.1196,11570,12705,1,12705,1,0.00030421,1.9762e-10,0,0.00038633,3.9671e-05,8.6661e+07,56.631,0,1.2615e+08,17.609,12704,656.67,0,656.67,0,0.00029727,8.2565e-10,0,0.00015212,5.563e-05,9.9811e+07,236.55,0,4.9591e+07,22.709,656.67,1
2268,1.82,12139,1,12139,1,4.6917e-05,-8.7667e-11,0,0.00026101,-8.5415e-06,-0.73103,-24.713,0,8.7079e+07,2.7174,12138,13320,1,13320,1,0.00054638,1.8315e-09,0,0.00054638,8.4944e-05,1.4941e+08,508.18,0,1.8406e+08,54.632,13319,12138,1,12138,1,4.6917e-05,-9.0532e-11,0,0.00025898,-8.4927e-06,1.4951e+07,-25.677,0,8.7141e+07,0.94168,12137,10979,1,10979,1,-0.00045255,-1.3717e-09,0,8.5785e-06,-0.00010205,-1.8406e+08,-375.28,0,3.599e+06,-83.517,10978,11571,1,11571,1,-0.00021206,-6.0321e-10,0,0.00012949,-5.6993e-05,-8.6245e+07,-170.97,0,4.563e+07,-8.0061,11570,12705,1,12705,1,0.0003059,2.7608e-10,0,0.00038847,3.9891e-05,8.7141e+07,79.489,0,1.2685e+08,16.732,12704,656.67,0,656.67,0,0.00029892,7.0812e-10,0,0.00015297,5.5938e-05,1.0036e+08,202.85,0,4.9866e+07,20.707,656.67,1
2268,1.83,12139,1,12139,1,4.7176e-05,-4.3448e-10,0,0.00026245,-8.5888e-06,3.2309,-124.5,0,8.7561e+07,-8.8416,12138,13320,1,13320,1,0.0005494,6.6434e-11,0,0.0005494,8.5413e-05,1.5023e+08,22.75,0,1.8508e+08,12.482,13319,12138,1,12138,1,4.7176e-05,-3.4812e-10,0,0.00026041,-8.5397e-06,1.5034e+07,-100.27,0,8.7622e+07,-7.1626,12137,10979,1,10979,1,-0.00045505,-1.4741e-09,0,8.6258e-06,-0.00010262,-1.8508e+08,-392.58,0,3.6188e+06,-73.253,10978,11571,1,11571,1,-0.00021323,-6.5621e-10,0,0.0001302,-5.7308e-05,-8.6721e+07,-190.74,0,4.5882e+07,-13.203,11570,12705,1,12705,1,0.00030759,-1.5634e-10,0,0.00039062,4.0111e-05,8.7622e+07,-47.273,0,1.2755e+08,-1.0035,12704,656.67,0,656.67,0,0.00030057,3.5134e-10,0,0.00015381,5.6247e-05,1.0092e+08,98.951,0,5.0141e+07,10.998,656.67,1
2268,1.84,12139,1,12139,1,4.7432e-05,-1.5951e-10,0,0.00026388,-8.6354e-06,1.7792,-45.844,0,8.8036e+07,2.0892,12138,13320,1,13320,1,0.00055238,1.3203e-09,0,0.00055238,8.5877e-05,1.5105e+08,370.56,0,1.8608e+08,37.574,13319,12138,1,12138,1,4.7432e-05,-1.3524e-10,0,0.00026182,-8.586e-06,1.5116e+07,-38.701,0,8.8098e+07,2.1017,12137,10979,1,10979,1,-0.00045752,-1.4172e-09,0,8.6727e-06,-0.00010318,-1.8608e+08,-396.39,0,3.6385e+06,-64.081,10978,11571,1,11571,1,-0.00021439,-5.1579e-10,0,0.00013091,-5.762e-05,-8.7192e+07,-148.74,0,4.6131e+07,-5.3909,11570,12705,1,12705,1,0.00030926,1.1341e-10,0,0.00039274,4.0329e-05,8.8098e+07,31.627,0,1.2824e+08,13.15,12704,656.67,0,656.67,0,0.0003022,5.5698e-10,0,0.00015465,5.6553e-05,1.0147e+08,160.22,0,5.0414e+07,15.656,656.67,1
2268,1.85,12139,1,12139,1,4.7692e-05,3.8838e-10,0,0.00026532,-8.6826e-06,-10.545,110.27,0,8.8517e+07,-5.5757,12138,13320,1,13320,1,0.0005554,1.1013e-09,0,0.0005554,8.6347e-05,1.5187e+08,296.53,0,1.871e+08,10.879,13319,12138,1,12138,1,4.7692e-05,3.033e-10,0,0.00026326,-8.633e-06,1.5198e+07,89.051,0,8.8579e+07,-4.2693,12137,10979,1,10979,1,-0.00046002,-1.1278e-10,0,8.7201e-06,-0.00010374,-1.871e+08,-38.622,0,3.6583e+06,-59.005,10978,11571,1,11571,1,-0.00021556,1.4825e-10,0,0.00013163,-5.7935e-05,-8.7669e+07,44.254,0,4.6383e+07,-10.247,11570,12705,1,12705,1,0.00031095,6.1356e-10,0,0.00039488,4.0549e-05,8.8579e+07,179.65,0,1.2894e+08,1.2624,12704,656.67,0,656.67,0,0.00030386,3.0535e-10,0,0.00015549,5.6862e-05,1.0202e+08,84.433,0,5.0689e+07,9.3625,656.67,1
2268,1.86,12139,1,12139,1,4.7947e-05,-1.8053e-10,0,0.00026674,-8.7291e-06,-31.174,-51.501,0,8.8991e+07,7.8616,12138,13320,1,13320,1,0.00055838,3.1963e-09,0,0.00055838,8.681e-05,1.5269e+08,867.25,0,1.8811e+08,86.121,13319,12138,1,12138,1,4.7947e-05,-9.9208e-11,0,0.00026467,-8.6792e-06,1.528e+07,-29.846,0,8.9054e+07,4.3756,12137,10979,1,10979,1,-0.00046249,-2.9691e-09,0,8.7668e-06,-0.0001043,-1.8811e+08,-810.77,0,3.6779e+06,-75.353,10978,11571,1,11571,1,-0.00021672,-1.0684e-09,0,0.00013233,-5.8245e-05,-8.8139e+07,-302.19,0,4.6632e+07,-13.459,11570,12705,1,12705,1,0.00031261,5.617e-10,0,0.000397,4.0767e-05,8.9054e+07,165.32,0,1.2963e+08,27.59,12704,656.67,0,656.67,0,0.00030548,1.2951e-09,0,0.00015632,5.7166e-05,1.0257e+08,369.08,0,5.0961e+07,28.276,656.67,1
2268,1.87,12139,1,12139,1,4.8205e-05,4.89e-10,0,0.00026817,-8.776e-06,9.0162,139.18,0,8.947e+07,10.699,12138,13320,1,13320,1,0.00056139,3.5289e-09,0,0.00056139,8.7277e-05,1.5351e+08,956.94,0,1.8912e+08,90.392,13319,12138,1,12138,1,4.8205e-05,1.4917e-10,0,0.00026609,-8.7259e-06,1.5362e+07,41.327,0,8.9533e+07,9.859,12137,10979,1,10979,1,-0.00046498,-1.5219e-09,0,8.8138e-06,-0.00010486,-1.8912e+08,-421.43,0,3.6977e+06,-65.676,10978,11571,1,11571,1,-0.00021789,-1.9764e-10,0,0.00013305,-5.8558e-05,-8.8613e+07,-56.752,0,4.6883e+07,-7.4454,11570,12705,1,12705,1,0.0003143,1.098e-09,0,0.00039914,4.0986e-05,8.9533e+07,308.51,0,1.3033e+08,29.666,12704,656.67,0,656.67,0,0.00030713,1.0217e-09,0,0.00015717,5.7474e-05,1.0312e+08,290.96,0,5.1235e+07,27.448,656.67,1
2268,1.88,12139,1,12139,1,4.8462e-05,-6.7414e-11,0,0.00026961,-8.8229e-06,-8.5516,-19.054,0,8.9947e+07,5.8801,12138,13320,1,13320,1,0.00056438,2.5735e-09,0,0.00056438,8.7742e-05,1.5433e+08,710.96,0,1.9013e+08,60.579,13319,12138,1,12138,1,4.8462e-05,-6.8621e-11,0,0.00026751,-8.7724e-06,1.5444e+07,-19.591,0,9.001e+07,5.0554,12137,10979,1,10979,1,-0.00046745,-2.4238e-09,0,8.861e-06,-0.00010542,-1.9013e+08,-663.91,0,3.7174e+06,-65.653,10978,11571,1,11571,1,-0.00021905,-6.6164e-10,0,0.00013375,-5.8871e-05,-8.9085e+07,-190.23,0,4.7133e+07,-8.722,11570,12705,1,12705,1,0.00031597,4.6176e-10,0,0.00040126,4.1205e-05,9.001e+07,132.08,0,1.3102e+08,22.804,12704,656.67,0,656.67,0,0.00030876,1.0041e-09,0,0.000158,5.7781e-05,1.0367e+08,287.53,0,5.1508e+07,21.227,656.67,1
2268,1.89,12139,1,12139,1,4.8721e-05,-1.5304e-10,0,0.00027104,-8.87e-06,-16.802,-43.678,0,9.0427e+07,4.3829,12138,13320,1,13320,1,0.00056739,1.8143e-09,0,0.00056739,8.821e-05,1.5515e+08,505.42,0,1.9114e+08,47.246,13319,12138,1,12138,1,4.8721e-05,-1.032e-10,0,0.00026894,-8.8193e-06,1.5526e+07,-31.415,0,9.0491e+07,3.4731,12137,10979,1,10979,1,-0.00046995,-1.8828e-09,0,8.9082e-06,-0.00010598,-1.9114e+08,-517.56,0,3.7373e+06,-61.739,10978,11571,1,11571,1,-0.00022022,-6.5893e-10,0,0.00013447,-5.9185e-05,-8.9561e+07,-191.23,0,4.7384e+07,-6.6869,11570,12705,1,12705,1,0.00031766,2.683e-10,0,0.00040341,4.1424e-05,9.0491e+07,77.699,0,1.3172e+08,18.267,12704,656.67,0,656.67,0,0.00031041,7.7618e-10,0,0.00015885,5.8089e-05,1.0422e+08,222.72,0,5.1783e+07,17.752,656.67,1
2268,1.9,12139,1,12139,1,4.8979e-05,-3.8447e-10,0,0.00027248,-8.9169e-06,-2.3746,-109.99,0,9.0906e+07,3.1179,12138,13320,1,13320,1,0.00057039,1.9402e-09,0,0.00057039,8.8677e-05,1.5597e+08,530.16,0,1.9215e+08,66.441,13319,12138,1,12138,1,4.8979e-05,-3.2535e-10,0,0.00027036,-8.8659e-06,1.5609e+07,-96.287,0,9.0969e+07,1.4428,12137,10979,1,10979,1,-0.00047244,-2.0279e-09,0,8.9553e-06,-0.00010654,-1.9215e+08,-554.13,0,3.757e+06,-57.353,10978,11571,1,11571,1,-0.00022138,-1.0355e-09,0,0.00013518,-5.9498e-05,-9.0035e+07,-302.18,0,4.7635e+07,-9.4685,11570,12705,1,12705,1,0.00031934,1.0373e-10,0,0.00040554,4.1644e-05,9.0969e+07,29.541,0,1.3242e+08,14.758,12704,656.67,0,656.67,0,0.00031205,8.5363e-10,0,0.00015969,5.8396e-05,1.0477e+08,242.7,0,5.2057e+07,21.525,656.67,1
2268,1.91,12139,1,12139,1,4.9239e-05,-4.1696e-10,0,0.00027393,-8.9643e-06,2.2279,-119.07,0,9.1389e+07,-9.4073,12138,13320,1,13320,1,0.00057342,5.6174e-10,0,0.00057342,8.9148e-05,1.568e+08,141.4,0,1.9317e+08,36.163,13319,12138,1,12138,1,4.9239e-05,-2.8795e-10,0,0.0002718,-8.9131e-06,1.5691e+07,-78.991,0,9.1452e+07,-6.4926,12137,10979,1,10979,1,-0.00047494,-1.8682e-09,0,9.0026e-06,-0.00010711,-1.9317e+08,-498.57,0,3.7769e+06,-82.863,10978,11571,1,11571,1,-0.00022256,-7.729e-10,0,0.0001359,-5.9814e-05,-9.0512e+07,-225.03,0,4.7888e+07,-18.759,11570,12705,1,12705,1,0.00032103,4.4801e-12,0,0.00040769,4.1865e-05,9.1452e+07,1.2675,0,1.3312e+08,2.8818,12704,656.67,0,656.67,0,0.00031371,5.202e-10,0,0.00016054,5.8707e-05,1.0533e+08,146.5,0,5.2334e+07,18.676,656.67,1
2268,1.92,12139,1,12139,1,4.9494e-05,-1.2069e-10,0,0.00027534,-9.0107e-06,-26.383,-35.047,0,9.1862e+07,6.3325,12138,13320,1,13320,1,0.00057639,1.6162e-09,0,0.00057639,8.9609e-05,1.5761e+08,437.78,0,1.9417e+08,41.267,13319,12138,1,12138,1,4.9494e-05,-6.0599e-11,0,0.0002732,-8.9592e-06,1.5773e+07,-17.435,0,9.1926e+07,5.8654,12137,10979,1,10979,1,-0.0004774,-2.2082e-09,0,9.0493e-06,-0.00010766,-1.9417e+08,-607.64,0,3.7965e+06,-55.953,10978,11571,1,11571,1,-0.00022371,-5.2666e-10,0,0.0001366,-6.0124e-05,-9.0981e+07,-150.28,0,4.8136e+07,-4.2875,11570,12705,1,12705,1,0.0003227,3.3598e-10,0,0.0004098,4.2082e-05,9.1926e+07,97.044,0,1.3381e+08,18.834,12704,656.67,0,656.67,0,0.00031534,7.2886e-10,0,0.00016137,5.901e-05,1.0588e+08,208.62,0,5.2604e+07,16.129,656.67,1
2268,1.93,12139,1,12139,1,4.9753e-05,-2.6859e-10,0,0.00027678,-9.0579e-06,-1.8861,-76.141,0,9.2342e+07,-0.80498,12138,13320,1,13320,1,0.00057941,1.2015e-09,0,0.00057941,9.0078e-05,1.5844e+08,340.24,0,1.9519e+08,44.607,13319,12138,1,12138,1,4.9753e-05,-1.9878e-10,0,0.00027463,-9.0061e-06,1.5855e+07,-61.18,0,9.2407e+07,-1.2036,12137,10979,1,10979,1,-0.0004799,-1.4424e-09,0,9.0965e-06,-0.00010822,-1.9519e+08,-394.62,0,3.8163e+06,-77.532,10978,11571,1,11571,1,-0.00022488,-7.1936e-10,0,0.00013732,-6.0438e-05,-9.1457e+07,-207.59,0,4.8388e+07,-9.0287,11570,12705,1,12705,1,0.00032439,1.0004e-10,0,0.00041195,4.2302e-05,9.2407e+07,26.644,0,1.3451e+08,8.7137,12704,656.67,0,656.67,0,0.00031699,5.9457e-10,0,0.00016221,5.9319e-05,1.0643e+08,170.33,0,5.288e+07,17.815,656.67,1
2268,1.94,12139,1,12139,1,5.0011e-05,-4.0199e-10,0,0.00027822,-9.1047e-06,0.11208,-114.95,0,9.282e+07,-0.38632,12138,13320,1,13320,1,0.00058241,1.5407e-09,0,0.00058241,9.0545e-05,1.5926e+08,423.74,0,1.962e+08,48.944,13319,12138,1,12138,1,5.0011e-05,-3.1093e-10,0,0.00027605,-9.0527e-06,1.5937e+07,-89.942,0,9.2885e+07,-1.1195,12137,10979,1,10979,1,-0.00048238,-2.0507e-09,0,9.1436e-06,-0.00010878,-1.962e+08,-560.34,0,3.8361e+06,-69.804,10978,11571,1,11571,1,-0.00022604,-9.7059e-10,0,0.00013803,-6.0751e-05,-9.193e+07,-279.13,0,4.8638e+07,-11.279,11570,12705,1,12705,1,0.00032606,6.7127e-11,0,0.00041408,4.2521e-05,9.2885e+07,17.852,0,1.3521e+08,11.888,12704,656.67,0,656.67,0,0.00031863,7.7384e-10,0,0.00016305,5.9626e-05,1.0698e+08,221.26,0,5.3153e+07,18.449,656.67,1
2268,1.95,12139,1,12139,1,5.0268e-05,2.0882e-11,0,0.00027965,-9.1517e-06,-61.224,6.0661,0,9.3299e+07,4.52,12138,13320,1,13320,1,0.00058541,2.6841e-09,0,0.00058541,9.1011e-05,1.6008e+08,727.7,0,1.9721e+08,66.918,13319,12138,1,12138,1,5.0268e-05,-5.7225e-11,0,0.00027748,-9.0994e-06,1.6019e+07,-14.507,0,9.3364e+07,3.0645,12137,10979,1,10979,1,-0.00048487,-1.5253e-09,0,9.1908e-06,-0.00010934,-1.9721e+08,-416.37,0,3.8559e+06,-83.327,10978,11571,1,11571,1,-0.00022721,-6.2026e-10,0,0.00013874,-6.1064e-05,-9.2405e+07,-179.32,0,4.8889e+07,-10.353,11570,12705,1,12705,1,0.00032775,4.7732e-10,0,0.00041622,4.274e-05,9.3364e+07,137.65,0,1.3591e+08,22.814,12704,656.67,0,656.67,0,0.00032027,9.0795e-10,0,0.00016389,5.9934e-05,1.0753e+08,257.34,0,5.3428e+07,25.163,656.67,1
2268,1.96,12139,1,12139,1,5.0526e-05,-4.1835e-10,0,0.00028108,-9.1986e-06,8.3702,-119.32,0,9.3776e+07,-1.5483,12138,13320,1,13320,1,0.00058841,1.1049e-09,0,0.00058841,9.1477e-05,1.609e+08,314.97,0,1.9822e+08,46.975,13319,12138,1,12138,1,5.0526e-05,-3.3539e-10,0,0.0002789,-9.146e-06,1.6102e+07,-102.42,0,9.3842e+07,-2.0256,12137,10979,1,10979,1,-0.00048735,-1.7414e-09,0,9.2377e-06,-0.0001099,-1.9822e+08,-475.97,0,3.8755e+06,-84.421,10978,11571,1,11571,1,-0.00022837,-9.4557e-10,0,0.00013945,-6.1377e-05,-9.2878e+07,-275.54,0,4.9139e+07,-10.695,11570,12705,1,12705,1,0.00032942,4.0686e-11,0,0.00041835,4.2959e-05,9.3842e+07,10.498,0,1.366e+08,10.483,12704,656.67,0,656.67,0,0.00032191,6.738e-10,0,0.00016473,6.024e-05,1.0808e+08,192.98,0,5.3701e+07,19.318,656.67,1
2268,1.97,12139,1,12139,1,5.0783e-05,-8.0434e-10,0,0.00028251,-9.2454e-06,-19.332,-228.79,0,9.4254e+07,2.2882,12138,13320,1,13320,1,0.00059141,1.7643e-09,0,0.00059141,9.1944e-05,1.6172e+08,491.94,0,1.9923e+08,78.039,13319,12138,1,12138,1,5.0783e-05,-6.588e-10,0,0.00028032,-9.1925e-06,1.6183e+07,-183.68,0,9.432e+07,-1.3194,12137,10979,1,10979,1,-0.00048984,-3.156e-09,0,9.2848e-06,-0.00011047,-1.9923e+08,-860.33,0,3.8953e+06,-86.265,10978,11571,1,11571,1,-0.00022954,-1.7097e-09,0,0.00014016,-6.169e-05,-9.3351e+07,-494.45,0,4.9389e+07,-16.011,11570,12705,1,12705,1,0.0003311,9.6785e-11,0,0.00042048,4.3178e-05,9.432e+07,24.55,0,1.373e+08,17.794,12704,656.67,0,656.67,0,0.00032355,1.1498e-09,0,0.00016557,6.0547e-05,1.0863e+08,327.91,0,5.3974e+07,28.943,656.67,1
2268,1.98,12139,1,12139,1,5.1042e-05,-5.8678e-10,0,0.00028395,-9.2925e-06,7.3698,-167.49,0,9.4733e+07,-0.65796,12138,13320,1,13320,1,0.00059441,5.5888e-10,0,0.00059441,9.2411e-05,1.6254e+08,167.45,0,2.0024e+08,34.422,13319,12138,1,12138,1,5.1042e-05,-4.7498e-10,0,0.00028174,-9.2394e-06,1.6266e+07,-135.68,0,9.4799e+07,-0.23799,12137,10979,1,10979,1,-0.00049233,-2.0362e-09,0,9.3319e-06,-0.00011103,-2.0024e+08,-556.34,0,3.9151e+06,-77.649,10978,11571,1,11571,1,-0.0002307,-1.0371e-09,0,0.00014087,-6.2003e-05,-9.3826e+07,-299.67,0,4.9641e+07,-7.9817,11570,12705,1,12705,1,0.00033279,-7.7955e-11,0,0.00042262,4.3397e-05,9.4799e+07,-23.909,0,1.38e+08,9.4769,12704,656.67,0,656.67,0,0.00032519,6.246e-10,0,0.00016641,6.0855e-05,1.0918e+08,177.96,0,5.4249e+07,16.067,656.67,1
2268,1.99,12139,1,12139,1,5.1299e-05,-1.4508e-10,0,0.00028538,-9.3393e-06,-13.631,-41.274,0,9.5211e+07,5.0841,12138,13320,1,13320,1,0.00059741,2.214e-09,0,0.00059741,9.2877e-05,1.6336e+08,614.04,0,2.0125e+08,54.022,13319,12138,1,12138,1,5.1299e-05,-1.0294e-10,0,0.00028316,-9.2859e-06,1.6348e+07,-29.98,0,9.5277e+07,3.8909,12137,10979,1,10979,1,-0.00049481,-2.2015e-09,0,9.379e-06,-0.00011159,-2.0125e+08,-604.48,0,3.9348e+06,-63.687,10978,11571,1,11571,1,-0.00023187,-7.3552e-10,0,0.00014158,-6.2316e-05,-9.4298e+07,-213.05,0,4.9891e+07,-8.4578,11570,12705,1,12705,1,0.00033446,3.4813e-10,0,0.00042475,4.3616e-05,9.5277e+07,100.2,0,1.3869e+08,21.25,12704,656.67,0,656.67,0,0.00032683,9.1841e-10,0,0.00016725,6.1162e-05,1.0974e+08,263.42,0,5.4522e+07,20.334,656.67,1
2268,2,12139,1,12139,1,5.1558e-05,-1.259e-10,0,0.00028683,-9.3865e-06,9.3827,-35.722,0,9.5692e+07,-1.2977,12138,13320,1,13320,1,0.00060042,1.0756e-09,0,0.00060042,9.3346e-05,1.6418e+08,293.75,0,2.0227e+08,39.782,13319,12138,1,12138,1,5.1558e-05,-1.0532e-10,0,0.00028459,-9.3329e-06,1.643e+07,-29.654,0,9.5758e+07,-0.88488,12137,10979,1,10979,1,-0.00049731,-9.509e-10,0,9.4261e-06,-0.00011215,-2.0227e+08,-256.29,0,3.9546e+06,-87.3,10978,11571,1,11571,1,-0.00023304,-4.5929e-10,0,0.0001423,-6.2631e-05,-9.4775e+07,-132.05,0,5.0143e+07,-7.381,11570,12705,1,12705,1,0.00033615,1.0932e-10,0,0.00042689,4.3836e-05,9.5758e+07,30.672,0,1.3939e+08,8.9815,12704,656.67,0,656.67,0,0.00032848,4.3443e-10,0,0.0001681,6.1471e-05,1.1029e+08,123.8,0,5.4798e+07,17.192,656.67,1
2268,2.01,12139,1,12139,1,5.1815e-05,-3.7858e-10,0,0.00028826,-9.4333e-06,-18.175,-107.83,0,9.6169e+07,0.94637,12138,13320,1,13320,1,0.00060342,1.0694e-09,0,0.00060342,9.3811e-05,1.65e+08,308.3,0,2.0328e+08,36.749,13319,12138,1,12138,1,5.1815e-05,-2.6636e-10,0,0.00028601,-9.3794e-06,1.6512e+07,-77.599,0,9.6236e+07,1.1628,12137,10979,1,10979,1,-0.00049979,-1.9279e-09,0,9.4733e-06,-0.00011271,-2.0328e+08,-528.55,0,3.9744e+06,-67.358,10978,11571,1,11571,1,-0.0002342,-8.1754e-10,0,0.00014301,-6.2943e-05,-9.5247e+07,-233.36,0,5.0393e+07,-7.0765,11570,12705,1,12705,1,0.00033783,4.473e-11,0,0.00042902,4.4055e-05,9.6236e+07,12.607,0,1.4009e+08,11.278,12704,656.67,0,656.67,0,0.00033012,6.4649e-10,0,0.00016893,6.1777e-05,1.1084e+08,185.22,0,5.5071e+07,15.723,656.67,1
2268,2.02,12139,1,12139,1,5.2074e-05,-5.5671e-10,0,0.00028969,-9.4803e-06,-5.9151,-158.87,0,9.6648e+07,-1.5853,12138,13320,1,13320,1,0.00060643,5.1563e-10,0,0.00060643,9.4279e-05,1.6582e+08,161.07,0,2.0429e+08,32.85,13319,12138,1,12138,1,5.2074e-05,-4.5812e-10,0,0.00028744,-9.4262e-06,1.6595e+07,-127.17,0,9.6715e+07,-1.0658,12137,10979,1,10979,1,-0.00050228,-1.9342e-09,0,9.5204e-06,-0.00011327,-2.0429e+08,-528.96,0,3.9941e+06,-72.939,10978,11571,1,11571,1,-0.00023537,-1.0001e-09,0,0.00014372,-6.3257e-05,-9.5722e+07,-290.89,0,5.0644e+07,-7.8601,11570,12705,1,12705,1,0.00033951,-4.9623e-11,0,0.00043116,4.4274e-05,9.6715e+07,-14.383,0,1.4079e+08,7.7773,12704,656.67,0,656.67,0,0.00033177,5.9834e-10,0,0.00016978,6.2085e-05,1.1139e+08,170.99,0,5.5346e+07,15.125,656.67,1
2268,2.03,12139,1,12139,1,5.2331e-05,7.4497e-11,0,0.00029112,-9.5272e-06,-6.3204,21.121,0,9.7126e+07,6.1381,12138,13320,1,13320,1,0.00060942,2.4751e-09,0,0.00060942,9.4745e-05,1.6664e+08,682.93,0,2.053e+08,58.748,13319,12138,1,12138,1,5.2331e-05,-2.9338e-11,0,0.00028886,-9.4727e-06,1.6677e+07,-8.336,0,9.7193e+07,4.5921,12137,10979,1,10979,1,-0.00050476,-1.6893e-09,0,9.5673e-06,-0.00011383,-2.053e+08,-465.79,0,4.0138e+06,-72.013,10978,11571,1,11571,1,-0.00023653,-4.56e-10,0,0.00014443,-6.3569e-05,-9.6195e+07,-128.94,0,5.0894e+07,-7.6271,11570,12705,1,12705,1,0.00034119,5.3847e-10,0,0.00043329,4.4493e-05,9.7193e+07,153.53,0,1.4148e+08,23.114,12704,656.67,0,656.67,0,0.00033341,8.5885e-10,0,0.00017062,6.2392e-05,1.1194e+08,246.12,0,5.5619e+07,21.935,656.67,1
2268,2.04,12139,1,12139,1,5.2591e-05,1.6699e-10,0,0.00029257,-9.5745e-06,-11.178,47.621,0,9.7608e+07,-5.0109,12138,13320,1,13320,1,0.00061244,7.2824e-10,0,0.00061244,9.5214e-05,1.6747e+08,184.48,0,2.0632e+08,6.3458,13319,12138,1,12138,1,5.2591e-05,1.1725e-10,0,0.00029029,-9.5198e-06,1.676e+07,33.654,0,9.7675e+07,-1.8301,12137,10979,1,10979,1,-0.00050726,-1.0122e-10,0,9.6147e-06,-0.00011439,-2.0632e+08,-24.462,0,4.0337e+06,-82.997,10978,11571,1,11571,1,-0.0002377,4.0746e-11,0,0.00014515,-6.3885e-05,-9.6672e+07,12.074,0,5.1147e+07,-4.0319,11570,12705,1,12705,1,0.00034288,2.5595e-10,0,0.00043544,4.4714e-05,9.7675e+07,73.906,0,1.4218e+08,0.96692,12704,656.67,0,656.67,0,0.00033506,1.6049e-10,0,0.00017146,6.2702e-05,1.125e+08,44.371,0,5.5895e+07,11.767,656.67,1
2268,2.05,12139,1,12139,1,5.2846e-05,-4.8582e-10,0,0.00029399,-9.621e-06,-33.875,-138.28,0,9.8082e+07,3.245,12138,13320,1,13320,1,0.00061543,1.8206e-09,0,0.00061543,9.5678e-05,1.6828e+08,509.2,0,2.0732e+08,60.333,13319,12138,1,12138,1,5.2846e-05,-3.4485e-10,0,0.0002917,-9.566e-06,1.6841e+07,-97.617,0,9.815e+07,1.9536,12137,10979,1,10979,1,-0.00050973,-2.7453e-09,0,9.6616e-06,-0.00011495,-2.0732e+08,-749.54,0,4.0534e+06,-70.976,10978,11571,1,11571,1,-0.00023886,-1.1736e-09,0,0.00014585,-6.4195e-05,-9.7142e+07,-334.81,0,5.1395e+07,-10.867,11570,12705,1,12705,1,0.00034455,1.1355e-10,0,0.00043756,4.4931e-05,9.815e+07,30.648,0,1.4288e+08,19.409,12704,656.67,0,656.67,0,0.00033669,9.961e-10,0,0.00017229,6.3006e-05,1.1304e+08,285.01,0,5.6167e+07,22.159,656.67,1
2268,2.06,12139,1,12139,1,5.3105e-05,-5.825e-10,0,0.00029543,-9.6681e-06,-2.1124,-165.53,0,9.8562e+07,-2.6441,12138,13320,1,13320,1,0.00061844,8.0416e-10,0,0.00061844,9.6146e-05,1.6911e+08,236.24,0,2.0834e+08,49.84,13319,12138,1,12138,1,5.3105e-05,-4.8439e-10,0,0.00029313,-9.6128e-06,1.6923e+07,-132.37,0,9.863e+07,-2.6608,12137,10979,1,10979,1,-0.00051223,-2.1094e-09,0,9.7086e-06,-0.00011551,-2.0834e+08,-569.97,0,4.0731e+06,-93.315,10978,11571,1,11571,1,-0.00024003,-1.1744e-09,0,0.00014657,-6.4509e-05,-9.7617e+07,-336.65,0,5.1647e+07,-12.924,11570,12705,1,12705,1,0.00034624,3.4958e-11,0,0.0004397,4.5151e-05,9.863e+07,9.8898,0,1.4357e+08,7.9543,12704,656.67,0,656.67,0,0.00033834,7.1062e-10,0,0.00017314,6.3315e-05,1.136e+08,202.33,0,5.6442e+07,21.058,656.67,1
2268,2.07,12139,1,12139,1,5.3362e-05,-4.3702e-10,0,0.00029686,-9.7148e-06,-23.58,-124.24,0,9.9038e+07,6.6863,12138,13320,1,13320,1,0.00062143,2.3895e-09,0,0.00062143,9.6611e-05,1.6993e+08,661.02,0,2.0934e+08,74.434,13319,12138,1,12138,1,5.3362e-05,-2.9305e-10,0,0.00029455,-9.6593e-06,1.7005e+07,-80.402,0,9.9107e+07,3.8388,12137,10979,1,10979,1,-0.0005147,-3.0239e-09,0,9.7557e-06,-0.00011607,-2.0934e+08,-824.73,0,4.0929e+06,-71.757,10978,11571,1,11571,1,-0.00024119,-1.2358e-09,0,0.00014727,-6.4821e-05,-9.8089e+07,-353.08,0,5.1896e+07,-10.907,11570,12705,1,12705,1,0.00034791,2.0396e-10,0,0.00044182,4.5369e-05,9.9107e+07,60.935,0,1.4427e+08,25.497,12704,656.67,0,656.67,0,0.00033997,1.1678e-09,0,0.00017397,6.3621e-05,1.1415e+08,334,0,5.6714e+07,25.664,656.67,1
2268,2.08,12139,1,12139,1,5.362e-05,-6.6476e-11,0,0.00029829,-9.7618e-06,5.6092,-18.684,0,9.9517e+07,0.013368,12138,13320,1,13320,1,0.00062443,1.5483e-09,0,0.00062443,9.7077e-05,1.7075e+08,431,0,2.1035e+08,39.131,13319,12138,1,12138,1,5.362e-05,-3.0954e-11,0,0.00029597,-9.7061e-06,1.7087e+07,-8.9282,0,9.9586e+07,-0.65894,12137,10979,1,10979,1,-0.00051719,-1.4271e-09,0,9.8026e-06,-0.00011663,-2.1035e+08,-392.02,0,4.1126e+06,-75.965,10978,11571,1,11571,1,-0.00024235,-4.9775e-10,0,0.00014799,-6.5135e-05,-9.8564e+07,-142.31,0,5.2147e+07,-9.1575,11570,12705,1,12705,1,0.00034959,2.9433e-10,0,0.00044396,4.5589e-05,9.9586e+07,85.076,0,1.4497e+08,12.706,12704,656.67,0,656.67,0,0.00034162,6.4657e-10,0,0.00017482,6.3929e-05,1.147e+08,185.56,0,5.6989e+07,17.387,656.67,1
2268,2.09,12139,1,12139,1,5.3878e-05,-3.5546e-10,0,0.00029973,-9.8087e-06,-9.822,-101.38,0,9.9996e+07,2.2637,12138,13320,1,13320,1,0.00062743,1.7823e-09,0,0.00062743,9.7544e-05,1.7157e+08,499.41,0,2.1137e+08,57.542,13319,12138,1,12138,1,5.3878e-05,-2.8399e-10,0,0.0002974,-9.7527e-06,1.717e+07,-81.865,0,1.0006e+08,1.7057,12137,10979,1,10979,1,-0.00051967,-2.2628e-09,0,9.8498e-06,-0.00011719,-2.1137e+08,-618.64,0,4.1324e+06,-71.203,10978,11571,1,11571,1,-0.00024352,-8.9316e-10,0,0.0001487,-6.5448e-05,-9.9037e+07,-254.97,0,5.2398e+07,-8.2507,11570,12705,1,12705,1,0.00035127,7.5352e-11,0,0.00044609,4.5808e-05,1.0006e+08,21.918,0,1.4566e+08,14.201,12704,656.67,0,656.67,0,0.00034326,8.2226e-10,0,0.00017566,6.4236e-05,1.1525e+08,235.85,0,5.7263e+07,19.776,656.67,1
2268,2.1,12139,1,12139,1,5.4136e-05,-1.0484e-10,0,0.00030116,-9.8558e-06,14.627,-30.147,0,1.0048e+08,2.7658,12138,13320,1,13320,1,0.00063044,1.9048e-09,0,0.00063044,9.8012e-05,1.7239e+08,526.52,0,2.1238e+08,47.821,13319,12138,1,12138,1,5.4136e-05,-1.0217e-10,0,0.00029882,-9.7995e-06,1.7252e+07,-27.765,0,1.0054e+08,1.0966,12137,10979,1,10979,1,-0.00052217,-1.3864e-09,0,9.8969e-06,-0.00011776,-2.1238e+08,-379.12,0,4.1521e+06,-74.972,10978,11571,1,11571,1,-0.00024469,-6.6065e-10,0,0.00014941,-6.5762e-05,-9.9512e+07,-191.42,0,5.2649e+07,-8.4392,11570,12705,1,12705,1,0.00035296,2.9184e-10,0,0.00044823,4.6027e-05,1.0054e+08,83.283,0,1.4636e+08,16.891,12704,656.67,0,656.67,0,0.00034491,7.4383e-10,0,0.0001765,6.4544e-05,1.158e+08,212.37,0,5.7537e+07,19.044,656.67,1
2268,2.11,12139,1,12139,1,5.4396e-05,2.7874e-10,0,0.00030261,-9.9032e-06,-5.9785,79.084,0,1.0096e+08,-11.846,12138,13320,1,13320,1,0.00063347,1.9091e-09,0,0.00063347,9.8482e-05,1.7322e+08,516.18,0,2.134e+08,29.48,13319,12138,1,12138,1,5.4396e-05,1.6512e-10,0,0.00030026,-9.8466e-06,1.7335e+07,46.363,0,1.0103e+08,-9.5511,12137,10979,1,10979,1,-0.00052467,-1.5208e-09,0,9.9443e-06,-0.00011832,-2.134e+08,-404.36,0,4.172e+06,-85.585,10978,11571,1,11571,1,-0.00024586,-1.6145e-10,0,0.00015013,-6.6077e-05,-9.999e+07,-48.67,0,5.2902e+07,-26.913,11570,12705,1,12705,1,0.00035465,8.1757e-10,0,0.00045038,4.6248e-05,1.0103e+08,232.03,0,1.4706e+08,2.6888,12704,656.67,0,656.67,0,0.00034656,7.6783e-10,0,0.00017735,6.4854e-05,1.1636e+08,217.27,0,5.7814e+07,17.889,656.67,1
2268,2.12,12139,1,12139,1,5.4651e-05,-3.4042e-10,0,0.00030403,-9.9496e-06,-27.982,-96.624,0,1.0143e+08,3.1004,12138,13320,1,13320,1,0.00063644,9.0226e-10,0,0.00063644,9.8945e-05,1.7403e+08,246.86,0,2.144e+08,25.638,13319,12138,1,12138,1,5.4651e-05,-2.528e-10,0,0.00030167,-9.8928e-06,1.7416e+07,-75.16,0,1.015e+08,3.9067,12137,10979,1,10979,1,-0.00052714,-1.7819e-09,0,9.9911e-06,-0.00011888,-2.144e+08,-488.08,0,4.1916e+06,-66.103,10978,11571,1,11571,1,-0.00024701,-7.1759e-10,0,0.00015083,-6.6388e-05,-1.0046e+08,-206.39,0,5.315e+07,-4.0338,11570,12705,1,12705,1,0.00035632,1.1794e-11,0,0.0004525,4.6465e-05,1.015e+08,3.3393,0,1.4775e+08,13.02,12704,656.67,0,656.67,0,0.00034819,5.407e-10,0,0.00017818,6.5158e-05,1.169e+08,153.21,0,5.8085e+07,13.134,656.67,1
2268,2.13,12139,1,12139,1,5.491e-05,-1.8673e-10,0,0.00030547,-9.9966e-06,11.864,-52.994,0,1.0191e+08,2.2567,12138,13320,1,13320,1,0.00063945,1.8183e-09,0,0.00063945,9.9412e-05,1.7485e+08,506.22,0,2.1541e+08,51.775,13319,12138,1,12138,1,5.491e-05,-1.3033e-10,0,0.00030309,-9.9395e-06,1.7499e+07,-35.591,0,1.0198e+08,1.1867,12137,10979,1,10979,1,-0.00052963,-1.8497e-09,0,1.0038e-05,-0.00011944,-2.1541e+08,-505.9,0,4.2114e+06,-80.681,10978,11571,1,11571,1,-0.00024818,-7.2279e-10,0,0.00015155,-6.6701e-05,-1.0093e+08,-202,0,5.3401e+07,-8.6558,11570,12705,1,12705,1,0.000358,2.1741e-10,0,0.00045464,4.6685e-05,1.0198e+08,61.486,0,1.4845e+08,16.892,12704,656.67,0,656.67,0,0.00034983,7.816e-10,0,0.00017902,6.5466e-05,1.1746e+08,224.05,0,5.8359e+07,20.518,656.67,1
2268,2.14,12139,1,12139,1,5.5167e-05,-6.8721e-10,0,0.0003069,-1.0044e-05,8.6351,-195.87,0,1.0239e+08,-0.18763,12138,13320,1,13320,1,0.00064245,8.6658e-10,0,0.00064245,9.9879e-05,1.7567e+08,256.1,0,2.1643e+08,48.251,13319,12138,1,12138,1,5.5168e-05,-5.3618e-10,0,0.00030451,-9.9862e-06,1.7581e+07,-150.44,0,1.0246e+08,-0.98802,12137,10979,1,10979,1,-0.00053212,-2.5675e-09,0,1.0085e-05,-0.00012,-2.1643e+08,-700.72,0,4.2311e+06,-80.962,10978,11571,1,11571,1,-0.00024935,-1.3059e-09,0,0.00015226,-6.7014e-05,-1.0141e+08,-378.45,0,5.3652e+07,-10.855,11570,12705,1,12705,1,0.00035968,-7.3221e-12,0,0.00045677,4.6904e-05,1.0246e+08,-2.2622,0,1.4915e+08,12.416,12704,656.67,0,656.67,0,0.00035147,8.2768e-10,0,0.00017986,6.5773e-05,1.1801e+08,236.22,0,5.8633e+07,19.626,656.67,1
2268,2.15,12139,1,12139,1,5.5426e-05,-4.7434e-10,0,0.00030833,-1.0091e-05,3.2698,-135,0,1.0287e+08,-0.59271,12138,13320,1,13320,1,0.00064545,1.0106e-09,0,0.00064545,0.00010035,1.765e+08,292.37,0,2.1744e+08,47.012,13319,12138,1,12138,1,5.5426e-05,-3.4078e-10,0,0.00030594,-1.0033e-05,1.7663e+07,-101.51,0,1.0294e+08,-1.5264,12137,10979,1,10979,1,-0.0005346,-2.0609e-09,0,1.0132e-05,-0.00012056,-2.1744e+08,-563.12,0,4.2509e+06,-85.86,10978,11571,1,11571,1,-0.00025051,-1.0207e-09,0,0.00015297,-6.7328e-05,-1.0188e+08,-293.21,0,5.3903e+07,-10.125,11570,12705,1,12705,1,0.00036136,5.2005e-11,0,0.00045891,4.7123e-05,1.0294e+08,15.26,0,1.4985e+08,11.758,12704,656.67,0,656.67,0,0.00035312,7.2514e-10,0,0.0001807,6.6081e-05,1.1856e+08,207.32,0,5.8907e+07,19.501,656.67,1
2268,2.16,12139,1,12139,1,5.5683e-05,-6.0626e-11,0,0.00030977,-1.0138e-05,-15.936,-17.315,0,1.0335e+08,0.98033,12138,13320,1,13320,1,0.00064845,1.5728e-09,0,0.00064845,0.00010081,1.7732e+08,427.13,0,2.1845e+08,30.286,13319,12138,1,12138,1,5.5683e-05,-6.8443e-11,0,0.00030736,-1.008e-05,1.7745e+07,-19.802,0,1.0342e+08,2.4247,12137,10979,1,10979,1,-0.00053709,-1.2347e-09,0,1.0179e-05,-0.00012112,-2.1845e+08,-341.75,0,4.2707e+06,-68.219,10978,11571,1,11571,1,-0.00025168,-4.2076e-10,0,0.00015368,-6.7641e-05,-1.0236e+08,-121.59,0,5.4154e+07,-5.0772,11570,12705,1,12705,1,0.00036304,2.0122e-10,0,0.00046104,4.7343e-05,1.0342e+08,57.528,0,1.5054e+08,12.506,12704,656.67,0,656.67,0,0.00035476,5.3942e-10,0,0.00018154,6.6388e-05,1.1911e+08,153.53,0,5.9181e+07,15.905,656.67,1
2268,2.17,12139,1,12139,1,5.5941e-05,4.246e-10,0,0.0003112,-1.0184e-05,-7.0486,120.57,0,1.0382e+08,3.7794,12138,13320,1,13320,1,0.00065146,2.1948e-09,0,0.00065146,0.00010128,1.7814e+08,597.41,0,2.1946e+08,44.319,13319,12138,1,12138,1,5.5941e-05,2.8726e-10,0,0.00030878,-1.0126e-05,1.7827e+07,84.754,0,1.039e+08,4.0335,12137,10979,1,10979,1,-0.00053957,-8.9099e-10,0,1.0226e-05,-0.00012168,-2.1946e+08,-256.03,0,4.2904e+06,-72.038,10978,11571,1,11571,1,-0.00025284,-3.8055e-11,0,0.00015439,-6.7954e-05,-1.0283e+08,-10.578,0,5.4404e+07,-5.3905,11570,12705,1,12705,1,0.00036472,8.5058e-10,0,0.00046317,4.7562e-05,1.039e+08,246.42,0,1.5124e+08,18.265,12704,656.67,0,656.67,0,0.0003564,6.3646e-10,0,0.00018238,6.6695e-05,1.1966e+08,180.83,0,5.9455e+07,19.319,656.67,1
2268,2.18,12139,1,12139,1,5.6199e-05,-3.044e-10,0,0.00031264,-1.0231e-05,7.5,-86.233,0,1.043e+08,1.5391,12138,13320,1,13320,1,0.00065446,1.9749e-09,0,0.00065446,0.00010175,1.7896e+08,549.28,0,2.2047e+08,65.139,13319,12138,1,12138,1,5.6199e-05,-2.194e-10,0,0.00031021,-1.0173e-05,1.7909e+07,-59.832,0,1.0437e+08,-0.25391,12137,10979,1,10979,1,-0.00054206,-2.0682e-09,0,1.0273e-05,-0.00012224,-2.2047e+08,-564.75,0,4.3101e+06,-96.967,10978,11571,1,11571,1,-0.00025401,-9.6936e-10,0,0.0001551,-6.8267e-05,-1.033e+08,-277.78,0,5.4655e+07,-12.151,11570,12705,1,12705,1,0.00036641,1.8793e-10,0,0.00046531,4.7781e-05,1.0437e+08,56.217,0,1.5194e+08,17.455,12704,656.67,0,656.67,0,0.00035804,8.9943e-10,0,0.00018322,6.7003e-05,1.2021e+08,257.27,0,5.9729e+07,24.922,656.67,1
2268,2.19,12139,1,12139,1,5.6457e-05,-3.1702e-10,0,0.00031407,-1.0278e-05,0.23113,-90.014,0,1.0478e+08,1.8778,12138,13320,1,13320,1,0.00065746,1.8554e-09,0,0.00065746,0.00010221,1.7978e+08,517.02,0,2.2148e+08,60.126,13319,12138,1,12138,1,5.6457e-05,-2.1166e-10,0,0.00031163,-1.022e-05,1.7991e+07,-57.565,0,1.0485e+08,0.19739,12137,10979,1,10979,1,-0.00054454,-2.2001e-09,0,1.0321e-05,-0.0001228,-2.2148e+08,-600.68,0,4.3299e+06,-84.966,10978,11571,1,11571,1,-0.00025517,-9.3782e-10,0,0.00015581,-6.858e-05,-1.0378e+08,-266.95,0,5.4905e+07,-11.188,11570,12705,1,12705,1,0.00036808,1.6463e-10,0,0.00046744,4.8e-05,1.0485e+08,49.72,0,1.5263e+08,17.157,12704,656.67,0,656.67,0,0.00035969,8.8823e-10,0,0.00018406,6.731e-05,1.2077e+08,254.31,0,6.0003e+07,22.44,656.67,1
2268,2.2,12139,1,12139,1,5.6716e-05,-3.2961e-10,0,0.00031551,-1.0325e-05,3.966,-94.074,0,1.0526e+08,-6.4079,12138,13320,1,13320,1,0.00066047,3.881e-11,0,0.00066047,0.00010268,1.806e+08,13.291,0,2.225e+08,4.8852,13319,12138,1,12138,1,5.6716e-05,-3.5943e-10,0,0.00031306,-1.0267e-05,1.8074e+07,-106.3,0,1.0533e+08,-2.4883,12137,10979,1,10979,1,-0.00054704,-6.5581e-10,0,1.0368e-05,-0.00012337,-2.225e+08,-176.86,0,4.3497e+06,-90.092,10978,11571,1,11571,1,-0.00025634,-4.75e-10,0,0.00015653,-6.8895e-05,-1.0425e+08,-137.5,0,5.5157e+07,-5.337,11570,12705,1,12705,1,0.00036977,-1.8508e-10,0,0.00046959,4.822e-05,1.0533e+08,-55.201,0,1.5333e+08,-1.0517,12704,656.67,0,656.67,0,0.00036134,1.8539e-10,0,0.00018491,6.7619e-05,1.2132e+08,51.839,0,6.0278e+07,12.156,656.67,1
2268,2.21,12139,1,12139,1,5.6974e-05,-2.3625e-10,0,0.00031694,-1.0372e-05,16.831,-66.434,0,1.0574e+08,-8.6654,12138,13320,1,13320,1,0.00066347,1.8951e-10,0,0.00066347,0.00010315,1.8142e+08,64.899,0,2.2351e+08,23.064,13319,12138,1,12138,1,5.6974e-05,-1.7913e-10,0,0.00031448,-1.0313e-05,1.8156e+07,-49.704,0,1.0581e+08,-3.0751,12137,10979,1,10979,1,-0.00054953,-8.3482e-10,0,1.0415e-05,-0.00012393,-2.2351e+08,-224.95,0,4.3694e+06,-129.19,10978,11571,1,11571,1,-0.00025751,-4.0521e-10,0,0.00015724,-6.9208e-05,-1.0473e+08,-116.87,0,5.5408e+07,-8.0703,11570,12705,1,12705,1,0.00037145,-4.3186e-11,0,0.00047172,4.8439e-05,1.0581e+08,-13.258,0,1.5403e+08,1.7686,12704,656.67,0,656.67,0,0.00036298,2.4256e-10,0,0.00018575,6.7926e-05,1.2187e+08,67.408,0,6.0552e+07,20.586,656.67,1
2268,2.22,12139,1,12139,1,5.7231e-05,-5.84e-10,0,0.00031837,-1.0419e-05,-8.3319,-166.07,0,1.0622e+08,4.2829,12138,13320,1,13320,1,0.00066647,4.3695e-10,0,0.00066647,0.00010361,1.8224e+08,121.72,0,2.2452e+08,36.03,13319,12138,1,12138,1,5.7231e-05,-5.1169e-10,0,0.0003159,-1.036e-05,1.8238e+07,-151.24,0,1.0629e+08,4.629,12137,10979,1,10979,1,-0.00055201,-1.8119e-09,0,1.0462e-05,-0.00012449,-2.2452e+08,-494.26,0,4.3891e+06,-80.965,10978,11571,1,11571,1,-0.00025867,-9.8395e-10,0,0.00015795,-6.952e-05,-1.052e+08,-288.9,0,5.5658e+07,-2.435,11570,12705,1,12705,1,0.00037313,-1.2922e-10,0,0.00047385,4.8658e-05,1.0629e+08,-34.506,0,1.5473e+08,12.649,12704,656.67,0,656.67,0,0.00036461,5.4208e-10,0,0.00018659,6.8232e-05,1.2242e+08,151.44,0,6.0825e+07,15.676,656.67,1
2268,2.23,12139,1,12139,1,5.7488e-05,-2.7247e-10,0,0.0003198,-1.0466e-05,-21.142,-77.305,0,1.0669e+08,8.317,12138,13320,1,13320,1,0.00066946,1.611e-09,0,0.00066946,0.00010408,1.8306e+08,435.94,0,2.2552e+08,48.188,13319,12138,1,12138,1,5.7488e-05,-1.949e-10,0,0.00031732,-1.0406e-05,1.832e+07,-57.66,0,1.0677e+08,8.0833,12137,10979,1,10979,1,-0.00055449,-1.91e-09,0,1.0509e-05,-0.00012504,-2.2552e+08,-520.38,0,4.4088e+06,-76.851,10978,11571,1,11571,1,-0.00025983,-7.4312e-10,0,0.00015866,-6.9832e-05,-1.0567e+08,-213.86,0,5.5908e+07,-3.4209,11570,12705,1,12705,1,0.00037481,1.0634e-10,0,0.00047598,4.8876e-05,1.0677e+08,29.87,0,1.5542e+08,22.857,12704,656.67,0,656.67,0,0.00036625,7.0068e-10,0,0.00018742,6.8539e-05,1.2297e+08,196.84,0,6.1099e+07,19.157,656.67,1
2268,2.24,12139,1,12139,1,5.7747e-05,-3.0411e-11,0,0.00032125,-1.0513e-05,-1.7184,-8.4001,0,1.0717e+08,-1.3071,12138,13320,1,13320,1,0.00067247,7.3151e-10,0,0.00067247,0.00010455,1.8388e+08,200.33,0,2.2654e+08,21.211,13319,12138,1,12138,1,5.7747e-05,-2.8659e-11,0,0.00031875,-1.0453e-05,1.8403e+07,-8.1392,0,1.0725e+08,1.1449,12137,10979,1,10979,1,-0.00055698,-4.974e-10,0,1.0556e-05,-0.00012561,-2.2654e+08,-132.21,0,4.4285e+06,-94.691,10978,11571,1,11571,1,-0.000261,-2.075e-10,0,0.00015937,-7.0147e-05,-1.0615e+08,-59.367,0,5.616e+07,-3.8406,11570,12705,1,12705,1,0.00037649,8.8062e-11,0,0.00047812,4.9096e-05,1.0725e+08,26.174,0,1.5612e+08,7.8082,12704,656.67,0,656.67,0,0.0003679,2.5318e-10,0,0.00018827,6.8848e-05,1.2352e+08,71.602,0,6.1374e+07,15.153,656.67,1
2268,2.25,12139,1,12139,1,5.8005e-05,-2.3083e-11,0,0.00032268,-1.056e-05,4.5237,-6.3246,0,1.0765e+08,-4.8855,12138,13320,1,13320,1,0.00067548,4.0197e-10,0,0.00067548,0.00010501,1.8471e+08,113.85,0,2.2755e+08,14.243,13319,12138,1,12138,1,5.8005e-05,-1.625e-11,0,0.00032017,-1.05e-05,1.8485e+07,-4.5977,0,1.0773e+08,-0.78527,12137,10979,1,10979,1,-0.00055947,-3.6085e-10,0,1.0603e-05,-0.00012617,-2.2755e+08,-96.311,0,4.4482e+06,-110,10978,11571,1,11571,1,-0.00026217,-1.3545e-10,0,0.00016009,-7.046e-05,-1.0662e+08,-40.486,0,5.641e+07,-5.6011,11570,12705,1,12705,1,0.00037818,6.6198e-11,0,0.00048026,4.9315e-05,1.0773e+08,17.428,0,1.5682e+08,3.935,12704,656.67,0,656.67,0,0.00036955,1.5647e-10,0,0.00018911,6.9155e-05,1.2408e+08,44.594,0,6.1648e+07,16.273,656.67,1
2268,2.26,12139,1,12139,1,5.8263e-05,-5.4167e-11,0,0.00032411,-1.0607e-05,1.5945,-15.231,0,1.0813e+08,1.5443,12138,13320,1,13320,1,0.00067848,1.1984e-09,0,0.00067848,0.00010548,1.8553e+08,326.21,0,2.2856e+08,31.5,13319,12138,1,12138,1,5.8263e-05,-4.8729e-11,0,0.00032159,-1.0547e-05,1.8567e+07,-13.234,0,1.082e+08,1.9447,12137,10979,1,10979,1,-0.00056195,-9.2083e-10,0,1.0649e-05,-0.00012673,-2.2856e+08,-252.32,0,4.4679e+06,-90.745,10978,11571,1,11571,1,-0.00026333,-3.6863e-10,0,0.0001608,-7.0773e-05,-1.0709e+08,-105.88,0,5.6661e+07,-5.1827,11570,12705,1,12705,1,0.00037985,1.8481e-10,0,0.00048239,4.9534e-05,1.082e+08,53.944,0,1.5751e+08,14.11,12704,656.67,0,656.67,0,0.00037119,4.4934e-10,0,0.00018995,6.9462e-05,1.2463e+08,126.81,0,6.1922e+07,17.25,656.67,1
2268,2.27,12139,1,12139,1,5.852e-05,-3.2029e-10,0,0.00032554,-1.0654e-05,-2.2406,-90.433,0,1.0861e+08,3.6723,12138,13320,1,13320,1,0.00068148,1.06e-09,0,0.00068148,0.00010595,1.8635e+08,288.18,0,2.2957e+08,40.735,13319,12138,1,12138,1,5.8521e-05,-2.4196e-10,0,0.00032301,-1.0593e-05,1.8649e+07,-69.573,0,1.0868e+08,4.2969,12137,10979,1,10979,1,-0.00056444,-1.4782e-09,0,1.0696e-05,-0.00012729,-2.2957e+08,-394.31,0,4.4876e+06,-99.865,10978,11571,1,11571,1,-0.00026449,-7.3337e-10,0,0.00016151,-7.1086e-05,-1.0757e+08,-213,0,5.6911e+07,-5.2644,11570,12705,1,12705,1,0.00038153,4.0899e-11,0,0.00048452,4.9753e-05,1.0868e+08,12.276,0,1.5821e+08,16.764,12704,656.67,0,656.67,0,0.00037283,5.668e-10,0,0.00019079,6.9769e-05,1.2518e+08,158.66,0,6.2195e+07,19.356,656.67,1
2268,2.28,12139,1,12139,1,5.8779e-05,7.3426e-11,0,0.00032698,-1.0701e-05,6.2335,20.7,0,1.0909e+08,-0.66518,12138,13320,1,13320,1,0.00068449,1.1729e-09,0,0.00068449,0.00010641,1.8717e+08,319.85,0,2.3058e+08,33.161,13319,12138,1,12138,1,5.8779e-05,-2.5382e-12,0,0.00032444,-1.064e-05,1.8732e+07,-0.62253,0,1.0916e+08,0.39623,12137,10979,1,10979,1,-0.00056693,-5.1936e-10,0,1.0743e-05,-0.00012785,-2.3058e+08,-145.81,0,4.5073e+06,-96.051,10978,11571,1,11571,1,-0.00026566,-2.0139e-10,0,0.00016222,-7.14e-05,-1.0804e+08,-57.541,0,5.7163e+07,-6.6247,11570,12705,1,12705,1,0.00038322,2.9687e-10,0,0.00048666,4.9973e-05,1.0916e+08,86.178,0,1.5891e+08,11.389,12704,656.67,0,656.67,0,0.00037447,3.8002e-10,0,0.00019163,7.0077e-05,1.2573e+08,107.7,0,6.247e+07,18.476,656.67,1
2268,2.29,12139,1,12139,1,5.9036e-05,-2.1605e-10,0,0.00032841,-1.0748e-05,-1.9404,-61.178,0,1.0957e+08,2.3339,12138,13320,1,13320,1,0.00068748,1.317e-09,0,0.00068748,0.00010688,1.8799e+08,357.88,0,2.3159e+08,35.408,13319,12138,1,12138,1,5.9037e-05,-1.1832e-10,0,0.00032586,-1.0687e-05,1.8814e+07,-31.671,0,1.0964e+08,2.3359,12137,10979,1,10979,1,-0.00056941,-1.5728e-09,0,1.079e-05,-0.00012841,-2.3159e+08,-430.77,0,4.527e+06,-85.566,10978,11571,1,11571,1,-0.00026682,-6.5201e-10,0,0.00016293,-7.1712e-05,-1.0852e+08,-187.99,0,5.7413e+07,-7.3037,11570,12705,1,12705,1,0.0003849,1.4282e-10,0,0.00048879,5.0192e-05,1.0964e+08,41.418,0,1.596e+08,15.805,12704,656.67,0,656.67,0,0.00037611,6.1912e-10,0,0.00019247,7.0384e-05,1.2628e+08,174.26,0,6.2743e+07,17.784,656.67,1
2268,2.3,12139,1,12139,1,5.9295e-05,1.7669e-10,0,0.00032985,-1.0795e-05,11.871,49.845,0,1.1005e+08,-6.8334,12138,13320,1,13320,1,0.00069049,5.1996e-10,0,0.00069049,0.00010735,1.8881e+08,129.41,0,2.3261e+08,7.8658,13319,12138,1,12138,1,5.9295e-05,1.8531e-10,0,0.00032729,-1.0733e-05,1.8896e+07,55.33,0,1.1012e+08,-1.4126,12137,10979,1,10979,1,-0.0005719,-6.741e-11,0,1.0837e-05,-0.00012897,-2.3261e+08,-23.084,0,4.5467e+06,-94.49,10978,11571,1,11571,1,-0.00026799,7.9594e-11,0,0.00016364,-7.2026e-05,-1.0899e+08,22.71,0,5.7664e+07,-7.9518,11570,12705,1,12705,1,0.00038658,2.7289e-10,0,0.00049093,5.0411e-05,1.1012e+08,77.232,0,1.603e+08,0.9246,12704,656.67,0,656.67,0,0.00037776,1.2143e-10,0,0.00019331,7.0692e-05,1.2683e+08,33.082,0,6.3018e+07,15.102,656.67,1
2268,2.31,12139,1,12139,1,5.9553e-05,-1.2982e-10,0,0.00033128,-1.0842e-05,-7.2344,-36.978,0,1.1052e+08,1.0216,12138,13320,1,13320,1,0.00069349,8.4726e-10,0,0.00069349,0.00010781,1.8963e+08,230.96,0,2.3362e+08,23.452,13319,12138,1,12138,1,5.9553e-05,-8.2448e-11,0,0.00032871,-1.078e-05,1.8978e+07,-22.597,0,1.106e+08,2.7075,12137,10979,1,10979,1,-0.00057438,-1.066e-09,0,1.0884e-05,-0.00012953,-2.3362e+08,-295.47,0,4.5664e+06,-82.712,10978,11571,1,11571,1,-0.00026915,-3.7696e-10,0,0.00016435,-7.2339e-05,-1.0946e+08,-109.32,0,5.7914e+07,-3.7949,11570,12705,1,12705,1,0.00038826,8.5439e-11,0,0.00049306,5.063e-05,1.106e+08,24.528,0,1.61e+08,11.676,12704,656.67,0,656.67,0,0.0003794,3.7843e-10,0,0.00019415,7.0999e-05,1.2738e+08,106.87,0,6.3291e+07,15.555,656.67,1
2268,2.32,12139,1,12139,1,5.9811e-05,-7.4812e-11,0,0.00033272,-1.0889e-05,7.8766,-21.085,0,1.11e+08,-3.2391,12138,13320,1,13320,1,0.0006965,5.5279e-10,0,0.0006965,0.00010828,1.9045e+08,153.11,0,2.3463e+08,20.851,13319,12138,1,12138,1,5.9811e-05,-5.9606e-11,0,0.00033013,-1.0827e-05,1.9061e+07,-16.25,0,1.1108e+08,-0.15385,12137,10979,1,10979,1,-0.00057687,-5.5297e-10,0,1.0931e-05,-0.00013009,-2.3463e+08,-147.9,0,4.5861e+06,-103.79,10978,11571,1,11571,1,-0.00027032,-2.5205e-10,0,0.00016507,-7.2653e-05,-1.0994e+08,-73.646,0,5.8165e+07,-5.5711,11570,12705,1,12705,1,0.00038994,6.3058e-11,0,0.0004952,5.085e-05,1.1108e+08,16.714,0,1.617e+08,6.4063,12704,656.67,0,656.67,0,0.00038104,2.3342e-10,0,0.00019499,7.1307e-05,1.2794e+08,66.225,0,6.3566e+07,16.568,656.67,1
2268,2.33,12139,1,12139,1,6.0069e-05,2.5312e-11,0,0.00033415,-1.0936e-05,11.9,7.22,0,1.1148e+08,-0.64296,12138,13320,1,13320,1,0.0006995,1.2026e-09,0,0.0006995,0.00010875,1.9127e+08,328.4,0,2.3564e+08,36.423,13319,12138,1,12138,1,6.0069e-05,-2.1015e-11,0,0.00033155,-1.0873e-05,1.9143e+07,-6.2634,0,1.1156e+08,1.0186,12137,10979,1,10979,1,-0.00057936,-6.1249e-10,0,1.0978e-05,-0.00013065,-2.3564e+08,-163.79,0,4.6058e+06,-104.74,10978,11571,1,11571,1,-0.00027148,-2.4319e-10,0,0.00016578,-7.2966e-05,-1.1041e+08,-71.101,0,5.8416e+07,-6.7964,11570,12705,1,12705,1,0.00039162,2.1661e-10,0,0.00049733,5.1069e-05,1.1156e+08,62.995,0,1.6239e+08,11.18,12704,656.67,0,656.67,0,0.00038269,3.8366e-10,0,0.00019583,7.1614e-05,1.2849e+08,108.55,0,6.384e+07,19.367,656.67,1
2268,2.34,12139,1,12139,1,6.0328e-05,4.6259e-10,0,0.00033559,-1.0983e-05,6.2119,130.57,0,1.1196e+08,-7.1623,12138,13320,1,13320,1,0.00070252,1.0667e-09,0,0.00070252,0.00010922,1.921e+08,277.39,0,2.3666e+08,20.914,13319,12138,1,12138,1,6.0328e-05,4.7057e-10,0,0.00033298,-1.092e-05,1.9225e+07,136.08,0,1.1204e+08,-0.96457,12137,10979,1,10979,1,-0.00058186,-1.4792e-10,0,1.1025e-05,-0.00013122,-2.3666e+08,-50.658,0,4.6256e+06,-98.872,10978,11571,1,11571,1,-0.00027266,1.9986e-10,0,0.00016649,-7.328e-05,-1.1089e+08,55.764,0,5.8668e+07,-11.879,11570,12705,1,12705,1,0.00039331,7.2937e-10,0,0.00049948,5.1289e-05,1.1204e+08,213.79,0,1.6309e+08,4.2867,12704,656.67,0,656.67,0,0.00038434,3.3001e-10,0,0.00019668,7.1923e-05,1.2904e+08,90.189,0,6.4115e+07,19.95,656.67,1
2268,2.35,12139,1,12139,1,6.0585e-05,-1.7432e-10,0,0.00033702,-1.103e-05,-12.087,-49.508,0,1.1244e+08,1.9371,12138,13320,1,13320,1,0.0007055,9.2453e-10,0,0.0007055,0.00010968,1.9291e+08,251.73,0,2.3766e+08,27.651,13319,12138,1,12138,1,6.0585e-05,-1.0752e-10,0,0.0003344,-1.0967e-05,1.9307e+07,-31.483,0,1.1251e+08,3.0273,12137,10979,1,10979,1,-0.00058433,-1.1961e-09,0,1.1072e-05,-0.00013178,-2.3766e+08,-329.96,0,4.6452e+06,-86.647,10978,11571,1,11571,1,-0.00027381,-4.6852e-10,0,0.0001672,-7.3592e-05,-1.1136e+08,-135.24,0,5.8917e+07,-4.3788,11570,12705,1,12705,1,0.00039498,8.2642e-11,0,0.0005016,5.1507e-05,1.1251e+08,23.522,0,1.6379e+08,13.812,12704,656.67,0,656.67,0,0.00038597,4.3713e-10,0,0.00019751,7.2228e-05,1.2959e+08,123.07,0,6.4387e+07,16.695,656.67,1
2268,2.36,12139,1,12139,1,6.0844e-05,-1.9032e-10,0,0.00033846,-1.1077e-05,1.4765,-53.588,0,1.1292e+08,-11.156,12138,13320,1,13320,1,0.00070851,5.6265e-10,0,0.00070851,0.00011015,1.9374e+08,140.12,0,2.3868e+08,16.588,13319,12138,1,12138,1,6.0844e-05,-1.2924e-10,0,0.00033583,-1.1014e-05,1.9389e+07,-37.016,0,1.1299e+08,-7.4221,12137,10979,1,10979,1,-0.00058682,-9.6317e-10,0,1.1119e-05,-0.00013234,-2.3868e+08,-248.38,0,4.665e+06,-109.6,10978,11571,1,11571,1,-0.00027498,-4.1527e-10,0,0.00016791,-7.3906e-05,-1.1183e+08,-122.35,0,5.9169e+07,-15.74,11570,12705,1,12705,1,0.00039667,4.6898e-11,0,0.00050374,5.1726e-05,1.1299e+08,12.855,0,1.6449e+08,-1.2847,12704,656.67,0,656.67,0,0.00038762,2.9778e-10,0,0.00019836,7.2537e-05,1.3014e+08,82.039,0,6.4662e+07,16.069,656.67,1
2268,2.37,12139,1,12139,1,6.1101e-05,8.4983e-11,0,0.00033989,-1.1124e-05,12.999,23.803,0,1.1339e+08,-4.0575,12138,13320,1,13320,1,0.00071151,5.2292e-10,0,0.00071151,0.00011061,1.9456e+08,144.98,0,2.3969e+08,17.229,13319,12138,1,12138,1,6.1101e-05,2.4866e-11,0,0.00033725,-1.106e-05,1.9472e+07,6.7379,0,1.1347e+08,-0.70116,12137,10979,1,10979,1,-0.0005893,-2.4968e-10,0,1.1166e-05,-0.0001329,-2.3969e+08,-85.456,0,4.6846e+06,-95.605,10978,11571,1,11571,1,-0.00027615,-4.0921e-11,0,0.00016862,-7.4218e-05,-1.1231e+08,-11.652,0,5.9419e+07,-6.1285,11570,12705,1,12705,1,0.00039835,2.0806e-10,0,0.00050587,5.1945e-05,1.1347e+08,59.316,0,1.6518e+08,4.9413,12704,656.67,0,656.67,0,0.00038926,1.6924e-10,0,0.0001992,7.2843e-05,1.3069e+08,48.383,0,6.4936e+07,16.287,656.67,1
2268,2.38,12139,1,12139,1,6.1358e-05,-3.1899e-10,0,0.00034132,-1.1171e-05,8.2804,-91.598,0,1.1387e+08,2.4661,12138,13320,1,13320,1,0.00071451,1.6444e-09,0,0.00071451,0.00011108,1.9538e+08,441.54,0,2.407e+08,55.468,13319,12138,1,12138,1,6.1358e-05,-1.8042e-10,0,0.00033867,-1.1107e-05,1.9554e+07,-49.944,0,1.1395e+08,0.74197,12137,10979,1,10979,1,-0.00059179,-2.1612e-09,0,1.1213e-05,-0.00013346,-2.407e+08,-592.29,0,4.7043e+06,-93.535,10978,11571,1,11571,1,-0.00027731,-9.0959e-10,0,0.00016933,-7.4531e-05,-1.1278e+08,-257.61,0,5.9669e+07,-11.699,11570,12705,1,12705,1,0.00040002,1.6765e-10,0,0.000508,5.2164e-05,1.1395e+08,49.952,0,1.6588e+08,19.802,12704,656.67,0,656.67,0,0.00039089,8.3668e-10,0,0.00020003,7.315e-05,1.3124e+08,238.89,0,6.5209e+07,23.543,656.67,1
2268,2.39,12139,1,12139,1,6.1617e-05,3.2911e-11,0,0.00034276,-1.1218e-05,2.6543,8.62,0,1.1435e+08,0.67916,12138,13320,1,13320,1,0.00071751,8.7547e-10,0,0.00071751,0.00011155,1.962e+08,237.91,0,2.4171e+08,33.57,13319,12138,1,12138,1,6.1617e-05,-1.1126e-11,0,0.00034009,-1.1154e-05,1.9636e+07,-3.2229,0,1.1443e+08,1.8087,12137,10979,1,10979,1,-0.00059428,-9.9372e-10,0,1.126e-05,-0.00013402,-2.4171e+08,-282.48,0,4.724e+06,-79.896,10978,11571,1,11571,1,-0.00027847,-1.9902e-10,0,0.00017005,-7.4844e-05,-1.1325e+08,-57.853,0,5.992e+07,-6.1797,11570,12705,1,12705,1,0.00040171,3.2855e-10,0,0.00051014,5.2383e-05,1.1443e+08,95.044,0,1.6657e+08,13.068,12704,656.67,0,656.67,0,0.00039254,3.8982e-10,0,0.00020088,7.3458e-05,1.3179e+08,110.61,0,6.5483e+07,18.129,656.67,1
2268,2.4,12139,1,12139,1,6.1875e-05,-1.3836e-10,0,0.00034419,-1.1265e-05,10.667,-38.694,0,1.1483e+08,-3.4257,12138,13320,1,13320,1,0.00072051,5.7009e-10,0,0.00072051,0.00011201,1.9702e+08,159.75,0,2.4272e+08,22.865,13319,12138,1,12138,1,6.1875e-05,-1.0585e-10,0,0.00034152,-1.12e-05,1.9718e+07,-31.198,0,1.1491e+08,-0.50512,12137,10979,1,10979,1,-0.00059676,-7.6193e-10,0,1.1307e-05,-0.00013458,-2.4272e+08,-203.48,0,4.7437e+06,-110.44,10978,11571,1,11571,1,-0.00027964,-3.6065e-10,0,0.00017076,-7.5158e-05,-1.1373e+08,-106.18,0,6.0171e+07,-6.1055,11570,12705,1,12705,1,0.00040339,5.5938e-11,0,0.00051227,5.2603e-05,1.1491e+08,16.488,0,1.6727e+08,6.4464,12704,656.67,0,656.67,0,0.00039418,2.9105e-10,0,0.00020172,7.3766e-05,1.3235e+08,82.071,0,6.5758e+07,17.165,656.67,1
2268,2.41,12139,1,12139,1,6.2134e-05,-3.1891e-10,0,0.00034563,-1.1312e-05,-12.394,-91.008,0,1.1531e+08,-3.9506,12138,13320,1,13320,1,0.00072353,4.879e-11,0,0.00072353,0.00011248,1.9784e+08,13.8,0,2.4373e+08,9.9091,13319,12138,1,12138,1,6.2134e-05,-3.2291e-10,0,0.00034294,-1.1247e-05,1.9801e+07,-91.707,0,1.1539e+08,0.33337,12137,10979,1,10979,1,-0.00059926,-6.8656e-10,0,1.1354e-05,-0.00013514,-2.4373e+08,-184.51,0,4.7635e+06,-98.29,10978,11571,1,11571,1,-0.00028081,-4.6866e-10,0,0.00017147,-7.5472e-05,-1.142e+08,-136.62,0,6.0422e+07,-2.0562,11570,12705,1,12705,1,0.00040508,-1.6918e-10,0,0.00051441,5.2823e-05,1.1539e+08,-48.343,0,1.6797e+08,2.1171,12704,656.67,0,656.67,0,0.00039583,1.9012e-10,0,0.00020256,7.4074e-05,1.329e+08,53.511,0,6.6033e+07,14.144,656.67,1
2268,2.42,12139,1,12139,1,6.2392e-05,-4.4678e-11,0,0.00034706,-1.1359e-05,4.9668,-12.437,0,1.1579e+08,-11.359,12138,13320,1,13320,1,0.00072652,7.5309e-10,0,0.00072652,0.00011295,1.9866e+08,189.69,0,2.4474e+08,13.226,13319,12138,1,12138,1,6.2392e-05,9.4589e-14,0,0.00034436,-1.1294e-05,1.9883e+07,0.028084,0,1.1587e+08,-7.6303,12137,10979,1,10979,1,-0.00060174,-7.5798e-10,0,1.1401e-05,-0.0001357,-2.4474e+08,-194.24,0,4.7831e+06,-105.74,10978,11571,1,11571,1,-0.00028197,-2.3203e-10,0,0.00017218,-7.5785e-05,-1.1468e+08,-67.042,0,6.0673e+07,-15.631,11570,12705,1,12705,1,0.00040676,1.0604e-10,0,0.00051655,5.3041e-05,1.1587e+08,32.55,0,1.6867e+08,-1.6754,12704,656.67,0,656.67,0,0.00039747,2.6838e-10,0,0.0002034,7.4381e-05,1.3345e+08,73.645,0,6.6306e+07,15.47,656.67,1
2268,2.43,12139,1,12139,1,6.2649e-05,-4.359e-10,0,0.0003485,-1.1406e-05,-8.5537,-124.08,0,1.1626e+08,-1.7224,12138,13320,1,13320,1,0.00072953,4.2286e-10,0,0.00072953,0.00011341,1.9948e+08,121.03,0,2.4575e+08,22.487,13319,12138,1,12138,1,6.2649e-05,-3.4269e-10,0,0.00034579,-1.1341e-05,1.9965e+07,-95.439,0,1.1634e+08,0.073725,12137,10979,1,10979,1,-0.00060423,-1.6134e-09,0,1.1447e-05,-0.00013626,-2.4575e+08,-444.78,0,4.8028e+06,-88.41,10978,11571,1,11571,1,-0.00028314,-7.6869e-10,0,0.00017289,-7.6098e-05,-1.1515e+08,-223.15,0,6.0923e+07,-6.4131,11570,12705,1,12705,1,0.00040843,-5.4828e-11,0,0.00051868,5.326e-05,1.1634e+08,-15.461,0,1.6936e+08,7.3858,12704,656.67,0,656.67,0,0.00039911,4.7301e-10,0,0.00020424,7.4688e-05,1.34e+08,133.46,0,6.658e+07,14.603,656.67,1
2268,2.44,12139,1,12139,1,6.2908e-05,-2.4934e-11,0,0.00034994,-1.1453e-05,0.80759,-6.5719,0,1.1674e+08,-5.7138,12138,13320,1,13320,1,0.00073254,2.5462e-10,0,0.00073254,0.00011388,2.0031e+08,74.143,0,2.4677e+08,11.494,13319,12138,1,12138,1,6.2908e-05,-6.838e-12,0,0.00034721,-1.1387e-05,2.0047e+07,-1.8304,0,1.1682e+08,-0.65946,12137,10979,1,10979,1,-0.00060672,-3.3509e-10,0,1.1494e-05,-0.00013683,-2.4677e+08,-89.218,0,4.8226e+06,-116.32,10978,11571,1,11571,1,-0.00028431,-1.0386e-10,0,0.00017361,-7.6412e-05,-1.1563e+08,-30.705,0,6.1175e+07,-5.5254,11570,12705,1,12705,1,0.00041012,5.3627e-11,0,0.00052082,5.348e-05,1.1682e+08,15.841,0,1.7006e+08,2.9455,12704,656.67,0,656.67,0,0.00040076,1.1938e-10,0,0.00020508,7.4996e-05,1.3455e+08,33.708,0,6.6855e+07,17.557,656.67,1
2268,2.45,12139,1,12139,1,6.3165e-05,7.3086e-11,0,0.00035136,-1.15e-05,24.586,20.707,0,1.1722e+08,-4.6637,12138,13320,1,13320,1,0.00073553,8.3867e-10,0,0.00073553,0.00011435,2.0113e+08,231.2,0,2.4778e+08,28.517,13319,12138,1,12138,1,6.3165e-05,1.2854e-11,0,0.00034863,-1.1434e-05,2.0129e+07,3.7427,0,1.173e+08,-1.1614,12137,10979,1,10979,1,-0.0006092,-3.643e-10,0,1.1541e-05,-0.00013738,-2.4778e+08,-98.07,0,4.8421e+06,-116.81,10978,11571,1,11571,1,-0.00028547,-1.1804e-10,0,0.00017432,-7.6724e-05,-1.161e+08,-34.18,0,6.1424e+07,-8.5684,11570,12705,1,12705,1,0.0004118,2.2775e-10,0,0.00052295,5.3698e-05,1.173e+08,66.765,0,1.7076e+08,6.8434,12704,656.67,0,656.67,0,0.0004024,2.6613e-10,0,0.00020592,7.5302e-05,1.351e+08,75.596,0,6.7128e+07,20.076,656.67,1
2268,2.46,12139,1,12139,1,6.3423e-05,4.2533e-12,0,0.0003528,-1.1547e-05,4.3357,0.92941,0,1.177e+08,2.0886,12138,13320,1,13320,1,0.00073853,1.3531e-09,0,0.00073853,0.00011481,2.0195e+08,365.18,0,2.4879e+08,36.74,13319,12138,1,12138,1,6.3423e-05,-3.7486e-11,0,0.00035005,-1.1481e-05,2.0211e+07,-11.183,0,1.1778e+08,2.299,12137,10979,1,10979,1,-0.00061168,-9.5769e-10,0,1.1588e-05,-0.00013794,-2.4879e+08,-266.78,0,4.8618e+06,-92.961,10978,11571,1,11571,1,-0.00028663,-3.065e-10,0,0.00017503,-7.7037e-05,-1.1657e+08,-89.247,0,6.1675e+07,-5.5648,11570,12705,1,12705,1,0.00041347,2.7379e-10,0,0.00052508,5.3917e-05,1.1778e+08,77.563,0,1.7145e+08,15.416,12704,656.67,0,656.67,0,0.00040404,4.7273e-10,0,0.00020676,7.5609e-05,1.3565e+08,133.27,0,6.7401e+07,18.901,656.67,1
2268,2.47,12139,1,12139,1,6.3681e-05,-1.2415e-10,0,0.00035423,-1.1593e-05,-11.409,-35.663,0,1.1818e+08,3.9012,12138,13320,1,13320,1,0.00074153,1.3884e-09,0,0.00074153,0.00011528,2.0277e+08,374.76,0,2.498e+08,41.469,13319,12138,1,12138,1,6.3681e-05,-9.9877e-11,0,0.00035147,-1.1527e-05,2.0294e+07,-28.045,0,1.1826e+08,3.7955,12137,10979,1,10979,1,-0.00061416,-1.241e-09,0,1.1635e-05,-0.0001385,-2.498e+08,-343.58,0,4.8815e+06,-94.166,10978,11571,1,11571,1,-0.00028779,-4.9286e-10,0,0.00017574,-7.735e-05,-1.1704e+08,-141.86,0,6.1925e+07,-4.3446,11570,12705,1,12705,1,0.00041515,1.5426e-10,0,0.00052721,5.4136e-05,1.1826e+08,44.68,0,1.7215e+08,18.014,12704,656.67,0,656.67,0,0.00040568,5.3566e-10,0,0.0002076,7.5916e-05,1.362e+08,151.12,0,6.7675e+07,19.326,656.67,1
2268,2.48,12139,1,12139,1,6.3939e-05,2.6328e-11,0,0.00035566,-1.164e-05,16.239,7.5362,0,1.1866e+08,0.56398,12138,13320,1,13320,1,0.00074453,1.4329e-09,0,0.00074453,0.00011575,2.0359e+08,390.02,0,2.5081e+08,41.415,13319,12138,1,12138,1,6.3939e-05,-2.4374e-11,0,0.0003529,-1.1574e-05,2.0376e+07,-6.6976,0,1.1874e+08,1.3008,12137,10979,1,10979,1,-0.00061665,-7.6256e-10,0,1.1682e-05,-0.00013907,-2.5081e+08,-204.83,0,4.9012e+06,-107.48,10978,11571,1,11571,1,-0.00028896,-2.8927e-10,0,0.00017645,-7.7663e-05,-1.1752e+08,-86.477,0,6.2176e+07,-7.4031,11570,12705,1,12705,1,0.00041684,2.7072e-10,0,0.00052935,5.4356e-05,1.1874e+08,77.479,0,1.7285e+08,14.83,12704,656.67,0,656.67,0,0.00040732,4.6729e-10,0,0.00020844,7.6224e-05,1.3676e+08,131.91,0,6.7949e+07,20.878,656.67,1
2268,2.49,12139,1,12139,1,6.4197e-05,-1.8194e-12,0,0.0003571,-1.1687e-05,-2.5421,-0.46192,0,1.1913e+08,-1.3759,12138,13320,1,13320,1,0.00074753,9.3514e-10,0,0.00074753,0.00011621,2.0441e+08,255.96,0,2.5182e+08,23.756,13319,12138,1,12138,1,6.4197e-05,-1.8272e-11,0,0.00035432,-1.1621e-05,2.0458e+07,-5.1285,0,1.1922e+08,0.86942,12137,10979,1,10979,1,-0.00061914,-5.9611e-10,0,1.1729e-05,-0.00013963,-2.5182e+08,-172.03,0,4.9209e+06,-99.618,10978,11571,1,11571,1,-0.00029012,-2.2543e-10,0,0.00017716,-7.7977e-05,-1.1799e+08,-65.277,0,6.2427e+07,-5.4004,11570,12705,1,12705,1,0.00041852,1.7476e-10,0,0.00053148,5.4575e-05,1.1922e+08,50.117,0,1.7354e+08,9.6575,12704,656.67,0,656.67,0,0.00040896,3.241e-10,0,0.00020928,7.6532e-05,1.3731e+08,92,0,6.8223e+07,17.084,656.67,1
2268,2.5,12139,1,12139,1,6.4456e-05,-2.449e-10,0,0.00035854,-1.1735e-05,-7.9533,-69.91,0,1.1962e+08,-6.0248,12138,13320,1,13320,1,0.00075055,4.6737e-11,0,0.00075055,0.00011668,2.0523e+08,10.768,0,2.5284e+08,4.61,13319,12138,1,12138,1,6.4456e-05,-2.6662e-10,0,0.00035575,-1.1668e-05,2.0541e+07,-78.746,0,1.197e+08,-1.2624,12137,10979,1,10979,1,-0.00062164,-5.2326e-10,0,1.1776e-05,-0.00014019,-2.5284e+08,-132.3,0,4.9407e+06,-100.54,10978,11571,1,11571,1,-0.0002913,-3.5615e-10,0,0.00017788,-7.8291e-05,-1.1847e+08,-102.69,0,6.2679e+07,-3.9737,11570,12705,1,12705,1,0.00042021,-1.3078e-10,0,0.00053363,5.4795e-05,1.197e+08,-39.234,0,1.7424e+08,0.32522,12704,656.67,0,656.67,0,0.00041062,1.4114e-10,0,0.00021013,7.6841e-05,1.3786e+08,39.193,0,6.8499e+07,13.947,656.67,1
2268,2.51,12139,1,12139,1,6.4713e-05,-4.8235e-11,0,0.00035997,-1.1781e-05,-1.3586,-13.594,0,1.2009e+08,-0.96704,12138,13320,1,13320,1,0.00075354,1.1199e-09,0,0.00075354,0.00011715,2.0605e+08,306.08,0,2.5384e+08,30.589,13319,12138,1,12138,1,6.4713e-05,-4.9819e-11,0,0.00035717,-1.1714e-05,2.0623e+07,-14.187,0,1.2017e+08,0.6853,12137,10979,1,10979,1,-0.00062411,-7.9746e-10,0,1.1823e-05,-0.00014075,-2.5384e+08,-215.19,0,4.9603e+06,-105.03,10978,11571,1,11571,1,-0.00029245,-3.4969e-10,0,0.00017858,-7.8603e-05,-1.1894e+08,-100.6,0,6.2928e+07,-6.9814,11570,12705,1,12705,1,0.00042188,1.7734e-10,0,0.00053575,5.5013e-05,1.2017e+08,51.66,0,1.7494e+08,11.718,12704,656.67,0,656.67,0,0.00041225,4.1778e-10,0,0.00021096,7.7146e-05,1.3841e+08,118.29,0,6.8771e+07,19.1,656.67,1
2268,2.52,12139,1,12139,1,6.4971e-05,-4.9519e-11,0,0.0003614,-1.1828e-05,10.614,-14.154,0,1.2057e+08,-1.1092,12138,13320,1,13320,1,0.00075654,1.0699e-09,0,0.00075654,0.00011761,2.0687e+08,292.42,0,2.5485e+08,28.675,13319,12138,1,12138,1,6.4971e-05,-5.3289e-11,0,0.00035859,-1.1761e-05,2.0705e+07,-14.466,0,1.2065e+08,0.52493,12137,10979,1,10979,1,-0.0006266,-7.9724e-10,0,1.1869e-05,-0.00014131,-2.5485e+08,-224.29,0,4.9799e+06,-102.64,10978,11571,1,11571,1,-0.00029362,-3.4141e-10,0,0.00017929,-7.8916e-05,-1.1941e+08,-98.211,0,6.3179e+07,-6.5046,11570,12705,1,12705,1,0.00042356,1.7601e-10,0,0.00053788,5.5232e-05,1.2065e+08,50.897,0,1.7563e+08,11.176,12704,656.67,0,656.67,0,0.00041389,4.0343e-10,0,0.0002118,7.7454e-05,1.3896e+08,114.45,0,6.9045e+07,18.482,656.67,1
2268,2.53,12139,1,12139,1,6.5229e-05,-4.4246e-10,0,0.00036284,-1.1875e-05,-0.64316,-125.25,0,1.2105e+08,-0.46872,12138,13320,1,13320,1,0.00075955,2.8839e-10,0,0.00075955,0.00011808,2.0769e+08,93.439,0,2.5587e+08,27.353,13319,12138,1,12138,1,6.523e-05,-3.5032e-10,0,0.00036002,-1.1808e-05,2.0787e+07,-102.18,0,1.2113e+08,0.95186,12137,10979,1,10979,1,-0.00062909,-1.4774e-09,0,1.1916e-05,-0.00014187,-2.5587e+08,-394.92,0,4.9997e+06,-107.09,10978,11571,1,11571,1,-0.00029479,-7.8412e-10,0,0.00018001,-7.923e-05,-1.1989e+08,-227.74,0,6.343e+07,-5.36,11570,12705,1,12705,1,0.00042525,-3.7236e-11,0,0.00054002,5.5452e-05,1.2113e+08,-9.7362,0,1.7633e+08,9.5453,12704,656.67,0,656.67,0,0.00041554,4.6545e-10,0,0.00021264,7.7761e-05,1.3951e+08,130.32,0,6.9319e+07,17.196,656.67,1
2268,2.54,12139,1,12139,1,6.5489e-05,-2.2876e-11,0,0.00036428,-1.1923e-05,5.9678,-6.3767,0,1.2153e+08,-6.7317,12138,13320,1,13320,1,0.00076256,3.1051e-10,0,0.00076256,0.00011855,2.0852e+08,75.049,0,2.5688e+08,7.2722,13319,12138,1,12138,1,6.5489e-05,-1.4809e-11,0,0.00036144,-1.1855e-05,2.087e+07,-4.0431,0,1.2161e+08,-0.49911,12137,10979,1,10979,1,-0.00063158,-1.9817e-10,0,1.1963e-05,-0.00014243,-2.5688e+08,-48.579,0,5.0194e+06,-114.61,10978,11571,1,11571,1,-0.00029596,-5.3837e-11,0,0.00018072,-7.9544e-05,-1.2036e+08,-15.56,0,6.3682e+07,-5.4061,11570,12705,1,12705,1,0.00042693,2.4411e-12,0,0.00054217,5.5672e-05,1.2161e+08,0.73318,0,1.7703e+08,1.1398,12704,656.67,0,656.67,0,0.00041719,5.8843e-11,0,0.00021349,7.807e-05,1.4007e+08,15.786,0,6.9595e+07,16.954,656.67,1
2268,2.55,12139,1,12139,1,6.5746e-05,2.1312e-11,0,0.00036571,-1.1969e-05,2.0966,6.1527,0,1.22e+08,-2.9001,12138,13320,1,13320,1,0.00076555,7.7256e-10,0,0.00076555,0.00011901,2.0934e+08,212.43,0,2.5789e+08,23.491,13319,12138,1,12138,1,6.5746e-05,-5.5795e-12,0,0.00036286,-1.1901e-05,2.0952e+07,-1.8662,0,1.2209e+08,0.27295,12137,10979,1,10979,1,-0.00063406,-4.0523e-10,0,1.201e-05,-0.00014299,-2.5789e+08,-108.23,0,5.039e+06,-109.03,10978,11571,1,11571,1,-0.00029712,-1.5283e-10,0,0.00018143,-7.9856e-05,-1.2084e+08,-44.725,0,6.3931e+07,-5.6629,11570,12705,1,12705,1,0.00042861,1.4798e-10,0,0.00054429,5.589e-05,1.2209e+08,42.157,0,1.7773e+08,7.3301,12704,656.67,0,656.67,0,0.00041882,2.4783e-10,0,0.00021433,7.8376e-05,1.4062e+08,70.502,0,6.9867e+07,17.775,656.67,1
2268,2.56,12139,1,12139,1,6.6004e-05,-1.055e-10,0,0.00036714,-1.2016e-05,-5.2263,-29.96,0,1.2248e+08,-1.7603,12138,13320,1,13320,1,0.00076855,6.7322e-10,0,0.00076855,0.00011948,2.1016e+08,185.22,0,2.589e+08,21.054,13319,12138,1,12138,1,6.6004e-05,-6.8669e-11,0,0.00036428,-1.1948e-05,2.1034e+07,-20.358,0,1.2257e+08,0.88692,12137,10979,1,10979,1,-0.00063655,-7.0699e-10,0,1.2057e-05,-0.00014355,-2.589e+08,-196.13,0,5.0587e+06,-102.71,10978,11571,1,11571,1,-0.00029828,-3.2179e-10,0,0.00018214,-8.0169e-05,-1.2131e+08,-93.26,0,6.4182e+07,-5.0432,11570,12705,1,12705,1,0.00043029,7.0179e-11,0,0.00054643,5.6109e-05,1.2257e+08,20.13,0,1.7842e+08,8.9429,12704,656.67,0,656.67,0,0.00042046,3.015e-10,0,0.00021517,7.8683e-05,1.4117e+08,85.508,0,7.0141e+07,17.006,656.67,1
2268,2.57,12139,1,12139,1,6.6261e-05,-2.3368e-10,0,0.00036857,-1.2063e-05,-0.61228,-66.333,0,1.2296e+08,-0.048598,12138,13320,1,13320,1,0.00077155,1.0539e-09,0,0.00077155,0.00011995,2.1098e+08,287.91,0,2.5991e+08,33.878,13319,12138,1,12138,1,6.6261e-05,-1.6939e-10,0,0.00036571,-1.1994e-05,2.1116e+07,-49.628,0,1.2305e+08,1.2931,12137,10979,1,10979,1,-0.00063903,-1.2236e-09,0,1.2104e-05,-0.00014411,-2.5991e+08,-330.44,0,5.0784e+06,-106.19,10978,11571,1,11571,1,-0.00029944,-5.9843e-10,0,0.00018285,-8.0482e-05,-1.2178e+08,-174.23,0,6.4433e+07,-6.891,11570,12705,1,12705,1,0.00043197,7.0239e-11,0,0.00054856,5.6328e-05,1.2305e+08,18.108,0,1.7912e+08,13.605,12704,656.67,0,656.67,0,0.0004221,4.9955e-10,0,0.00021601,7.899e-05,1.4172e+08,140.89,0,7.0415e+07,19.561,656.67,1
2268,2.58,12139,1,12139,1,6.652e-05,8.4838e-11,0,0.00037001,-1.211e-05,1.3883,23.92,0,1.2344e+08,-1.1507,12138,13320,1,13320,1,0.00077456,1.0084e-09,0,0.00077456,0.00012041,2.118e+08,275.76,0,2.6092e+08,27.932,13319,12138,1,12138,1,6.652e-05,1.1149e-11,0,0.00036713,-1.2041e-05,2.1198e+07,3.2245,0,1.2352e+08,0.71105,12137,10979,1,10979,1,-0.00064152,-4.6404e-10,0,1.2151e-05,-0.00014467,-2.6092e+08,-148.01,0,5.098e+06,-103.03,10978,11571,1,11571,1,-0.00030061,-1.348e-10,0,0.00018356,-8.0796e-05,-1.2226e+08,-38.315,0,6.4683e+07,-5.5626,11570,12705,1,12705,1,0.00043365,2.8479e-10,0,0.00055069,5.6547e-05,1.2352e+08,81.393,0,1.7982e+08,10.039,12704,656.67,0,656.67,0,0.00042375,3.1887e-10,0,0.00021685,7.9298e-05,1.4227e+08,90.569,0,7.0689e+07,18.222,656.67,1
2268,2.59,12139,1,12139,1,6.6777e-05,-7.1992e-11,0,0.00037144,-1.2157e-05,0.23598,-20.412,0,1.2392e+08,-1.2359,12138,13320,1,13320,1,0.00077756,1.0866e-09,0,0.00077756,0.00012088,2.1262e+08,296.71,0,2.6193e+08,29.928,13319,12138,1,12138,1,6.6778e-05,-6.7828e-11,0,0.00036855,-1.2088e-05,2.1281e+07,-19.679,0,1.24e+08,0.71476,12137,10979,1,10979,1,-0.000644,-7.7502e-10,0,1.2198e-05,-0.00014523,-2.6193e+08,-213.57,0,5.1177e+06,-104.31,10978,11571,1,11571,1,-0.00030177,-3.5318e-10,0,0.00018428,-8.1109e-05,-1.2273e+08,-102.57,0,6.4934e+07,-5.9269,11570,12705,1,12705,1,0.00043533,1.166e-10,0,0.00055283,5.6766e-05,1.24e+08,34.004,0,1.8051e+08,10.133,12704,656.67,0,656.67,0,0.00042539,3.9295e-10,0,0.00021769,7.9605e-05,1.4282e+08,111.33,0,7.0963e+07,18.257,656.67,1
2268,2.6,12139,1,12139,1,6.7036e-05,-1.0236e-10,0,0.00037288,-1.2204e-05,5.868,-28.5,0,1.244e+08,-5.7393,12138,13320,1,13320,1,0.00078057,2.4265e-10,0,0.00078057,0.00012135,2.1344e+08,83.024,0,2.6295e+08,13.541,13319,12138,1,12138,1,6.7036e-05,-7.179e-11,0,0.00036998,-1.2135e-05,2.1363e+07,-21.246,0,1.2448e+08,-1.1798,12137,10979,1,10979,1,-0.00064649,-5.2386e-10,0,1.2244e-05,-0.0001458,-2.6295e+08,-139.77,0,5.1374e+06,-120.65,10978,11571,1,11571,1,-0.00030294,-2.2764e-10,0,0.00018499,-8.1422e-05,-1.232e+08,-66.733,0,6.5185e+07,-5.8399,11570,12705,1,12705,1,0.00043701,2.8358e-11,0,0.00055497,5.6986e-05,1.2448e+08,8.0421,0,1.8121e+08,3.2635,12704,656.67,0,656.67,0,0.00042703,1.7257e-10,0,0.00021853,7.9913e-05,1.4337e+08,48.649,0,7.1237e+07,17.714,656.67,1
2268,2.61,12139,1,12139,1,6.7294e-05,-1.1274e-10,0,0.00037431,-1.2251e-05,10.552,-31.921,0,1.2487e+08,-0.27826,12138,13320,1,13320,1,0.00078356,9.4896e-10,0,0.00078356,0.00012181,2.1426e+08,259.38,0,2.6396e+08,31.269,13319,12138,1,12138,1,6.7294e-05,-8.5846e-11,0,0.0003714,-1.2181e-05,2.1445e+07,-24.776,0,1.2496e+08,1.6026,12137,10979,1,10979,1,-0.00064898,-8.2647e-10,0,1.2291e-05,-0.00014636,-2.6396e+08,-220.63,0,5.157e+06,-108.73,10978,11571,1,11571,1,-0.0003041,-3.8523e-10,0,0.0001857,-8.1735e-05,-1.2368e+08,-111.61,0,6.5435e+07,-5.1826,11570,12705,1,12705,1,0.00043869,9.2897e-11,0,0.0005571,5.7205e-05,1.2496e+08,25.635,0,1.8191e+08,11.556,12704,656.67,0,656.67,0,0.00042867,3.7754e-10,0,0.00021937,8.022e-05,1.4393e+08,106.63,0,7.1511e+07,18.433,656.67,1
2268,2.62,12139,1,12139,1,6.7552e-05,9.4954e-12,0,0.00037574,-1.2298e-05,9.9131,2.8255,0,1.2535e+08,-3.1585,12138,13320,1,13320,1,0.00078657,7.2496e-10,0,0.00078657,0.00012228,2.1508e+08,199.73,0,2.6497e+08,19.364,13319,12138,1,12138,1,6.7552e-05,-9.0787e-12,0,0.00037282,-1.2228e-05,2.1527e+07,-2.6288,0,1.2544e+08,0.071147,12137,10979,1,10979,1,-0.00065146,-4.3431e-10,0,1.2338e-05,-0.00014692,-2.6497e+08,-117.75,0,5.1767e+06,-110.26,10978,11571,1,11571,1,-0.00030527,-1.6504e-10,0,0.00018641,-8.2049e-05,-1.2415e+08,-47.776,0,6.5686e+07,-5.8406,11570,12705,1,12705,1,0.00044037,1.4228e-10,0,0.00055923,5.7424e-05,1.2544e+08,40.292,0,1.8261e+08,7.4609,12704,656.67,0,656.67,0,0.00043032,2.5095e-10,0,0.00022021,8.0528e-05,1.4448e+08,71.424,0,7.1785e+07,17.585,656.67,1
2268,2.63,12139,1,12139,1,6.781e-05,-4.7463e-10,0,0.00037718,-1.2345e-05,-3.9202,-134.61,0,1.2583e+08,-0.21631,12138,13320,1,13320,1,0.00078957,5.387e-10,0,0.00078957,0.00012275,2.159e+08,157.68,0,2.6598e+08,34.838,13319,12138,1,12138,1,6.781e-05,-4.2226e-10,0,0.00037424,-1.2275e-05,2.1609e+07,-123.43,0,1.2592e+08,1.0006,12137,10979,1,10979,1,-0.00065395,-1.5168e-09,0,1.2385e-05,-0.00014748,-2.6598e+08,-405.5,0,5.1964e+06,-107.15,10978,11571,1,11571,1,-0.00030643,-8.7453e-10,0,0.00018712,-8.2362e-05,-1.2462e+08,-256.85,0,6.5937e+07,-5.6168,11570,12705,1,12705,1,0.00044205,-3.7189e-11,0,0.00056137,5.7643e-05,1.2592e+08,-10.815,0,1.833e+08,9.532,12704,656.67,0,656.67,0,0.00043196,5.0975e-10,0,0.00022105,8.0835e-05,1.4503e+08,143.23,0,7.2059e+07,18.025,656.67,1
2268,2.64,12139,1,12139,1,6.8068e-05,-2.9392e-10,0,0.00037861,-1.2392e-05,-5.7783,-83.654,0,1.2631e+08,-0.91617,12138,13320,1,13320,1,0.00079257,5.9727e-10,0,0.00079257,0.00012322,2.1672e+08,164.21,0,2.6699e+08,25.825,13319,12138,1,12138,1,6.8068e-05,-2.4176e-10,0,0.00037567,-1.2322e-05,2.1692e+07,-68.196,0,1.264e+08,1.5165,12137,10979,1,10979,1,-0.00065644,-1.0905e-09,0,1.2432e-05,-0.00014804,-2.6699e+08,-297.5,0,5.2161e+06,-103.83,10978,11571,1,11571,1,-0.0003076,-5.8202e-10,0,0.00018783,-8.2675e-05,-1.251e+08,-170.73,0,6.6188e+07,-4.7672,11570,12705,1,12705,1,0.00044374,-2.6621e-11,0,0.0005635,5.7862e-05,1.264e+08,-7.8448,0,1.84e+08,9.9148,12704,656.67,0,656.67,0,0.0004336,3.8675e-10,0,0.00022189,8.1142e-05,1.4558e+08,109.22,0,7.2333e+07,17.144,656.67,1
2268,2.65,12139,1,12139,1,6.8325e-05,4.2104e-11,0,0.00038004,-1.2439e-05,7.2355,11.215,0,1.2679e+08,6.6793,12138,13320,1,13320,1,0.00079557,2.6684e-09,0,0.00079557,0.00012368,2.1754e+08,718.76,0,2.68e+08,68.497,13319,12138,1,12138,1,6.8325e-05,-1.5273e-12,0,0.00037709,-1.2368e-05,2.1774e+07,-0.51244,0,1.2687e+08,3.3867,12137,10979,1,10979,1,-0.00065892,-2.0179e-09,0,1.2479e-05,-0.0001486,-2.68e+08,-554.84,0,5.2357e+06,-97.902,10978,11571,1,11571,1,-0.00030876,-6.6924e-10,0,0.00018854,-8.2987e-05,-1.2557e+08,-188.56,0,6.6438e+07,-12.443,11570,12705,1,12705,1,0.00044541,6.8821e-10,0,0.00056563,5.8081e-05,1.2687e+08,196.52,0,1.8469e+08,29.431,12704,656.67,0,656.67,0,0.00043524,1.0299e-09,0,0.00022273,8.1449e-05,1.4613e+08,293.84,0,7.2606e+07,28.347,656.67,1
2268,2.66,12139,1,12139,1,6.8584e-05,7.1604e-11,0,0.00038148,-1.2486e-05,-2.618,20.364,0,1.2727e+08,-0.68985,12138,13320,1,13320,1,0.00079858,1.0963e-09,0,0.00079858,0.00012415,2.1837e+08,298.81,0,2.6901e+08,27.308,13319,12138,1,12138,1,6.8584e-05,9.6658e-12,0,0.00037851,-1.2415e-05,2.1856e+07,2.9796,0,1.2735e+08,1.384,12137,10979,1,10979,1,-0.00066141,-5.3594e-10,0,1.2526e-05,-0.00014916,-2.6901e+08,-156.68,0,5.2554e+06,-107.46,10978,11571,1,11571,1,-0.00030993,-1.5682e-10,0,0.00018926,-8.3301e-05,-1.2605e+08,-43.586,0,6.6689e+07,-5.6111,11570,12705,1,12705,1,0.0004471,2.6236e-10,0,0.00056777,5.83e-05,1.2735e+08,74.797,0,1.8539e+08,11.36,12704,656.67,0,656.67,0,0.00043689,3.4405e-10,0,0.00022357,8.1757e-05,1.4668e+08,97.296,0,7.2881e+07,18.613,656.67,1
2268,2.67,12139,1,12139,1,6.8842e-05,-2.3851e-10,0,0.00038292,-1.2533e-05,0.74086,-67.257,0,1.2775e+08,-3.8303,12138,13320,1,13320,1,0.00080158,3.8391e-10,0,0.00080158,0.00012462,2.1919e+08,121.05,0,2.7002e+08,24.376,13319,12138,1,12138,1,6.8842e-05,-2.2156e-10,0,0.00037994,-1.2462e-05,2.1939e+07,-61.918,0,1.2783e+08,-0.32737,12137,10979,1,10979,1,-0.0006639,-8.726e-10,0,1.2573e-05,-0.00014972,-2.7002e+08,-233.14,0,5.2751e+06,-121.2,10978,11571,1,11571,1,-0.00031109,-4.6674e-10,0,0.00018997,-8.3615e-05,-1.2652e+08,-137.6,0,6.694e+07,-5.8923,11570,12705,1,12705,1,0.00044878,1.8603e-12,0,0.00056991,5.8519e-05,1.2783e+08,0.63798,0,1.8609e+08,5.0182,12704,656.67,0,656.67,0,0.00043853,2.931e-10,0,0.00022441,8.2064e-05,1.4723e+08,82.346,0,7.3155e+07,18.211,656.67,1
2268,2.68,12139,1,12139,1,6.9101e-05,1.6281e-10,0,0.00038435,-1.258e-05,-0.29507,46.335,0,1.2823e+08,-4.684,12138,13320,1,13320,1,0.00080459,5.6571e-10,0,0.00080459,0.00012508,2.2001e+08,157.02,0,2.7104e+08,13.295,13319,12138,1,12138,1,6.9101e-05,1.2057e-10,0,0.00038136,-1.2509e-05,2.2021e+07,34.532,0,1.2831e+08,0.21693,12137,10979,1,10979,1,-0.00066639,-1.0636e-10,0,1.2619e-05,-0.00015028,-2.7104e+08,-36.416,0,5.2948e+06,-108.17,10978,11571,1,11571,1,-0.00031226,6.0185e-11,0,0.00019068,-8.3929e-05,-1.27e+08,17.74,0,6.7191e+07,-5.1122,11570,12705,1,12705,1,0.00045047,2.5187e-10,0,0.00057205,5.8739e-05,1.2831e+08,72.982,0,1.8679e+08,4.0784,12704,656.67,0,656.67,0,0.00044018,1.3715e-10,0,0.00022526,8.2373e-05,1.4779e+08,39.064,0,7.343e+07,16.94,656.67,1
2268,2.69,12139,1,12139,1,6.9359e-05,-1.2127e-10,0,0.00038578,-1.2627e-05,3.9871,-34.262,0,1.287e+08,-5.5007,12138,13320,1,13320,1,0.00080759,2.3628e-10,0,0.00080759,0.00012555,2.2083e+08,80.846,0,2.7205e+08,12.942,13319,12138,1,12138,1,6.9359e-05,-9.4191e-11,0,0.00038278,-1.2555e-05,2.2103e+07,-26.958,0,1.2879e+08,-0.74977,12137,10979,1,10979,1,-0.00066887,-5.2037e-10,0,1.2666e-05,-0.00015084,-2.7205e+08,-139.16,0,5.3144e+06,-116.86,10978,11571,1,11571,1,-0.00031343,-2.5842e-10,0,0.00019139,-8.4241e-05,-1.2747e+08,-76.893,0,6.7441e+07,-5.2938,11570,12705,1,12705,1,0.00045214,9.9396e-12,0,0.00057418,5.8958e-05,1.2879e+08,2.7024,0,1.8748e+08,3.6385,12704,656.67,0,656.67,0,0.00044182,1.7331e-10,0,0.00022609,8.2679e-05,1.4834e+08,49.192,0,7.3703e+07,17.411,656.67,1
2268,2.7,12139,1,12139,1,6.9617e-05,-1.2687e-10,0,0.00038722,-1.2674e-05,2.5805,-35.62,0,1.2918e+08,-6.3751,12138,13320,1,13320,1,0.00081059,1.5435e-10,0,0.00081059,0.00012602,2.2165e+08,52.828,0,2.7306e+08,10.141,13319,12138,1,12138,1,6.9617e-05,-1.0663e-10,0,0.00038421,-1.2602e-05,2.2185e+07,-30.58,0,1.2927e+08,-1.073,12137,10979,1,10979,1,-0.00067136,-4.6214e-10,0,1.2713e-05,-0.0001514,-2.7306e+08,-123.36,0,5.3341e+06,-121.28,10978,11571,1,11571,1,-0.00031459,-2.2946e-10,0,0.0001921,-8.4555e-05,-1.2794e+08,-66.072,0,6.7692e+07,-4.8555,11570,12705,1,12705,1,0.00045382,-1.2241e-11,0,0.00057631,5.9177e-05,1.2927e+08,-3.2686,0,1.8818e+08,1.8379,12704,656.67,0,656.67,0,0.00044346,1.4162e-10,0,0.00022693,8.2987e-05,1.4889e+08,39.608,0,7.3977e+07,17.377,656.67,1
2268,2.71,12139,1,12139,1,6.9875e-05,2.8979e-12,0,0.00038865,-1.2721e-05,-4.9773,0.9228,0,1.2966e+08,-0.72861,12138,13320,1,13320,1,0.00081359,1.0614e-09,0,0.00081359,0.00012648,2.2247e+08,290.08,0,2.7407e+08,29.775,13319,12138,1,12138,1,6.9875e-05,-2.0813e-11,0,0.00038563,-1.2649e-05,2.2268e+07,-5.5842,0,1.2975e+08,1.2918,12137,10979,1,10979,1,-0.00067384,-6.2333e-10,0,1.276e-05,-0.00015196,-2.7407e+08,-171.53,0,5.3537e+06,-110.04,10978,11571,1,11571,1,-0.00031575,-2.4535e-10,0,0.00019281,-8.4868e-05,-1.2842e+08,-71.576,0,6.7942e+07,-5.0784,11570,12705,1,12705,1,0.0004555,1.9086e-10,0,0.00057844,5.9396e-05,1.2975e+08,54.353,0,1.8888e+08,9.9905,12704,656.67,0,656.67,0,0.0004451,3.5763e-10,0,0.00022777,8.3294e-05,1.4944e+08,101.29,0,7.4251e+07,18.57,656.67,1
2268,2.72,12139,1,12139,1,7.0132e-05,-3.0484e-10,0,0.00039008,-1.2768e-05,2.2853,-86.901,0,1.3014e+08,-0.41535,12138,13320,1,13320,1,0.00081659,1.0788e-09,0,0.00081659,0.00012695,2.2329e+08,305.44,0,2.7508e+08,32.684,13319,12138,1,12138,1,7.0132e-05,-1.9213e-10,0,0.00038705,-1.2695e-05,2.235e+07,-54.883,0,1.3023e+08,0.69649,12137,10979,1,10979,1,-0.00067633,-1.7401e-09,0,1.2807e-05,-0.00015253,-2.7508e+08,-479.67,0,5.3734e+06,-102.99,10978,11571,1,11571,1,-0.00031692,-7.1981e-10,0,0.00019353,-8.518e-05,-1.2889e+08,-206.33,0,6.8193e+07,-7.8236,11570,12705,1,12705,1,0.00045718,7.0173e-11,0,0.00058058,5.9615e-05,1.3023e+08,18.407,0,1.8957e+08,13.921,12704,656.67,0,656.67,0,0.00044674,6.02e-10,0,0.00022861,8.3601e-05,1.4999e+08,170.38,0,7.4524e+07,20.237,656.67,1
2268,2.73,12139,1,12139,1,7.0391e-05,2.4822e-10,0,0.00039152,-1.2815e-05,13.225,70.083,0,1.3062e+08,-2.1368,12138,13320,1,13320,1,0.0008196,1.3718e-09,0,0.0008196,0.00012742,2.2411e+08,373.3,0,2.7609e+08,33.453,13319,12138,1,12138,1,7.0391e-05,9.5785e-11,0,0.00038848,-1.2742e-05,2.2432e+07,27.035,0,1.3071e+08,-0.32598,12137,10979,1,10979,1,-0.00067881,-3.117e-10,0,1.2854e-05,-0.00015309,-2.7609e+08,-106.68,0,5.393e+06,-108.56,10978,11571,1,11571,1,-0.00031808,-2.8127e-11,0,0.00019424,-8.5494e-05,-1.2936e+08,-7.7561,0,6.8444e+07,-6.8132,11570,12705,1,12705,1,0.00045887,4.8489e-10,0,0.00058271,5.9834e-05,1.3071e+08,140.04,0,1.9027e+08,9.2389,12704,656.67,0,656.67,0,0.00044838,3.6908e-10,0,0.00022946,8.3908e-05,1.5054e+08,104.39,0,7.4799e+07,19.923,656.67,1
2268,2.74,12139,1,12139,1,7.0649e-05,-1.0173e-10,0,0.00039296,-1.2862e-05,7.2279,-28.52,0,1.3109e+08,-4.2094,12138,13320,1,13320,1,0.0008226,4.8561e-10,0,0.0008226,0.00012788,2.2494e+08,137.72,0,2.771e+08,19.786,13319,12138,1,12138,1,7.0649e-05,-6.6438e-11,0,0.0003899,-1.2789e-05,2.2514e+07,-18.918,0,1.3118e+08,-0.31415,12137,10979,1,10979,1,-0.0006813,-6.4366e-10,0,1.29e-05,-0.00015365,-2.771e+08,-171.8,0,5.4127e+06,-121.75,10978,11571,1,11571,1,-0.00031925,-2.8603e-10,0,0.00019495,-8.5807e-05,-1.2984e+08,-84.018,0,6.8695e+07,-6.0409,11570,12705,1,12705,1,0.00046055,5.7139e-11,0,0.00058485,6.0054e-05,1.3118e+08,17.074,0,1.9097e+08,6.8767,12704,656.67,0,656.67,0,0.00045003,2.4712e-10,0,0.0002303,8.4216e-05,1.5109e+08,69.996,0,7.5073e+07,18.973,656.67,1
2268,2.75,12139,1,12139,1,7.0908e-05,1.0301e-12,0,0.00039439,-1.2909e-05,2.1072,0.20488,0,1.3157e+08,-6.2095,12138,13320,1,13320,1,0.00082561,3.0837e-10,0,0.00082561,0.00012835,2.2576e+08,87.58,0,2.7812e+08,13.293,13319,12138,1,12138,1,7.0908e-05,-2.82e-12,0,0.00039133,-1.2836e-05,2.2597e+07,-0.8114,0,1.3166e+08,-0.35704,12137,10979,1,10979,1,-0.00068379,-2.601e-10,0,1.2947e-05,-0.00015421,-2.7812e+08,-69.605,0,5.4324e+06,-124.57,10978,11571,1,11571,1,-0.00032042,-8.3039e-11,0,0.00019566,-8.6122e-05,-1.3031e+08,-24.047,0,6.8946e+07,-6.7737,11570,12705,1,12705,1,0.00046223,7.4702e-11,0,0.00058699,6.0273e-05,1.3166e+08,21.755,0,1.9167e+08,3.7263,12704,656.67,0,656.67,0,0.00045168,1.2076e-10,0,0.00023114,8.4524e-05,1.5165e+08,34.463,0,7.5348e+07,19.358,656.67,1
2268,2.76,12139,1,12139,1,7.1165e-05,-4.3159e-10,0,0.00039582,-1.2956e-05,-24.446,-122.8,0,1.3205e+08,1.2122,12138,13320,1,13320,1,0.0008286,3.9593e-10,0,0.0008286,0.00012882,2.2658e+08,115.1,0,2.7913e+08,27.277,13319,12138,1,12138,1,7.1165e-05,-3.5378e-10,0,0.00039274,-1.2882e-05,2.2679e+07,-105.23,0,1.3214e+08,2.8669,12137,10979,1,10979,1,-0.00068627,-1.515e-09,0,1.2994e-05,-0.00015477,-2.7913e+08,-417.4,0,5.4521e+06,-96.98,10978,11571,1,11571,1,-0.00032158,-7.3554e-10,0,0.00019637,-8.6434e-05,-1.3078e+08,-213.8,0,6.9196e+07,-2.5329,11570,12705,1,12705,1,0.00046391,-7.342e-11,0,0.00058912,6.0492e-05,1.3214e+08,-21.499,0,1.9236e+08,10.277,12704,656.67,0,656.67,0,0.00045331,4.4161e-10,0,0.00023198,8.4831e-05,1.522e+08,124.27,0,7.5621e+07,16.234,656.67,1
2268,2.77,12139,1,12139,1,7.1423e-05,6.0065e-11,0,0.00039726,-1.3003e-05,2.194,16.823,0,1.3253e+08,-4.555,12138,13320,1,13320,1,0.0008316,5.8292e-10,0,0.0008316,0.00012928,2.274e+08,161.57,0,2.8014e+08,17.125,13319,12138,1,12138,1,7.1423e-05,1.1939e-11,0,0.00039417,-1.2929e-05,2.2761e+07,3.2398,0,1.3262e+08,-0.3887,12137,10979,1,10979,1,-0.00068876,-3.1982e-10,0,1.3041e-05,-0.00015533,-2.8014e+08,-109.46,0,5.4717e+06,-111.46,10978,11571,1,11571,1,-0.00032274,-7.5222e-11,0,0.00019708,-8.6747e-05,-1.3126e+08,-21.846,0,6.9447e+07,-6.3797,11570,12705,1,12705,1,0.00046559,1.9267e-10,0,0.00059125,6.0711e-05,1.3262e+08,54.004,0,1.9306e+08,5.3445,12704,656.67,0,656.67,0,0.00045495,1.9353e-10,0,0.00023282,8.5138e-05,1.5275e+08,55.599,0,7.5895e+07,18.282,656.67,1
2268,2.78,12139,1,12139,1,7.1682e-05,-2.1227e-11,0,0.00039869,-1.305e-05,1.4112,-6.0943,0,1.3301e+08,-9.6881,12138,13320,1,13320,1,0.00083461,6.3636e-10,0,0.00083461,0.00012975,2.2822e+08,158.47,0,2.8115e+08,9.0784,13319,12138,1,12138,1,7.1682e-05,8.4314e-14,0,0.00039559,-1.2976e-05,2.2843e+07,0.028212,0,1.331e+08,-5.1576,12137,10979,1,10979,1,-0.00069125,-5.7587e-10,0,1.3088e-05,-0.00015589,-2.8115e+08,-146.95,0,5.4914e+06,-118.53,10978,11571,1,11571,1,-0.00032391,-1.3091e-10,0,0.0001978,-8.7061e-05,-1.3173e+08,-37.463,0,6.9698e+07,-9.3187,11570,12705,1,12705,1,0.00046727,7.246e-11,0,0.00059339,6.093e-05,1.331e+08,21.635,0,1.9376e+08,-0.77269,12704,656.67,0,656.67,0,0.0004566,1.8835e-10,0,0.00023366,8.5446e-05,1.533e+08,51.086,0,7.6169e+07,16.874,656.67,1
2268,2.79,12139,1,12139,1,7.194e-05,7.8057e-11,0,0.00040013,-1.3097e-05,4.7511,21.422,0,1.3349e+08,-2.0059,12138,13320,1,13320,1,0.00083762,7.6039e-10,0,0.00083762,0.00013022,2.2904e+08,207.14,0,2.8216e+08,24.559,13319,12138,1,12138,1,7.194e-05,1.434e-11,0,0.00039702,-1.3022e-05,2.2926e+07,4.4102,0,1.3358e+08,1.0772,12137,10979,1,10979,1,-0.00069374,-5.7978e-10,0,1.3135e-05,-0.00015645,-2.8216e+08,-191.8,0,5.511e+06,-103.33,10978,11571,1,11571,1,-0.00032508,-1.1191e-10,0,0.00019851,-8.7374e-05,-1.3221e+08,-31.449,0,6.9948e+07,-5.7597,11570,12705,1,12705,1,0.00046896,3.0278e-10,0,0.00059552,6.115e-05,1.3358e+08,88.235,0,1.9446e+08,9.1972,12704,656.67,0,656.67,0,0.00045824,2.8961e-10,0,0.0002345,8.5753e-05,1.5385e+08,82.515,0,7.6443e+07,19.053,656.67,1
2268,2.8,12139,1,12139,1,7.2198e-05,-1.1609e-10,0,0.00040156,-1.3144e-05,-0.6443,-33.475,0,1.3396e+08,-2.9244,12138,13320,1,13320,1,0.00084061,3.918e-10,0,0.00084061,0.00013068,2.2986e+08,109.21,0,2.8317e+08,15.682,13319,12138,1,12138,1,7.2198e-05,-5.675e-11,0,0.00039844,-1.3069e-05,2.3008e+07,-17.384,0,1.3406e+08,0.58665,12137,10979,1,10979,1,-0.00069622,-8.6071e-10,0,1.3181e-05,-0.00015701,-2.8317e+08,-257.3,0,5.5307e+06,-101.85,10978,11571,1,11571,1,-0.00032624,-2.5401e-10,0,0.00019922,-8.7687e-05,-1.3268e+08,-73.081,0,7.0199e+07,-4.3029,11570,12705,1,12705,1,0.00047063,3.4121e-11,0,0.00059766,6.1368e-05,1.3406e+08,8.9648,0,1.9515e+08,6.8385,12704,656.67,0,656.67,0,0.00045988,2.4433e-10,0,0.00023534,8.606e-05,1.544e+08,70.378,0,7.6717e+07,16.611,656.67,1
2268,2.81,12139,1,12139,1,7.2456e-05,3.1413e-11,0,0.000403,-1.3191e-05,8.1121,8.6997,0,1.3444e+08,-8.8155,12138,13320,1,13320,1,0.00084362,4.5678e-10,0,0.00084362,0.00013115,2.3068e+08,111.96,0,2.8418e+08,2.9118,13319,12138,1,12138,1,7.2456e-05,2.3962e-11,0,0.00039986,-1.3116e-05,2.309e+07,6.9578,0,1.3454e+08,-1.4026,12137,10979,1,10979,1,-0.00069871,-2.7985e-10,0,1.3228e-05,-0.00015757,-2.8418e+08,-69.118,0,5.5503e+06,-116.58,10978,11571,1,11571,1,-0.00032741,8.7963e-15,0,0.00019993,-8.8e-05,-1.3315e+08,0.0034653,0,7.045e+07,-7.8682,11570,12705,1,12705,1,0.00047232,5.4214e-11,0,0.00059979,6.1588e-05,1.3454e+08,15.78,0,1.9585e+08,-0.57186,12704,656.67,0,656.67,0,0.00046153,7.9066e-11,0,0.00023618,8.6368e-05,1.5495e+08,20.475,0,7.6991e+07,17.197,656.67,1
2268,2.82,12139,1,12139,1,7.2714e-05,-1.5275e-10,0,0.00040443,-1.3238e-05,-0.80646,-43.305,0,1.3492e+08,-8.5083,12138,13320,1,13320,1,0.00084662,2.8725e-10,0,0.00084662,0.00013162,2.315e+08,69.421,0,2.8519e+08,8.8474,13319,12138,1,12138,1,7.2714e-05,-1.5047e-10,0,0.00040128,-1.3163e-05,2.3172e+07,-44.725,0,1.3501e+08,-2.0898,12137,10979,1,10979,1,-0.00070119,-4.1712e-10,0,1.3275e-05,-0.00015813,-2.8519e+08,-112.69,0,5.57e+06,-123.89,10978,11571,1,11571,1,-0.00032857,-2.6598e-10,0,0.00020064,-8.8313e-05,-1.3363e+08,-75.222,0,7.07e+07,-6.0483,11570,12705,1,12705,1,0.000474,-4.8337e-11,0,0.00060193,6.1807e-05,1.3501e+08,-14.065,0,1.9655e+08,-0.35924,12704,656.67,0,656.67,0,0.00046317,1.36e-10,0,0.00023702,8.6675e-05,1.555e+08,37.04,0,7.7265e+07,17.763,656.67,1
2268,2.83,12139,1,12139,1,7.2972e-05,6.8089e-11,0,0.00040586,-1.3285e-05,10.02,18.944,0,1.354e+08,-3.1935,12138,13320,1,13320,1,0.00084962,8.5263e-10,0,0.00084962,0.00013208,2.3232e+08,234.49,0,2.862e+08,23.572,13319,12138,1,12138,1,7.2972e-05,1.3328e-11,0,0.00040271,-1.3209e-05,2.3255e+07,3.8271,0,1.3549e+08,-0.30424,12137,10979,1,10979,1,-0.00070368,-4.6132e-10,0,1.3322e-05,-0.00015869,-2.862e+08,-157.84,0,5.5896e+06,-108.44,10978,11571,1,11571,1,-0.00032973,-1.1605e-10,0,0.00020135,-8.8626e-05,-1.341e+08,-32.948,0,7.0951e+07,-5.6343,11570,12705,1,12705,1,0.00047568,2.3533e-10,0,0.00060406,6.2026e-05,1.3549e+08,67.225,0,1.9724e+08,7.5861,12704,656.67,0,656.67,0,0.00046481,2.7336e-10,0,0.00023786,8.6982e-05,1.5606e+08,78.529,0,7.7538e+07,18.245,656.67,1
2268,2.84,12139,1,12139,1,7.323e-05,5.4851e-11,0,0.0004073,-1.3332e-05,1.2162,14.876,0,1.3588e+08,-0.69047,12138,13320,1,13320,1,0.00085262,1.2788e-09,0,0.00085262,0.00013255,2.3314e+08,346.18,0,2.8721e+08,33.058,13319,12138,1,12138,1,7.323e-05,5.3587e-12,0,0.00040413,-1.3256e-05,2.3337e+07,1.3094,0,1.3597e+08,1.4734,12137,10979,1,10979,1,-0.00070616,-9.7453e-10,0,1.3369e-05,-0.00015925,-2.8721e+08,-295.7,0,5.6093e+06,-103.27,10978,11571,1,11571,1,-0.0003309,-2.4899e-10,0,0.00020206,-8.8939e-05,-1.3457e+08,-71.62,0,7.1201e+07,-7.3342,11570,12705,1,12705,1,0.00047736,3.6189e-10,0,0.00060619,6.2245e-05,1.3597e+08,102.87,0,1.9794e+08,13.015,12704,656.67,0,656.67,0,0.00046645,4.8196e-10,0,0.0002387,8.7289e-05,1.5661e+08,138.26,0,7.7812e+07,20.102,656.67,1
2268,2.85,12139,1,12139,1,7.3488e-05,-2.9186e-10,0,0.00040873,-1.3379e-05,-4.5702,-83.87,0,1.3636e+08,-1.5165,12138,13320,1,13320,1,0.00085563,6.5496e-10,0,0.00085563,0.00013302,2.3397e+08,178.44,0,2.8823e+08,27.478,13319,12138,1,12138,1,7.3488e-05,-1.7919e-10,0,0.00040555,-1.3303e-05,2.3419e+07,-52.136,0,1.3645e+08,0.541,12137,10979,1,10979,1,-0.00070865,-1.4281e-09,0,1.3415e-05,-0.00015982,-2.8823e+08,-394.49,0,5.6289e+06,-104.43,10978,11571,1,11571,1,-0.00033206,-6.1661e-10,0,0.00020278,-8.9253e-05,-1.3505e+08,-174.65,0,7.1452e+07,-6.8441,11570,12705,1,12705,1,0.00047904,2.87e-11,0,0.00060833,6.2464e-05,1.3645e+08,7.6447,0,1.9864e+08,10.537,12704,656.67,0,656.67,0,0.00046809,4.7e-10,0,0.00023954,8.7597e-05,1.5716e+08,135.18,0,7.8086e+07,18.436,656.67,1
2268,2.86,12139,1,12139,1,7.3747e-05,2.2756e-10,0,0.00041017,-1.3426e-05,1.3525,64.26,0,1.3683e+08,-2.5156,12138,13320,1,13320,1,0.00085863,1.0803e-09,0,0.00085863,0.00013348,2.3479e+08,292.76,0,2.8924e+08,27.443,13319,12138,1,12138,1,7.3747e-05,1.1285e-10,0,0.00040698,-1.3349e-05,2.3501e+07,32.232,0,1.3693e+08,0.50454,12137,10979,1,10979,1,-0.00071114,-3.016e-10,0,1.3462e-05,-0.00016038,-2.8924e+08,-103.22,0,5.6486e+06,-110.54,10978,11571,1,11571,1,-0.00033323,-8.7355e-12,0,0.00020349,-8.9566e-05,-1.3552e+08,-2.241,0,7.1703e+07,-5.7713,11570,12705,1,12705,1,0.00048072,4.3625e-10,0,0.00061046,6.2683e-05,1.3693e+08,125.11,0,1.9933e+08,9.4259,12704,656.67,0,656.67,0,0.00046974,3.0852e-10,0,0.00024038,8.7905e-05,1.5771e+08,87.849,0,7.8361e+07,20.141,656.67,1
2268,2.87,12139,1,12139,1,7.4004e-05,4.6611e-13,0,0.0004116,-1.3473e-05,-6.8558,-0.21195,0,1.3731e+08,0.79422,12138,13320,1,13320,1,0.00086163,1.6954e-09,0,0.00086163,0.00013395,2.3561e+08,460.03,0,2.9025e+08,47.706,13319,12138,1,12138,1,7.4005e-05,3.1932e-14,0,0.0004084,-1.3396e-05,2.3584e+07,0.0043879,0,1.3741e+08,1.2148,12137,10979,1,10979,1,-0.00071362,-1.2581e-09,0,1.3509e-05,-0.00016094,-2.9025e+08,-347.2,0,5.6682e+06,-126.52,10978,11571,1,11571,1,-0.00033439,-4.4451e-10,0,0.0002042,-8.9879e-05,-1.36e+08,-130.3,0,7.1953e+07,-10.5,11570,12705,1,12705,1,0.0004824,3.8788e-10,0,0.0006126,6.2902e-05,1.3741e+08,113.36,0,2.0003e+08,17.613,12704,656.67,0,656.67,0,0.00047138,6.5295e-10,0,0.00024122,8.8212e-05,1.5826e+08,186.71,0,7.8634e+07,24.897,656.67,1
2268,2.88,12139,1,12139,1,7.4263e-05,6.6397e-11,0,0.00041304,-1.352e-05,-2.8037,18.441,0,1.3779e+08,-6.5586,12138,13320,1,13320,1,0.00086464,3.9386e-10,0,0.00086464,0.00013442,2.3643e+08,96.539,0,2.9126e+08,8.3788,13319,12138,1,12138,1,7.4263e-05,6.5164e-11,0,0.00040982,-1.3443e-05,2.3666e+07,19.143,0,1.3789e+08,-0.05546,12137,10979,1,10979,1,-0.00071611,-1.3659e-10,0,1.3556e-05,-0.0001615,-2.9126e+08,-46.763,0,5.6879e+06,-118.81,10978,11571,1,11571,1,-0.00033556,1.7334e-11,0,0.00020491,-9.0193e-05,-1.3647e+08,5.0369,0,7.2204e+07,-6.2628,11570,12705,1,12705,1,0.00048409,1.0622e-10,0,0.00061473,6.3121e-05,1.3789e+08,30.184,0,2.0073e+08,2.3855,12704,656.67,0,656.67,0,0.00047302,6.8807e-11,0,0.00024207,8.8519e-05,1.5881e+08,18.619,0,7.8909e+07,18.068,656.67,1
2268,2.89,12139,1,12139,1,7.4522e-05,4.2603e-11,0,0.00041448,-1.3567e-05,-0.94701,12.139,0,1.3827e+08,-7.9526,12138,13320,1,13320,1,0.00086765,6.0478e-10,0,0.00086765,0.00013488,2.3725e+08,149.36,0,2.9228e+08,5.5952,13319,12138,1,12138,1,7.4522e-05,4.2208e-11,0,0.00041125,-1.349e-05,2.3749e+07,11.521,0,1.3837e+08,-1.4377,12137,10979,1,10979,1,-0.0007186,-4.0007e-10,0,1.3603e-05,-0.00016206,-2.9228e+08,-99.61,0,5.7076e+06,-125.84,10978,11571,1,11571,1,-0.00033673,-1.1529e-11,0,0.00020563,-9.0507e-05,-1.3695e+08,-3.3646,0,7.2456e+07,-5.5065,11570,12705,1,12705,1,0.00048577,8.9704e-11,0,0.00061688,6.3341e-05,1.3837e+08,26.738,0,2.0143e+08,0.429,12704,656.67,0,656.67,0,0.00047467,1.1401e-10,0,0.00024291,8.8828e-05,1.5937e+08,30.382,0,7.9184e+07,18.01,656.67,1
2268,2.9,12139,1,12139,1,7.4779e-05,-1.2055e-10,0,0.0004159,-1.3614e-05,5.4731,-34.696,0,1.3875e+08,-3.3281,12138,13320,1,13320,1,0.00087064,6.6112e-10,0,0.00087064,0.00013535,2.3807e+08,181.26,0,2.9328e+08,22.803,13319,12138,1,12138,1,7.4779e-05,-4.6299e-11,0,0.00041267,-1.3536e-05,2.383e+07,-12.619,0,1.3884e+08,-0.36071,12137,10979,1,10979,1,-0.00072108,-9.4812e-10,0,1.3649e-05,-0.00016262,-2.9328e+08,-262.8,0,5.7271e+06,-115.55,10978,11571,1,11571,1,-0.00033789,-3.764e-10,0,0.00020633,-9.0819e-05,-1.3742e+08,-106.54,0,7.2705e+07,-7.465,11570,12705,1,12705,1,0.00048745,1.0635e-10,0,0.000619,6.3559e-05,1.3884e+08,31.595,0,2.0212e+08,8.6929,12704,656.67,0,656.67,0,0.00047631,3.6974e-10,0,0.00024375,8.9134e-05,1.5991e+08,106.58,0,7.9456e+07,19.441,656.67,1
2268,2.91,12139,1,12139,1,7.5037e-05,-8.7073e-11,0,0.00041734,-1.3661e-05,4.0508,-25.184,0,1.3923e+08,-2.8037,12138,13320,1,13320,1,0.00087364,7.9088e-10,0,0.00087364,0.00013582,2.3889e+08,215.95,0,2.9429e+08,23.989,13319,12138,1,12138,1,7.5037e-05,-2.7735e-11,0,0.00041409,-1.3583e-05,2.3913e+07,-7.8597,0,1.3932e+08,-0.19833,12137,10979,1,10979,1,-0.00072357,-9.3976e-10,0,1.3696e-05,-0.00016318,-2.9429e+08,-260.6,0,5.7468e+06,-114.39,10978,11571,1,11571,1,-0.00033905,-3.4483e-10,0,0.00020704,-9.1132e-05,-1.3789e+08,-97.618,0,7.2956e+07,-7.3072,11570,12705,1,12705,1,0.00048913,1.4406e-10,0,0.00062113,6.3779e-05,1.3932e+08,41.27,0,2.0282e+08,9.2809,12704,656.67,0,656.67,0,0.00047795,3.8468e-10,0,0.00024459,8.9441e-05,1.6047e+08,110.82,0,7.973e+07,19.187,656.67,1
2268,2.92,12139,1,12139,1,7.5295e-05,8.7672e-11,0,0.00041877,-1.3708e-05,8.0867,24.197,0,1.397e+08,-0.64259,12138,13320,1,13320,1,0.00087664,1.2916e-09,0,0.00087664,0.00013628,2.3971e+08,348.12,0,2.953e+08,34.807,13319,12138,1,12138,1,7.5295e-05,2.45e-11,0,0.00041551,-1.363e-05,2.3995e+07,6.4011,0,1.398e+08,1.0586,12137,10979,1,10979,1,-0.00072605,-7.9558e-10,0,1.3743e-05,-0.00016374,-2.953e+08,-237.31,0,5.7664e+06,-112.55,10978,11571,1,11571,1,-0.00034022,-2.2731e-10,0,0.00020776,-9.1445e-05,-1.3836e+08,-62.836,0,7.3207e+07,-7.3975,11570,12705,1,12705,1,0.00049081,3.989e-10,0,0.00062327,6.3998e-05,1.398e+08,112.22,0,2.0351e+08,13.647,12704,656.67,0,656.67,0,0.00047959,4.6486e-10,0,0.00024543,8.9748e-05,1.6102e+08,132.82,0,8.0004e+07,21.281,656.67,1
2268,2.93,12139,1,12139,1,7.5554e-05,-1.9735e-10,0,0.00042021,-1.3755e-05,1.8387,-56.228,0,1.4018e+08,-5.5083,12138,13320,1,13320,1,0.00087965,3.6277e-10,0,0.00087965,0.00013675,2.4054e+08,123.56,0,2.9632e+08,19.232,13319,12138,1,12138,1,7.5554e-05,-1.1826e-10,0,0.00041694,-1.3677e-05,2.4077e+07,-33.861,0,1.4028e+08,-1.3598,12137,10979,1,10979,1,-0.00072854,-9.5162e-10,0,1.379e-05,-0.0001643,-2.9632e+08,-257.89,0,5.7861e+06,-128.87,10978,11571,1,11571,1,-0.00034138,-4.3147e-10,0,0.00020847,-9.1759e-05,-1.3884e+08,-123.64,0,7.3458e+07,-8.0755,11570,12705,1,12705,1,0.00049249,3.5685e-11,0,0.00062541,6.4217e-05,1.4028e+08,10.043,0,2.0421e+08,6.4761,12704,656.67,0,656.67,0,0.00048124,3.1293e-10,0,0.00024627,9.0056e-05,1.6157e+08,90.013,0,8.0279e+07,20.384,656.67,1
2268,2.94,12139,1,12139,1,7.5812e-05,2.7198e-10,0,0.00042164,-1.3802e-05,-0.11374,77.173,0,1.4066e+08,-2.203,12138,13320,1,13320,1,0.00088265,1.0949e-09,0,0.00088265,0.00013722,2.4136e+08,297.94,0,2.9733e+08,21.44,13319,12138,1,12138,1,7.5812e-05,1.9842e-10,0,0.00041836,-1.3723e-05,2.416e+07,55.196,0,1.4076e+08,1.5871,12137,10979,1,10979,1,-0.00073103,-2.8598e-10,0,1.3837e-05,-0.00016486,-2.9733e+08,-97.878,0,5.8057e+06,-106.58,10978,11571,1,11571,1,-0.00034255,3.9367e-11,0,0.00020918,-9.2072e-05,-1.3931e+08,11.373,0,7.3709e+07,-3.8841,11570,12705,1,12705,1,0.00049417,4.6328e-10,0,0.00062754,6.4436e-05,1.4076e+08,134.57,0,2.0491e+08,8.4281,12704,656.67,0,656.67,0,0.00048288,2.8772e-10,0,0.00024711,9.0364e-05,1.6212e+08,82.198,0,8.0553e+07,17.996,656.67,1
2268,2.95,12139,1,12139,1,7.6069e-05,1.3053e-11,0,0.00042307,-1.3849e-05,2.4457,3.1639,0,1.4114e+08,-1.1997,12138,13320,1,13320,1,0.00088565,1.396e-09,0,0.00088565,0.00013768,2.4218e+08,378.33,0,2.9834e+08,36.357,13319,12138,1,12138,1,7.6069e-05,-3.0453e-12,0,0.00041978,-1.377e-05,2.4242e+07,-0.97508,0,1.4124e+08,0.44002,12137,10979,1,10979,1,-0.00073351,-1.0815e-09,0,1.3883e-05,-0.00016542,-2.9834e+08,-304.44,0,5.8253e+06,-111.83,10978,11571,1,11571,1,-0.00034371,-3.6043e-10,0,0.00020989,-9.2385e-05,-1.3979e+08,-101.97,0,7.3959e+07,-9.215,11570,12705,1,12705,1,0.00049585,3.5191e-10,0,0.00062967,6.4655e-05,1.4124e+08,99.879,0,2.056e+08,13.559,12704,656.67,0,656.67,0,0.00048452,5.4724e-10,0,0.00024795,9.067e-05,1.6267e+08,156.94,0,8.0826e+07,21.867,656.67,1
2268,2.96,12139,1,12139,1,7.6329e-05,8.823e-11,0,0.00042451,-1.3896e-05,0.6013,24.556,0,1.4162e+08,-5.6851,12138,13320,1,13320,1,0.00088866,3.8395e-10,0,0.00088866,0.00013815,2.43e+08,93.31,0,2.9935e+08,9.9453,13319,12138,1,12138,1,7.6329e-05,9.6267e-11,0,0.00042121,-1.3817e-05,2.4324e+07,28.398,0,1.4172e+08,0.49779,12137,10979,1,10979,1,-0.000736,-1.4007e-10,0,1.393e-05,-0.00016599,-2.9935e+08,-47.956,0,5.845e+06,-116.14,10978,11571,1,11571,1,-0.00034488,2.526e-11,0,0.0002106,-9.2699e-05,-1.4026e+08,7.3611,0,7.421e+07,-5.1066,11570,12705,1,12705,1,0.00049754,1.5324e-10,0,0.00063181,6.4875e-05,1.4172e+08,42.576,0,2.063e+08,3.5929,12704,656.67,0,656.67,0,0.00048617,8.0044e-11,0,0.00024879,9.0979e-05,1.6322e+08,21.91,0,8.1101e+07,18.188,656.67,1
2268,2.97,12139,1,12139,1,7.6586e-05,-5.7346e-11,0,0.00042594,-1.3943e-05,-1.6729,-17.111,0,1.421e+08,-4.3469,12138,13320,1,13320,1,0.00089166,3.4705e-10,0,0.00089166,0.00013862,2.4382e+08,104.4,0,3.0036e+08,14.144,13319,12138,1,12138,1,7.6587e-05,-4.747e-11,0,0.00042263,-1.3864e-05,2.4406e+07,-12.779,0,1.4219e+08,0.60951,12137,10979,1,10979,1,-0.00073849,-6.0619e-10,0,1.3977e-05,-0.00016655,-3.0036e+08,-207.4,0,5.8646e+06,-104.54,10978,11571,1,11571,1,-0.00034604,-1.4247e-10,0,0.00021131,-9.3012e-05,-1.4073e+08,-40.671,0,7.4461e+07,-5.6328,11570,12705,1,12705,1,0.00049922,5.0358e-11,0,0.00063394,6.5094e-05,1.4219e+08,14.2,0,2.07e+08,5.2481,12704,656.67,0,656.67,0,0.00048781,1.7642e-10,0,0.00024963,9.1286e-05,1.6377e+08,52.12,0,8.1374e+07,17.277,656.67,1
2268,2.98,12139,1,12139,1,7.6845e-05,-2.0238e-10,0,0.00042738,-1.399e-05,2.2654,-57.356,0,1.4258e+08,-8.2239,12138,13320,1,13320,1,0.00089467,1.9293e-10,0,0.00089467,0.00013908,2.4464e+08,45.769,0,3.0138e+08,9.7734,13319,12138,1,12138,1,7.6845e-05,-2.1158e-10,0,0.00042406,-1.391e-05,2.4489e+07,-59.117,0,1.4267e+08,-2.6084,12137,10979,1,10979,1,-0.00074098,-6.0893e-10,0,1.4023e-05,-0.00016711,-3.0138e+08,-163.57,0,5.8842e+06,-130.17,10978,11571,1,11571,1,-0.00034721,-3.2852e-10,0,0.00021203,-9.3326e-05,-1.4121e+08,-96.091,0,7.4712e+07,-7.7155,11570,12705,1,12705,1,0.0005009,-6.0517e-11,0,0.00063608,6.5313e-05,1.4267e+08,-16.916,0,2.077e+08,0.68156,12704,656.67,0,656.67,0,0.00048945,1.8083e-10,0,0.00025047,9.1594e-05,1.6433e+08,50.198,0,8.1649e+07,18.43,656.67,1
2268,2.99,12139,1,12139,1,7.7104e-05,-1.7205e-10,0,0.00042881,-1.4037e-05,-0.73323,-48.819,0,1.4305e+08,-8.7566,12138,13320,1,13320,1,0.00089767,3.7752e-10,0,0.00089767,0.00013955,2.4546e+08,91.326,0,3.0239e+08,8.9413,13319,12138,1,12138,1,7.7104e-05,-1.6877e-10,0,0.00042548,-1.3957e-05,2.4571e+07,-49.165,0,1.4315e+08,-2.9923,12137,10979,1,10979,1,-0.00074346,-5.1111e-10,0,1.407e-05,-0.00016767,-3.0239e+08,-136.05,0,5.9037e+06,-130.53,10978,11571,1,11571,1,-0.00034837,-3.1412e-10,0,0.00021274,-9.3639e-05,-1.4168e+08,-89.883,0,7.4962e+07,-7.9635,11570,12705,1,12705,1,0.00050258,-3.627e-11,0,0.00063822,6.5532e-05,1.4315e+08,-10.665,0,2.0839e+08,-0.20755,12704,656.67,0,656.67,0,0.00049109,1.7408e-10,0,0.00025131,9.1901e-05,1.6488e+08,47.318,0,8.1922e+07,18.245,656.67,1
2268,3,12139,1,12139,1,7.7362e-05,1.3057e-10,0,0.00043025,-1.4084e-05,5.3651,36.83,0,1.4353e+08,-5.8109,12138,13320,1,13320,1,0.00090067,5.9071e-10,0,0.00090067,0.00014002,2.4627e+08,170.03,0,3.034e+08,12.227,13319,12138,1,12138,1,7.7362e-05,8.7026e-11,0,0.0004269,-1.4004e-05,2.4654e+07,25.338,0,1.4363e+08,-0.052325,12137,10979,1,10979,1,-0.00074595,-2.5494e-10,0,1.4116e-05,-0.00016823,-3.034e+08,-87.273,0,5.9232e+06,-114.8,10978,11571,1,11571,1,-0.00034954,1.5004e-11,0,0.00021345,-9.3952e-05,-1.4215e+08,4.021,0,7.5213e+07,-6.5144,11570,12705,1,12705,1,0.00050426,2.2464e-10,0,0.00064035,6.5751e-05,1.4363e+08,63.81,0,2.0909e+08,3.5437,12704,656.67,0,656.67,0,0.00049273,1.5366e-10,0,0.00025215,9.2208e-05,1.6543e+08,44.583,0,8.2196e+07,18.22,656.67,1
2268,3.01,12139,1,12139,1,7.762e-05,1.4257e-10,0,0.00043168,-1.4131e-05,5.7317,40.4,0,1.4401e+08,-4.6525,12138,13320,1,13320,1,0.00090367,5.695e-10,0,0.00090367,0.00014048,2.4709e+08,167.77,0,3.0441e+08,18.452,13319,12138,1,12138,1,7.7621e-05,9.6872e-11,0,0.00042832,-1.4051e-05,2.4736e+07,26.96,0,1.4411e+08,0.56453,12137,10979,1,10979,1,-0.00074843,-2.1056e-10,0,1.4163e-05,-0.00016879,-3.0441e+08,-72.08,0,5.9427e+06,-118.48,10978,11571,1,11571,1,-0.0003507,3.3718e-11,0,0.00021416,-9.4265e-05,-1.4263e+08,9.8736,0,7.5463e+07,-4.8974,11570,12705,1,12705,1,0.00050594,2.3585e-10,0,0.00064248,6.597e-05,1.4411e+08,66.407,0,2.0979e+08,5.0087,12704,656.67,0,656.67,0,0.00049438,1.504e-10,0,0.00025299,9.2515e-05,1.6598e+08,43.87,0,8.247e+07,19.199,656.67,1
2268,3.02,12139,1,12139,1,7.7879e-05,1.5409e-11,0,0.00043311,-1.4178e-05,0.65761,4.1028,0,1.4449e+08,-4.5685,12138,13320,1,13320,1,0.00090667,4.8323e-10,0,0.00090667,0.00014095,2.4791e+08,143.37,0,3.0542e+08,17.966,13319,12138,1,12138,1,7.7879e-05,-2.0785e-11,0,0.00042974,-1.4098e-05,2.4818e+07,-5.6099,0,1.4459e+08,0.43729,12137,10979,1,10979,1,-0.00075091,-3.734e-10,0,1.4209e-05,-0.00016935,-3.0542e+08,-127.8,0,5.9621e+06,-116.73,10978,11571,1,11571,1,-0.00035187,-7.7099e-11,0,0.00021487,-9.4578e-05,-1.431e+08,-22.19,0,7.5714e+07,-4.5842,11570,12705,1,12705,1,0.00050762,8.3701e-11,0,0.00064462,6.6189e-05,1.4459e+08,23.207,0,2.1048e+08,3.8842,12704,656.67,0,656.67,0,0.00049602,1.472e-10,0,0.00025383,9.2823e-05,1.6653e+08,43.767,0,8.2743e+07,17.976,656.67,1
2268,3.03,12139,1,12139,1,7.8138e-05,1.6208e-10,0,0.00043455,-1.4226e-05,-1.3518,46.167,0,1.4497e+08,-1.85,12138,13320,1,13320,1,0.00090968,8.9462e-10,0,0.00090968,0.00014142,2.4873e+08,254.17,0,3.0643e+08,28.303,13319,12138,1,12138,1,7.8138e-05,6.428e-11,0,0.00043117,-1.4144e-05,2.4901e+07,17.626,0,1.4507e+08,1.6239,12137,10979,1,10979,1,-0.0007534,-2.8206e-10,0,1.4255e-05,-0.00016991,-3.0643e+08,-96.538,0,5.9815e+06,-116.86,10978,11571,1,11571,1,-0.00035303,-1.3546e-11,0,0.00021558,-9.4892e-05,-1.4358e+08,-3.7048,0,7.5965e+07,-3.6848,11570,12705,1,12705,1,0.00050931,3.0551e-10,0,0.00064675,6.6408e-05,1.4507e+08,87.06,0,2.1118e+08,8.5716,12704,656.67,0,656.67,0,0.00049766,2.4385e-10,0,0.00025467,9.313e-05,1.6708e+08,70.834,0,8.3017e+07,19.526,656.67,1
2268,3.04,12139,1,12139,1,7.8397e-05,3.3229e-11,0,0.00043598,-1.4273e-05,-0.26357,9.6342,0,1.4544e+08,-1.7546,12138,13320,1,13320,1,0.00091268,8.015e-10,0,0.00091268,0.00014188,2.4955e+08,228.68,0,3.0744e+08,28.806,13319,12138,1,12138,1,7.8397e-05,-7.5872e-12,0,0.00043259,-1.4191e-05,2.4983e+07,-2.0669,0,1.4555e+08,1.4445,12137,10979,1,10979,1,-0.00075589,-4.3999e-10,0,1.4301e-05,-0.00017047,-3.0744e+08,-147.5,0,6.0008e+06,-114.37,10978,11571,1,11571,1,-0.00035419,-1.4093e-10,0,0.0002163,-9.5205e-05,-1.4405e+08,-40.133,0,7.6215e+07,-3.8173,11570,12705,1,12705,1,0.00051099,1.6882e-10,0,0.00064889,6.6627e-05,1.4555e+08,48.345,0,2.1188e+08,7.9324,12704,656.67,0,656.67,0,0.0004993,2.5782e-10,0,0.00025551,9.3437e-05,1.6763e+08,74.655,0,8.3291e+07,18.384,656.67,1
2268,3.05,12139,1,12139,1,7.8656e-05,-1.5564e-10,0,0.00043742,-1.432e-05,-6.8723,-44.147,0,1.4592e+08,-6.2428,12138,13320,1,13320,1,0.00091569,2.8337e-10,0,0.00091569,0.00014235,2.5037e+08,96.955,0,3.0845e+08,16.046,13319,12138,1,12138,1,7.8656e-05,-1.2271e-10,0,0.00043402,-1.4238e-05,2.5066e+07,-35.266,0,1.4603e+08,-1.543,12137,10979,1,10979,1,-0.00075838,-6.3591e-10,0,1.4347e-05,-0.00017103,-3.0845e+08,-170.63,0,6.0202e+06,-128.32,10978,11571,1,11571,1,-0.00035536,-3.2168e-10,0,0.00021701,-9.5519e-05,-1.4452e+08,-94.689,0,7.6466e+07,-5.8706,11570,12705,1,12705,1,0.00051267,6.8272e-12,0,0.00065102,6.6846e-05,1.4603e+08,2.0166,0,2.1257e+08,2.6697,12704,656.67,0,656.67,0,0.00050095,2.0814e-10,0,0.00025636,9.3745e-05,1.6818e+08,59.244,0,8.3565e+07,18.437,656.67,1
2268,3.06,12139,1,12139,1,7.891e-05,-7.9431e-10,0,0.00043883,-1.4366e-05,-76.142,-224.18,0,1.4639e+08,19.96,12138,13320,1,13320,1,0.00091866,5.765e-09,0,0.00091866,0.00014281,2.5118e+08,1595.4,0,3.0945e+08,289.61,13319,12138,1,12138,1,7.891e-05,-7.1321e-10,0,0.00043542,-1.4284e-05,2.5147e+07,-211.05,0,1.465e+08,8.4775,12137,10979,1,10979,1,-0.00076084,-5.4742e-09,0,1.4392e-05,-0.00017159,-3.0945e+08,-1477.8,0,6.0393e+06,-222.23,10978,11571,1,11571,1,-0.00035651,-2.806e-09,0,0.00021771,-9.5828e-05,-1.4499e+08,-820.01,0,7.6713e+07,-28.66,11570,12705,1,12705,1,0.00051433,5.8869e-10,0,0.00065313,6.7062e-05,1.465e+08,187.13,0,2.1326e+08,45.266,12704,656.67,0,656.67,0,0.00050256,2.5322e-09,0,0.00025718,9.4047e-05,1.6873e+08,718.83,0,8.3834e+07,79.698,656.67,1
2268,3.07,12139,1,12139,1,7.9169e-05,-3.5352e-10,0,0.00044026,-1.4413e-05,-58.165,-101.27,0,1.4687e+08,23.34,12138,13320,1,13320,1,0.00092164,4.7915e-09,0,0.00092164,0.00014327,2.5199e+08,1313.9,0,3.1046e+08,202.57,13319,12138,1,12138,1,7.9168e-05,-6.2684e-10,0,0.00043684,-1.4331e-05,2.5229e+07,-181.29,0,1.4697e+08,12.766,12137,10979,1,10979,1,-0.0007633,-3.1043e-09,0,1.4439e-05,-0.00017215,-3.1046e+08,-856.22,0,6.0587e+06,-84.109,10978,11571,1,11571,1,-0.00035767,-1.3301e-09,0,0.00021842,-9.614e-05,-1.4546e+08,-388.44,0,7.6963e+07,-0.26492,11570,12705,1,12705,1,0.000516,3.714e-11,0,0.00065525,6.728e-05,1.4697e+08,9.8333,0,2.1395e+08,36.992,12704,656.67,0,656.67,0,0.0005042,1.4475e-09,0,0.00025802,9.4354e-05,1.6928e+08,415.32,0,8.4107e+07,49.299,656.67,1
2268,3.08,12139,1,12139,1,7.9433e-05,-1.6906e-10,0,0.00044173,-1.4461e-05,-0.093112,-48.308,0,1.4736e+08,-7.5547,12138,13320,1,13320,1,0.0009247,1.1656e-10,0,0.0009247,0.00014375,2.5282e+08,27.35,0,3.1149e+08,5.4502,13319,12138,1,12138,1,7.9433e-05,-1.8436e-10,0,0.00043829,-1.4379e-05,2.5314e+07,-54.231,0,1.4746e+08,-1.2156,12137,10979,1,10979,1,-0.00076584,-3.9437e-10,0,1.4485e-05,-0.00017272,-3.1149e+08,-109.22,0,6.0784e+06,-124.08,10978,11571,1,11571,1,-0.00035885,-2.4889e-10,0,0.00021914,-9.646e-05,-1.4594e+08,-70.859,0,7.7218e+07,-5.0778,11570,12705,1,12705,1,0.00051772,-8.5256e-11,0,0.00065743,6.7504e-05,1.4746e+08,-24.296,0,2.1466e+08,0.17808,12704,656.67,0,656.67,0,0.00050588,1.0991e-10,0,0.00025888,9.4668e-05,1.6984e+08,30.799,0,8.4387e+07,17.635,656.67,1
2268,3.09,12139,1,12139,1,7.9692e-05,-2.3723e-10,0,0.00044316,-1.4508e-05,-0.79841,-67.716,0,1.4784e+08,-6.2478,12138,13320,1,13320,1,0.0009277,1.2181e-10,0,0.0009277,0.00014422,2.5364e+08,41.699,0,3.125e+08,8.3911,13319,12138,1,12138,1,7.9692e-05,-1.983e-10,0,0.00043971,-1.4426e-05,2.5396e+07,-58.42,0,1.4794e+08,-1.3358,12137,10979,1,10979,1,-0.00076832,-6.5855e-10,0,1.4531e-05,-0.00017328,-3.125e+08,-196.77,0,6.0977e+06,-118.99,10978,11571,1,11571,1,-0.00036002,-3.8533e-10,0,0.00021985,-9.6773e-05,-1.4642e+08,-112.54,0,7.7469e+07,-4.2784,11570,12705,1,12705,1,0.0005194,-8.0465e-11,0,0.00065956,6.7722e-05,1.4794e+08,-21.309,0,2.1536e+08,1.9831,12704,656.67,0,656.67,0,0.00050752,1.9371e-10,0,0.00025972,9.4975e-05,1.7039e+08,55.408,0,8.466e+07,16.968,656.67,1
2268,3.1,12139,1,12139,1,7.995e-05,-6.1673e-11,0,0.00044459,-1.4555e-05,0.85919,-17.528,0,1.4831e+08,-2.6135,12138,13320,1,13320,1,0.0009307,7.148e-10,0,0.0009307,0.00014468,2.5446e+08,205.9,0,3.1351e+08,28.006,13319,12138,1,12138,1,7.995e-05,-4.4479e-11,0,0.00044113,-1.4473e-05,2.5478e+07,-12.616,0,1.4842e+08,0.39633,12137,10979,1,10979,1,-0.0007708,-7.1712e-10,0,1.4577e-05,-0.00017384,-3.1351e+08,-220.27,0,6.1171e+06,-117.05,10978,11571,1,11571,1,-0.00036118,-2.7515e-10,0,0.00022057,-9.7086e-05,-1.4689e+08,-78.378,0,7.7719e+07,-4.9245,11570,12705,1,12705,1,0.00052108,1.1485e-10,0,0.0006617,6.7941e-05,1.4842e+08,32.475,0,2.1605e+08,8.0399,12704,656.67,0,656.67,0,0.00050916,3.0495e-10,0,0.00026056,9.5282e-05,1.7094e+08,88.03,0,8.4933e+07,18.914,656.67,1
2268,3.11,12139,1,12139,1,8.021e-05,3.3807e-10,0,0.00044603,-1.4603e-05,1.487,95.767,0,1.4879e+08,-9.3713,12138,13320,1,13320,1,0.00093372,1.1224e-09,0,0.00093372,0.00014515,2.5528e+08,283.59,0,3.1452e+08,11.061,13319,12138,1,12138,1,8.021e-05,2.8254e-10,0,0.00044256,-1.452e-05,2.5561e+07,83.229,0,1.489e+08,-3.5891,12137,10979,1,10979,1,-0.0007733,-2.5222e-10,0,1.4624e-05,-0.0001744,-3.1452e+08,-61.822,0,6.1365e+06,-122.51,10978,11571,1,11571,1,-0.00036235,7.6149e-11,0,0.00022128,-9.74e-05,-1.4736e+08,23.108,0,7.7971e+07,-10.936,11570,12705,1,12705,1,0.00052277,5.5512e-10,0,0.00066384,6.8161e-05,1.489e+08,163.6,0,2.1675e+08,1.1328,12704,656.67,0,656.67,0,0.00051081,3.0664e-10,0,0.0002614,9.559e-05,1.7149e+08,84.102,0,8.5208e+07,19.038,656.67,1
2268,3.12,12139,1,12139,1,8.0468e-05,1.4535e-10,0,0.00044746,-1.465e-05,0.75173,41.315,0,1.4927e+08,-2.928,12138,13320,1,13320,1,0.00093671,7.038e-10,0,0.00093671,0.00014562,2.5609e+08,204.33,0,3.1553e+08,21.395,13319,12138,1,12138,1,8.0468e-05,7.8754e-11,0,0.00044398,-1.4566e-05,2.5643e+07,22.65,0,1.4938e+08,1.4086,12137,10979,1,10979,1,-0.00077578,-3.068e-10,0,1.467e-05,-0.00017496,-3.1553e+08,-105.01,0,6.1558e+06,-118.97,10978,11571,1,11571,1,-0.00036351,-6.0484e-12,0,0.00022199,-9.7713e-05,-1.4784e+08,-1.65,0,7.8221e+07,-3.5363,11570,12705,1,12705,1,0.00052445,2.8011e-10,0,0.00066597,6.8379e-05,1.4938e+08,79.801,0,2.1745e+08,7.3688,12704,656.67,0,656.67,0,0.00051245,2.0061e-10,0,0.00026224,9.5897e-05,1.7204e+08,58.574,0,8.5481e+07,19.249,656.67,1
2268,3.13,12139,1,12139,1,8.0727e-05,1.2464e-10,0,0.0004489,-1.4697e-05,0.067303,35.14,0,1.4975e+08,-6.0484,12138,13320,1,13320,1,0.00093972,3.93e-10,0,0.00093972,0.00014608,2.5691e+08,95.392,0,3.1654e+08,8.0089,13319,12138,1,12138,1,8.0727e-05,1.4004e-10,0,0.0004454,-1.4613e-05,2.5726e+07,41.339,0,1.4986e+08,0.6582,12137,10979,1,10979,1,-0.00077826,-1.9867e-10,0,1.4716e-05,-0.00017552,-3.1654e+08,-68.017,0,6.1752e+06,-120.71,10978,11571,1,11571,1,-0.00036467,4.9977e-11,0,0.0002227,-9.8026e-05,-1.4831e+08,13.274,0,7.8472e+07,-4.9748,11570,12705,1,12705,1,0.00052613,2.0249e-10,0,0.0006681,6.8598e-05,1.4986e+08,57.616,0,2.1814e+08,2.9148,12704,656.67,0,656.67,0,0.00051409,9.9027e-11,0,0.00026308,9.6204e-05,1.7259e+08,27.74,0,8.5755e+07,18.431,656.67,1
2268,3.14,12139,1,12139,1,8.0986e-05,1.2979e-10,0,0.00045033,-1.4744e-05,3.9972,36.878,0,1.5023e+08,-2.0989,12138,13320,1,13320,1,0.00094272,8.5464e-10,0,0.00094272,0.00014655,2.5773e+08,243.55,0,3.1755e+08,26.89,13319,12138,1,12138,1,8.0986e-05,5.6707e-11,0,0.00044682,-1.466e-05,2.5809e+07,16.46,0,1.5034e+08,1.8263,12137,10979,1,10979,1,-0.00078075,-4.3903e-10,0,1.4762e-05,-0.00017608,-3.1755e+08,-150.21,0,6.1945e+06,-115.85,10978,11571,1,11571,1,-0.00036584,-3.5501e-11,0,0.00022341,-9.8339e-05,-1.4878e+08,-10.151,0,7.8722e+07,-3.5889,11570,12705,1,12705,1,0.00052781,2.794e-10,0,0.00067024,6.8817e-05,1.5034e+08,78.996,0,2.1884e+08,8.0572,12704,656.67,0,656.67,0,0.00051573,2.4526e-10,0,0.00026392,9.6511e-05,1.7314e+08,71.655,0,8.6028e+07,19.118,656.67,1
2268,3.15,12139,1,12139,1,8.124e-05,1.0432e-09,0,0.00045174,-1.479e-05,-44.006,298.97,0,1.507e+08,62.682,12138,13320,1,13320,1,0.0009457,1.0103e-08,0,0.0009457,0.00014701,2.5854e+08,2770,0,3.1855e+08,349.16,13319,12138,1,12138,1,8.1241e-05,1.0643e-10,0,0.00044823,-1.4706e-05,2.589e+07,31.039,0,1.5081e+08,42.802,12137,10979,1,10979,1,-0.00078322,-3.6841e-09,0,1.4807e-05,-0.00017664,-3.1855e+08,-1000.1,0,6.2135e+06,-299,10978,11571,1,11571,1,-0.00036698,-1.2592e-09,0,0.00022411,-9.8648e-05,-1.4925e+08,-363.15,0,7.8969e+07,-1.8731,11570,12705,1,12705,1,0.00052947,3.026e-09,0,0.00067234,6.9033e-05,1.5081e+08,848.27,0,2.1952e+08,132.02,12704,656.67,0,656.67,0,0.00051735,3.1871e-09,0,0.00026475,9.6813e-05,1.7368e+08,908.1,0,8.6297e+07,104.73,656.67,1
2268,3.16,12139,1,12139,1,8.1504e-05,9.505e-11,0,0.0004532,-1.4838e-05,2.5339,27.164,0,1.5118e+08,1.4678,12138,13320,1,13320,1,0.00094873,1.087e-09,0,0.00094873,0.00014748,2.5937e+08,308.02,0,3.1957e+08,36.435,13319,12138,1,12138,1,8.1504e-05,1.5488e-11,0,0.00044967,-1.4754e-05,2.5974e+07,4.1095,0,1.5129e+08,4.0286,12137,10979,1,10979,1,-0.00078572,-7.4978e-10,0,1.4854e-05,-0.00017721,-3.1957e+08,-228.83,0,6.2332e+06,-109.89,10978,11571,1,11571,1,-0.00036817,-1.346e-10,0,0.00022483,-9.8966e-05,-1.4973e+08,-40.583,0,7.9223e+07,-3.9871,11570,12705,1,12705,1,0.00053117,3.4339e-10,0,0.00067451,6.9255e-05,1.5129e+08,95.682,0,2.2023e+08,14.715,12704,656.67,0,656.67,0,0.00051902,3.7357e-10,0,0.00026561,9.7126e-05,1.7424e+08,107.9,0,8.6576e+07,20.705,656.67,1
2268,3.17,12139,1,12139,1,8.1764e-05,-1.8692e-09,0,0.00045463,-1.4886e-05,81.404,-534.18,0,1.5166e+08,-38.244,12138,13320,1,13320,1,0.00095175,7.3086e-10,0,0.00095175,0.00014795,2.6019e+08,250.29,0,3.2059e+08,127.47,13319,12138,1,12138,1,8.1763e-05,-1.886e-09,0,0.00045109,-1.4801e-05,2.6056e+07,-536.8,0,1.5177e+08,-31.761,12137,10979,1,10979,1,-0.00078822,-4.6471e-09,0,1.4899e-05,-0.00017777,-3.2059e+08,-1265.1,0,6.2522e+06,-213.28,10978,11571,1,11571,1,-0.00036933,-3.0581e-09,0,0.00022555,-9.928e-05,-1.502e+08,-893.59,0,7.9474e+07,-63.947,11570,12705,1,12705,1,0.00053286,-5.8764e-10,0,0.00067664,6.9474e-05,1.5177e+08,-168.41,0,2.2093e+08,-9.7334,12704,656.67,0,656.67,0,0.00052066,1.4309e-09,0,0.00026645,9.7434e-05,1.748e+08,403.5,0,8.685e+07,45.098,656.67,1
2268,3.18,12139,1,12139,1,8.2023e-05,2.057e-11,0,0.00045607,-1.4933e-05,0.039535,5.8248,0,1.5214e+08,-5.5957,12138,13320,1,13320,1,0.00095474,3.3964e-10,0,0.00095474,0.00014842,2.61e+08,108.28,0,3.216e+08,12.321,13319,12138,1,12138,1,8.2023e-05,1.2703e-11,0,0.00045252,-1.4848e-05,2.6139e+07,3.3411,0,1.5225e+08,-0.034358,12137,10979,1,10979,1,-0.0007907,-2.4903e-10,0,1.4946e-05,-0.00017833,-3.216e+08,-85.234,0,6.2719e+06,-127.6,10978,11571,1,11571,1,-0.0003705,-6.8773e-11,0,0.00022626,-9.9594e-05,-1.5068e+08,-19.117,0,7.9725e+07,-3.8052,11570,12705,1,12705,1,0.00053454,9.5341e-11,0,0.00067878,6.9694e-05,1.5225e+08,26.323,0,2.2162e+08,3.6609,12704,656.67,0,656.67,0,0.00052231,1.2283e-10,0,0.00026729,9.7742e-05,1.7535e+08,35.967,0,8.7124e+07,18.957,656.67,1
2268,3.19,12139,1,12139,1,8.2282e-05,3.2266e-10,0,0.00045751,-1.498e-05,1.4475,91.486,0,1.5262e+08,-6.0314,12138,13320,1,13320,1,0.00095775,8.4189e-10,0,0.00095775,0.00014888,2.6182e+08,227.54,0,3.2261e+08,14.908,13319,12138,1,12138,1,8.2282e-05,3.0498e-10,0,0.00045394,-1.4895e-05,2.6221e+07,88.368,0,1.5273e+08,0.082064,12137,10979,1,10979,1,-0.00079319,-2.2481e-10,0,1.4992e-05,-0.00017889,-3.2261e+08,-54.687,0,6.2913e+06,-122.29,10978,11571,1,11571,1,-0.00037166,1.1259e-10,0,0.00022697,-9.9907e-05,-1.5115e+08,33.933,0,7.9976e+07,-5.4246,11570,12705,1,12705,1,0.00053623,5.2308e-10,0,0.00068092,6.9913e-05,1.5273e+08,152.71,0,2.2232e+08,4.1576,12704,656.67,0,656.67,0,0.00052395,2.5663e-10,0,0.00026813,9.805e-05,1.759e+08,70.773,0,8.7398e+07,19.734,656.67,1
2268,3.2,12139,1,12139,1,8.254e-05,8.0067e-11,0,0.00045894,-1.5027e-05,1.1929,22.472,0,1.5309e+08,-7.1148,12138,13320,1,13320,1,0.00096075,4.0069e-10,0,0.00096075,0.00014935,2.6264e+08,97.204,0,3.2362e+08,4.7152,13319,12138,1,12138,1,8.254e-05,8.9725e-11,0,0.00045536,-1.4942e-05,2.6304e+07,26.378,0,1.5321e+08,0.20978,12137,10979,1,10979,1,-0.00079566,-1.9277e-10,0,1.5037e-05,-0.00017945,-3.2362e+08,-65.998,0,6.3106e+06,-127.18,10978,11571,1,11571,1,-0.00037282,3.2073e-11,0,0.00022768,-0.00010022,-1.5163e+08,8.5781,0,8.0226e+07,-5.4769,11570,12705,1,12705,1,0.00053791,1.2734e-10,0,0.00068305,7.0131e-05,1.5321e+08,36.104,0,2.2302e+08,1.8003,12704,656.67,0,656.67,0,0.00052559,6.9099e-11,0,0.00026897,9.8356e-05,1.7645e+08,19.219,0,8.7671e+07,18.941,656.67,1
2268,3.21,12139,1,12139,1,8.2799e-05,-1.4848e-10,0,0.00046037,-1.5074e-05,-1.7258,-42.337,0,1.5357e+08,-9.7167,12138,13320,1,13320,1,0.00096375,2.3627e-10,0,0.00096375,0.00014982,2.6346e+08,56.409,0,3.2463e+08,5.0417,13319,12138,1,12138,1,8.28e-05,-1.5583e-10,0,0.00045679,-1.4988e-05,2.6386e+07,-45.857,0,1.5369e+08,-3.1564,12137,10979,1,10979,1,-0.00079815,-3.992e-10,0,1.5083e-05,-0.00018001,-3.2463e+08,-107.23,0,6.3299e+06,-135.46,10978,11571,1,11571,1,-0.00037399,-2.3882e-10,0,0.00022839,-0.00010053,-1.521e+08,-69.865,0,8.0477e+07,-7.0221,11570,12705,1,12705,1,0.00053959,-5.7513e-11,0,0.00068518,7.035e-05,1.5369e+08,-15.686,0,2.2371e+08,-1.3639,12704,656.67,0,656.67,0,0.00052723,1.2469e-10,0,0.00026981,9.8664e-05,1.77e+08,34.754,0,8.7945e+07,18.715,656.67,1
2268,3.22,12139,1,12139,1,8.3058e-05,-1.0132e-10,0,0.00046181,-1.5121e-05,4.5051,-28.828,0,1.5405e+08,-7.3969,12138,13320,1,13320,1,0.00096675,2.6385e-10,0,0.00096675,0.00015028,2.6427e+08,90.278,0,3.2564e+08,10.607,13319,12138,1,12138,1,8.3058e-05,-7.7056e-11,0,0.00045821,-1.5035e-05,2.6469e+07,-22.244,0,1.5417e+08,-1.8129,12137,10979,1,10979,1,-0.00080063,-4.3128e-10,0,1.5129e-05,-0.00018057,-3.2564e+08,-117.94,0,6.3492e+06,-130.27,10978,11571,1,11571,1,-0.00037515,-2.2304e-10,0,0.00022911,-0.00010085,-1.5257e+08,-65.245,0,8.0728e+07,-5.2152,11570,12705,1,12705,1,0.00054127,1.2969e-11,0,0.00068732,7.0569e-05,1.5417e+08,3.709,0,2.2441e+08,1.3414,12704,656.67,0,656.67,0,0.00052887,1.4902e-10,0,0.00027065,9.8971e-05,1.7755e+08,42.993,0,8.8218e+07,18.625,656.67,1
2268,3.23,12139,1,12139,1,8.3317e-05,-1.409e-10,0,0.00046324,-1.5169e-05,6.6527,-40.227,0,1.5453e+08,-2.8715,12138,13320,1,13320,1,0.00096975,5.5263e-10,0,0.00096975,0.00015075,2.6509e+08,163.09,0,3.2665e+08,24.67,13319,12138,1,12138,1,8.3317e-05,-8.3739e-11,0,0.00045963,-1.5082e-05,2.6551e+07,-24.068,0,1.5465e+08,0.57414,12137,10979,1,10979,1,-0.00080312,-8.7082e-10,0,1.5175e-05,-0.00018113,-3.2665e+08,-261.87,0,6.3685e+06,-121.28,10978,11571,1,11571,1,-0.00037632,-3.6244e-10,0,0.00022982,-0.00010116,-1.5305e+08,-103.79,0,8.0978e+07,-4.9801,11570,12705,1,12705,1,0.00054295,5.0785e-11,0,0.00068945,7.0788e-05,1.5465e+08,13.817,0,2.251e+08,8.2299,12704,656.67,0,656.67,0,0.00053052,3.0986e-10,0,0.00027149,9.9278e-05,1.781e+08,89.347,0,8.8492e+07,19.266,656.67,1
2268,3.24,12139,1,12139,1,8.3577e-05,1.8672e-10,0,0.00046468,-1.5216e-05,-0.52699,52.878,0,1.5501e+08,-6.7497,12138,13320,1,13320,1,0.00097276,5.6877e-10,0,0.00097276,0.00015121,2.6591e+08,139.4,0,3.2766e+08,5.6062,13319,12138,1,12138,1,8.3577e-05,1.8816e-10,0,0.00046106,-1.5129e-05,2.6634e+07,56.744,0,1.5513e+08,0.071611,12137,10979,1,10979,1,-0.00080561,-1.1553e-10,0,1.5221e-05,-0.00018169,-3.2766e+08,-39.557,0,6.3878e+06,-125.35,10978,11571,1,11571,1,-0.00037748,8.7149e-11,0,0.00023053,-0.00010147,-1.5352e+08,24.371,0,8.1229e+07,-5.0505,11570,12705,1,12705,1,0.00054463,2.7613e-10,0,0.00069159,7.1007e-05,1.5513e+08,79.834,0,2.258e+08,1.9524,12704,656.67,0,656.67,0,0.00053216,1.313e-10,0,0.00027233,9.9586e-05,1.7865e+08,36.006,0,8.8766e+07,18.524,656.67,1
2268,3.25,12139,1,12139,1,8.3836e-05,-1.1153e-10,0,0.00046611,-1.5263e-05,17.042,-31.599,0,1.5548e+08,-7.0761,12138,13320,1,13320,1,0.00097576,4.1092e-10,0,0.00097576,0.00015168,2.6673e+08,139.63,0,3.2867e+08,17.346,13319,12138,1,12138,1,8.3836e-05,-1.0187e-10,0,0.00046248,-1.5176e-05,2.6717e+07,-29.091,0,1.556e+08,-2.1924,12137,10979,1,10979,1,-0.00080809,-4.9802e-10,0,1.5267e-05,-0.00018226,-3.2867e+08,-133.49,0,6.4071e+06,-129.83,10978,11571,1,11571,1,-0.00037864,-2.6503e-10,0,0.00023124,-0.00010179,-1.5399e+08,-78.283,0,8.148e+07,-5.9779,11570,12705,1,12705,1,0.00054632,2.0251e-11,0,0.00069372,7.1226e-05,1.556e+08,5.6431,0,2.2649e+08,0.73768,12704,656.67,0,656.67,0,0.0005338,1.9291e-10,0,0.00027317,9.9893e-05,1.792e+08,55.532,0,8.9039e+07,18.425,656.67,1
2268,3.26,12139,1,12139,1,8.4095e-05,1.483e-10,0,0.00046755,-1.531e-05,4.1904,41.567,0,1.5596e+08,-8.9089,12138,13320,1,13320,1,0.00097877,6.7346e-10,0,0.00097877,0.00015215,2.6755e+08,166.74,0,3.2968e+08,6.96,13319,12138,1,12138,1,8.4095e-05,1.1761e-10,0,0.0004639,-1.5223e-05,2.6799e+07,33.115,0,1.5608e+08,-2.0059,12137,10979,1,10979,1,-0.00081058,-3.659e-10,0,1.5313e-05,-0.00018282,-3.2968e+08,-90.909,0,6.4264e+06,-126.08,10978,11571,1,11571,1,-0.00037981,-2.7993e-12,0,0.00023195,-0.0001021,-1.5447e+08,-0.71901,0,8.173e+07,-10.448,11570,12705,1,12705,1,0.000548,2.9427e-10,0,0.00069586,7.1445e-05,1.5608e+08,86.767,0,2.2719e+08,1.4233,12704,656.67,0,656.67,0,0.00053545,1.9925e-10,0,0.00027402,0.0001002,1.7976e+08,54.407,0,8.9313e+07,19.064,656.67,1
2268,3.27,12139,1,12139,1,8.4354e-05,-1.0105e-10,0,0.00046898,-1.5357e-05,1.136,-28.894,0,1.5644e+08,-5.0211,12138,13320,1,13320,1,0.00098177,3.6988e-10,0,0.00098177,0.00015261,2.6836e+08,114.76,0,3.307e+08,18.607,13319,12138,1,12138,1,8.4354e-05,-6.4836e-11,0,0.00046533,-1.527e-05,2.6882e+07,-18.549,0,1.5656e+08,-0.38923,12137,10979,1,10979,1,-0.00081307,-5.2024e-10,0,1.5359e-05,-0.00018338,-3.307e+08,-170.61,0,6.4457e+06,-129.43,10978,11571,1,11571,1,-0.00038097,-2.6033e-10,0,0.00023266,-0.00010241,-1.5494e+08,-74.426,0,8.1981e+07,-4.6385,11570,12705,1,12705,1,0.00054968,3.0147e-11,0,0.00069799,7.1664e-05,1.5656e+08,8.5263,0,2.2789e+08,4.9002,12704,656.67,0,656.67,0,0.00053709,2.0672e-10,0,0.00027486,0.00010051,1.8031e+08,59.979,0,8.9587e+07,19.534,656.67,1
2268,3.28,12139,1,12139,1,8.4613e-05,1.4241e-10,0,0.00047041,-1.5404e-05,-6.2418,40.064,0,1.5692e+08,-6.8181,12138,13320,1,13320,1,0.00098478,5.2017e-10,0,0.00098478,0.00015308,2.6918e+08,127.49,0,3.3171e+08,8.126,13319,12138,1,12138,1,8.4613e-05,1.4395e-10,0,0.00046675,-1.5317e-05,2.6964e+07,41.471,0,1.5704e+08,0.46629,12137,10979,1,10979,1,-0.00081555,-2.0097e-10,0,1.5405e-05,-0.00018394,-3.3171e+08,-59.248,0,6.4651e+06,-128.21,10978,11571,1,11571,1,-0.00038214,4.8639e-11,0,0.00023338,-0.00010273,-1.5541e+08,14.067,0,8.2232e+07,-5.6341,11570,12705,1,12705,1,0.00055136,2.3786e-10,0,0.00070013,7.1883e-05,1.5704e+08,68.547,0,2.2858e+08,2.7848,12704,656.67,0,656.67,0,0.00053873,1.2282e-10,0,0.0002757,0.00010082,1.8086e+08,33.516,0,8.9861e+07,19.656,656.67,1
2268,3.29,12139,1,12139,1,8.4872e-05,-2.3565e-10,0,0.00047185,-1.5452e-05,-2.8755,-66.943,0,1.574e+08,-5.4726,12138,13320,1,13320,1,0.00098778,4.3761e-10,0,0.00098778,0.00015355,2.7e+08,138.43,0,3.3272e+08,29.039,13319,12138,1,12138,1,8.4872e-05,-1.9816e-10,0,0.00046817,-1.5364e-05,2.7047e+07,-56.413,0,1.5752e+08,-1.3175,12137,10979,1,10979,1,-0.00081804,-9.0576e-10,0,1.5451e-05,-0.0001845,-3.3272e+08,-243.19,0,6.4843e+06,-136.89,10978,11571,1,11571,1,-0.0003833,-4.8693e-10,0,0.00023409,-0.00010304,-1.5589e+08,-142.45,0,8.2482e+07,-7.1034,11570,12705,1,12705,1,0.00055305,-5.1177e-12,0,0.00070226,7.2102e-05,1.5752e+08,-1.3076,0,2.2928e+08,3.9574,12704,656.67,0,656.67,0,0.00054037,3.1156e-10,0,0.00027654,0.00010112,1.8141e+08,88.682,0,9.0134e+07,20.555,656.67,1
2268,3.3,12139,1,12139,1,8.5131e-05,1.5e-10,0,0.00047328,-1.5499e-05,1.6941,42.518,0,1.5788e+08,-5.8021,12138,13320,1,13320,1,0.00099079,3.6703e-10,0,0.00099079,0.00015401,2.7082e+08,112.38,0,3.3373e+08,8.453,13319,12138,1,12138,1,8.5131e-05,1.5891e-10,0,0.0004696,-1.5411e-05,2.713e+07,44.19,0,1.58e+08,0.73662,12137,10979,1,10979,1,-0.00082052,-2.0758e-10,0,1.5497e-05,-0.00018506,-3.3373e+08,-71.063,0,6.5036e+06,-126.63,10978,11571,1,11571,1,-0.00038447,6.5908e-11,0,0.0002348,-0.00010335,-1.5636e+08,18.181,0,8.2733e+07,-4.2591,11570,12705,1,12705,1,0.00055473,2.3126e-10,0,0.0007044,7.2321e-05,1.58e+08,67.123,0,2.2998e+08,3.4932,12704,656.67,0,656.67,0,0.00054202,1.1098e-10,0,0.00027738,0.00010143,1.8196e+08,32.142,0,9.0408e+07,19.146,656.67,1
2268,3.31,12139,1,12139,1,8.539e-05,-3.1329e-11,0,0.00047472,-1.5546e-05,-2.8069,-9.1138,0,1.5835e+08,-9.9563,12138,13320,1,13320,1,0.00099379,4.195e-10,0,0.00099379,0.00015448,2.7163e+08,101.4,0,3.3474e+08,6.9057,13319,12138,1,12138,1,8.5391e-05,-2.4142e-11,0,0.00047102,-1.5458e-05,2.7212e+07,-6.8299,0,1.5848e+08,-2.8209,12137,10979,1,10979,1,-0.00082301,-2.9538e-10,0,1.5542e-05,-0.00018562,-3.3474e+08,-72.881,0,6.5229e+06,-134.18,10978,11571,1,11571,1,-0.00038563,-8.1789e-11,0,0.00023551,-0.00010367,-1.5683e+08,-23.258,0,8.2984e+07,-8.4658,11570,12705,1,12705,1,0.00055641,1.6983e-11,0,0.00070653,7.254e-05,1.5848e+08,4.6792,0,2.3067e+08,-0.90425,12704,656.67,0,656.67,0,0.00054366,8.924e-11,0,0.00027822,0.00010174,1.8251e+08,23.787,0,9.0682e+07,18.95,656.67,1
2268,3.32,12139,1,12139,1,8.5648e-05,-8.086e-10,0,0.00047614,-1.5593e-05,-26.956,-230.85,0,1.5883e+08,-10.45,12138,13320,1,13320,1,0.00099678,7.5562e-10,0,0.00099678,0.00015495,2.7245e+08,231.96,0,3.3575e+08,73.397,13319,12138,1,12138,1,8.5648e-05,-7.7852e-10,0,0.00047243,-1.5504e-05,2.7294e+07,-219.78,0,1.5895e+08,-7.3266,12137,10979,1,10979,1,-0.00082548,-2.5138e-09,0,1.5588e-05,-0.00018618,-3.3575e+08,-678.36,0,6.5421e+06,-252.34,10978,11571,1,11571,1,-0.00038679,-1.4507e-09,0,0.00023622,-0.00010398,-1.573e+08,-419.26,0,8.3233e+07,-19.839,11570,12705,1,12705,1,0.00055808,-1.1266e-10,0,0.00070865,7.2758e-05,1.5895e+08,-33.231,0,2.3136e+08,5.4751,12704,656.67,0,656.67,0,0.00054529,7.9247e-10,0,0.00027905,0.00010204,1.8306e+08,225.08,0,9.0953e+07,35.55,656.67,1
2268,3.33,12139,1,12139,1,8.5903e-05,-3.3746e-09,0,0.00047755,-1.5639e-05,-59.957,-958.45,0,1.593e+08,-46.316,12138,13320,1,13320,1,0.00099978,1.6406e-09,0,0.00099978,0.00015541,2.7326e+08,561.82,0,3.3675e+08,138.99,13319,12138,1,12138,1,8.5902e-05,-3.1385e-09,0,0.00047384,-1.555e-05,2.7375e+07,-910.06,0,1.5943e+08,-47.423,12137,10979,1,10979,1,-0.00082796,-9.6441e-09,0,1.5633e-05,-0.00018674,-3.3675e+08,-2601.4,0,6.561e+06,-344.64,10978,11571,1,11571,1,-0.00038793,-5.6297e-09,0,0.00023692,-0.00010429,-1.5777e+08,-1613.9,0,8.348e+07,-91.637,11570,12705,1,12705,1,0.00055974,-9.9696e-10,0,0.00071075,7.2973e-05,1.5943e+08,-282.61,0,2.3205e+08,11.249,12704,656.67,0,656.67,0,0.00054691,2.8689e-09,0,0.00027988,0.00010235,1.836e+08,804.14,0,9.1223e+07,76.77,656.67,1
2268,3.34,12139,1,12139,1,8.6165e-05,-2.4698e-09,0,0.00047899,-1.5687e-05,100.27,-698.53,0,1.5978e+08,-45.958,12138,13320,1,13320,1,0.0010028,1.0462e-09,0,0.0010028,0.00015588,2.7407e+08,358.27,0,3.3776e+08,276.17,13319,12138,1,12138,1,8.6164e-05,-2.5379e-09,0,0.00047526,-1.5598e-05,2.7459e+07,-735.18,0,1.5991e+08,-42.51,12137,10979,1,10979,1,-0.00083044,-5.8828e-09,0,1.5676e-05,-0.0001873,-3.3776e+08,-1598.3,0,6.5793e+06,-218.66,10978,11571,1,11571,1,-0.0003891,-3.914e-09,0,0.00023763,-0.0001046,-1.5824e+08,-1132.2,0,8.373e+07,-87.391,11570,12705,1,12705,1,0.00056142,-1.0015e-09,0,0.00071289,7.3192e-05,1.5991e+08,-286.81,0,2.3274e+08,-15.797,12704,656.67,0,656.67,0,0.00054855,1.821e-09,0,0.00028073,0.00010265,1.8415e+08,504.76,0,9.1496e+07,64.249,656.67,1
2268,3.35,12139,1,12139,1,8.6429e-05,-1.3022e-09,0,0.00048044,-1.5735e-05,38.957,-370.61,0,1.6026e+08,-5.3721,12138,13320,1,13320,1,0.0010058,3.3913e-10,0,0.0010058,0.00015634,2.7487e+08,116.14,0,3.3877e+08,53.85,13319,12138,1,12138,1,8.6429e-05,-9.7849e-10,0,0.0004767,-1.5646e-05,2.7543e+07,-278.7,0,1.6039e+08,-3.7402,12137,10979,1,10979,1,-0.00083293,-4.02e-09,0,1.572e-05,-0.00018786,-3.3877e+08,-1084.9,0,6.5978e+06,-167.32,10978,11571,1,11571,1,-0.00039027,-2.1354e-09,0,0.00023835,-0.00010492,-1.5872e+08,-624.04,0,8.3983e+07,-20.559,11570,12705,1,12705,1,0.00056313,-3.2976e-10,0,0.00071505,7.3413e-05,1.6039e+08,-90.754,0,2.3345e+08,13.493,12704,656.67,0,656.67,0,0.00055021,1.1687e-09,0,0.00028157,0.00010296,1.847e+08,327.36,0,9.177e+07,27.407,656.67,1
2268,3.36,12139,1,12139,1,8.6692e-05,-2.1908e-09,0,0.00048187,-1.5783e-05,66.068,-617.87,0,1.6074e+08,-15.056,12138,13320,1,13320,1,0.0010088,2.1616e-09,0,0.0010088,0.00015681,2.7567e+08,618.96,0,3.3979e+08,166.13,13319,12138,1,12138,1,8.6691e-05,-1.9407e-09,0,0.00047812,-1.5693e-05,2.7627e+07,-565.67,0,1.6087e+08,-18.531,12137,10979,1,10979,1,-0.00083543,-7.3403e-09,0,1.5763e-05,-0.00018843,-3.3979e+08,-1973,0,6.6159e+06,-255.42,10978,11571,1,11571,1,-0.00039143,-4.0894e-09,0,0.00023906,-0.00010523,-1.5919e+08,-1180.1,0,8.4234e+07,-53.602,11570,12705,1,12705,1,0.00056482,-9.9596e-11,0,0.00071719,7.3632e-05,1.6087e+08,-28.585,0,2.3414e+08,14.355,12704,656.67,0,656.67,0,0.00055186,2.3441e-09,0,0.00028242,0.00010327,1.8525e+08,654.62,0,9.2043e+07,60.149,656.67,1
2268,3.37,12139,1,12139,1,8.6953e-05,-2.0454e-09,0,0.0004833,-1.5831e-05,-64.022,-578.61,0,1.6121e+08,-31.174,12138,13320,1,13320,1,0.0010118,8.4026e-10,0,0.0010118,0.00015728,2.7647e+08,287.75,0,3.4079e+08,242.72,13319,12138,1,12138,1,8.6952e-05,-2.1526e-09,0,0.00047954,-1.574e-05,2.771e+07,-631.91,0,1.6135e+08,-25.172,12137,10979,1,10979,1,-0.0008379,-4.6292e-09,0,1.5805e-05,-0.00018899,-3.4079e+08,-1217.7,0,6.634e+06,-218.95,10978,11571,1,11571,1,-0.00039259,-3.1344e-09,0,0.00023977,-0.00010555,-1.5966e+08,-902.23,0,8.4484e+07,-63.232,11570,12705,1,12705,1,0.00056649,-9.3259e-10,0,0.00071931,7.3849e-05,1.6135e+08,-271.86,0,2.3484e+08,-5.8292,12704,656.67,0,656.67,0,0.00055349,1.3989e-09,0,0.00028326,0.00010358,1.858e+08,386.22,0,9.2315e+07,53.896,656.67,1
2268,3.38,12139,1,12139,1,8.7214e-05,-1.7131e-09,0,0.00048474,-1.5878e-05,-189.38,-483.09,0,1.6169e+08,-6.5694,12138,13320,1,13320,1,0.0010148,4.3795e-09,0,0.0010148,0.00015774,2.7727e+08,1201.4,0,3.4181e+08,167.42,13319,12138,1,12138,1,8.7214e-05,-1.3901e-09,0,0.00048096,-1.5788e-05,2.7793e+07,-397.75,0,1.6183e+08,-0.82745,12137,10979,1,10979,1,-0.00084038,-7.1022e-09,0,1.5849e-05,-0.00018955,-3.4181e+08,-1908.9,0,6.6523e+06,-297.33,10978,11571,1,11571,1,-0.00039375,-3.6783e-09,0,0.00024048,-0.00010586,-1.6014e+08,-1076,0,8.4734e+07,-43.893,11570,12705,1,12705,1,0.00056818,3.3202e-10,0,0.00072145,7.4067e-05,1.6183e+08,92.826,0,2.3553e+08,38.367,12704,656.67,0,656.67,0,0.00055513,2.4898e-09,0,0.00028409,0.00010388,1.8635e+08,700.28,0,9.2586e+07,61.422,656.67,1
2268,3.39,12139,1,12139,1,8.748e-05,2.8446e-10,0,0.00048619,-1.5926e-05,-107.51,78.899,0,1.6217e+08,-4.4369,12138,13320,1,13320,1,0.0010178,3.0514e-09,0,0.0010178,0.00015821,2.7807e+08,829.14,0,3.4282e+08,90.58,13319,12138,1,12138,1,8.748e-05,5.3874e-11,0,0.0004824,-1.5836e-05,2.7878e+07,15.586,0,1.6231e+08,0.25959,12137,10979,1,10979,1,-0.00084287,-5.0283e-10,0,1.5892e-05,-0.00019011,-3.4282e+08,-138.13,0,6.6706e+06,-234.03,10978,11571,1,11571,1,-0.00039492,-1.2517e-10,0,0.0002412,-0.00010618,-1.6061e+08,-36.87,0,8.4987e+07,-17.663,11570,12705,1,12705,1,0.00056988,4.7428e-10,0,0.0007236,7.4288e-05,1.6231e+08,132.5,0,2.3624e+08,15.654,12704,656.67,0,656.67,0,0.0005568,6.6262e-10,0,0.00028495,0.0001042,1.8691e+08,188.85,0,9.2862e+07,44.361,656.67,1
2268,3.4,12139,1,12139,1,8.7739e-05,-1.2556e-09,0,0.00048761,-1.5974e-05,-39.469,-353.21,0,1.6264e+08,7.6624,12138,13320,1,13320,1,0.0010208,3.5842e-09,0,0.0010208,0.00015867,2.7886e+08,998.82,0,3.4382e+08,201.24,13319,12138,1,12138,1,8.7739e-05,-1.106e-09,0,0.00048381,-1.5883e-05,2.7961e+07,-312.18,0,1.6279e+08,0.84533,12137,10979,1,10979,1,-0.00084534,-5.0435e-09,0,1.5934e-05,-0.00019067,-3.4382e+08,-1353.4,0,6.6884e+06,-174.74,10978,11571,1,11571,1,-0.00039607,-2.8204e-09,0,0.00024191,-0.00010649,-1.6108e+08,-831.13,0,8.5235e+07,-27.246,11570,12705,1,12705,1,0.00057155,2.1221e-10,0,0.00072572,7.4504e-05,1.6279e+08,61.268,0,2.3692e+08,31.126,12704,656.67,0,656.67,0,0.00055842,1.9726e-09,0,0.00028578,0.0001045,1.8745e+08,554.38,0,9.3131e+07,54.756,656.67,1
2268,3.41,12139,1,12139,1,8.8003e-05,-1.2949e-09,0,0.00048905,-1.6022e-05,20.983,-364.65,0,1.6312e+08,-5.4815,12138,13320,1,13320,1,0.0010239,2.9016e-09,0,0.0010239,0.00015914,2.7966e+08,802.69,0,3.4484e+08,114.75,13319,12138,1,12138,1,8.8003e-05,-1.056e-09,0,0.00048524,-1.5931e-05,2.8045e+07,-294.08,0,1.6327e+08,-5.0723,12137,10979,1,10979,1,-0.00084784,-5.171e-09,0,1.5977e-05,-0.00019124,-3.4484e+08,-1387.3,0,6.7066e+06,-240.82,10978,11571,1,11571,1,-0.00039724,-2.6994e-09,0,0.00024262,-0.00010681,-1.6156e+08,-788.23,0,8.5488e+07,-32.467,11570,12705,1,12705,1,0.00057325,1.5202e-10,0,0.00072787,7.4724e-05,1.6327e+08,41.325,0,2.3762e+08,20.375,12704,656.67,0,656.67,0,0.00056007,1.8118e-09,0,0.00028663,0.00010481,1.88e+08,508.35,0,9.3405e+07,43.941,656.67,1
2268,3.42,12139,1,12139,1,8.8266e-05,-2.834e-09,0,0.00049049,-1.607e-05,102.47,-801.33,0,1.636e+08,-25.89,12138,13320,1,13320,1,0.0010269,3.4434e-09,0,0.0010269,0.00015961,2.8047e+08,945.05,0,3.4586e+08,250.51,13319,12138,1,12138,1,8.8266e-05,-2.3184e-09,0,0.00048667,-1.5979e-05,2.8128e+07,-663.24,0,1.6375e+08,-38.382,12137,10979,1,10979,1,-0.00085034,-1.0867e-08,0,1.6019e-05,-0.0001918,-3.4586e+08,-2927,0,6.7244e+06,-368.12,10978,11571,1,11571,1,-0.0003984,-5.5466e-09,0,0.00024333,-0.00010712,-1.6203e+08,-1602.9,0,8.5738e+07,-86.423,11570,12705,1,12705,1,0.00057493,5.443e-11,0,0.00073,7.4942e-05,1.6375e+08,16.419,0,2.3832e+08,30.248,12704,656.67,0,656.67,0,0.00056172,3.4698e-09,0,0.00028747,0.00010512,1.8855e+08,974.47,0,9.3677e+07,98.496,656.67,1
2268,3.43,12139,1,12139,1,8.8528e-05,-3.693e-10,0,0.00049191,-1.6117e-05,332.89,-107.27,0,1.6407e+08,-24.493,12138,13320,1,13320,1,0.0010298,1.2886e-09,0,0.0010298,0.00016007,2.8125e+08,408.1,0,3.4685e+08,158.28,13319,12138,1,12138,1,8.8528e-05,-1.3843e-10,0,0.00048808,-1.6026e-05,2.8212e+07,-39.394,0,1.6423e+08,-15.239,12137,10979,1,10979,1,-0.00085277,-2.5659e-09,0,1.606e-05,-0.00019235,-3.4685e+08,-739.36,0,6.742e+06,-189.31,10978,11571,1,11571,1,-0.00039955,-7.2154e-10,0,0.00024404,-0.00010743,-1.625e+08,-214.15,0,8.5987e+07,-49.231,11570,12705,1,12705,1,0.00057661,1.2204e-10,0,0.00073212,7.5159e-05,1.6423e+08,35.91,0,2.3901e+08,11.44,12704,656.67,0,656.67,0,0.00056335,6.8136e-10,0,0.00028831,0.00010542,1.891e+08,198.04,0,9.3948e+07,56.646,656.67,1
2268,3.44,12139,1,12139,1,8.8791e-05,-2.061e-09,0,0.00049336,-1.6165e-05,4.011,-583.24,0,1.6455e+08,-10.896,12138,13320,1,13320,1,0.0010329,2.4478e-09,0,0.0010329,0.00016054,2.8206e+08,690.62,0,3.4787e+08,145.48,13319,12138,1,12138,1,8.8791e-05,-1.8761e-09,0,0.00048952,-1.6074e-05,2.8296e+07,-535.26,0,1.6471e+08,-13.114,12137,10979,1,10979,1,-0.0008553,-6.8415e-09,0,1.6104e-05,-0.00019292,-3.4787e+08,-1842.7,0,6.7608e+06,-270.13,10978,11571,1,11571,1,-0.00040072,-3.8522e-09,0,0.00024476,-0.00010775,-1.6297e+08,-1115.5,0,8.6239e+07,-45.579,11570,12705,1,12705,1,0.00057831,-1.1632e-10,0,0.00073427,7.538e-05,1.6471e+08,-34.12,0,2.3971e+08,19.594,12704,656.67,0,656.67,0,0.000565,2.2092e-09,0,0.00028915,0.00010573,1.8965e+08,620.01,0,9.4222e+07,57.434,656.67,1
2268,3.45,12139,1,12139,1,8.9052e-05,-1.9763e-09,0,0.00049478,-1.6213e-05,30.749,-561.42,0,1.6503e+08,-22.988,12138,13320,1,13320,1,0.0010359,6.5651e-10,0,0.0010359,0.000161,2.8285e+08,224.55,0,3.4887e+08,103.29,13319,12138,1,12138,1,8.9051e-05,-1.8746e-09,0,0.00049093,-1.6121e-05,2.8379e+07,-542.72,0,1.6519e+08,-21.71,12137,10979,1,10979,1,-0.00085776,-5.276e-09,0,1.6147e-05,-0.00019348,-3.4887e+08,-1427.5,0,6.7786e+06,-213.46,10978,11571,1,11571,1,-0.00040188,-3.2425e-09,0,0.00024546,-0.00010806,-1.6344e+08,-931.14,0,8.6488e+07,-43.868,11570,12705,1,12705,1,0.00057998,-6.1058e-10,0,0.00073639,7.5596e-05,1.6519e+08,-169.26,0,2.404e+08,2.1908,12704,656.67,0,656.67,0,0.00056664,1.5601e-09,0,0.00028999,0.00010604,1.902e+08,437.8,0,9.4492e+07,39.279,656.67,1
2268,3.46,12139,1,12139,1,8.9316e-05,-2.0586e-09,0,0.00049623,-1.6261e-05,10.74,-584,0,1.6551e+08,-1.3119,12138,13320,1,13320,1,0.0010389,1.009e-09,0,0.0010389,0.00016147,2.8365e+08,307.83,0,3.4989e+08,95.806,13319,12138,1,12138,1,8.9316e-05,-1.8064e-09,0,0.00049236,-1.6169e-05,2.8463e+07,-529.95,0,1.6567e+08,1.3332,12137,10979,1,10979,1,-0.00086026,-5.9332e-09,0,1.6189e-05,-0.00019404,-3.4989e+08,-1599.1,0,6.7968e+06,-188.63,10978,11571,1,11571,1,-0.00040305,-3.4426e-09,0,0.00024618,-0.00010838,-1.6392e+08,-1007.4,0,8.674e+07,-24.665,11570,12705,1,12705,1,0.00058168,-4.5494e-10,0,0.00073854,7.5816e-05,1.6567e+08,-126.86,0,2.411e+08,23.026,12704,656.67,0,656.67,0,0.00056829,1.8143e-09,0,0.00029083,0.00010635,1.9075e+08,506.51,0,9.4766e+07,38.178,656.67,1
2268,3.47,12139,1,12139,1,8.958e-05,-2.2681e-09,0,0.00049767,-1.6309e-05,173.76,-640.34,0,1.6598e+08,-40.706,12138,13320,1,13320,1,0.0010419,2.0333e-09,0,0.0010419,0.00016194,2.8446e+08,613.8,0,3.5091e+08,163.45,13319,12138,1,12138,1,8.9579e-05,-2.1301e-09,0,0.00049379,-1.6217e-05,2.8547e+07,-609.21,0,1.6615e+08,-46.549,12137,10979,1,10979,1,-0.00086276,-7.1796e-09,0,1.6231e-05,-0.00019461,-3.5091e+08,-1934.2,0,6.8146e+06,-293.36,10978,11571,1,11571,1,-0.00040421,-4.0925e-09,0,0.00024689,-0.00010869,-1.6439e+08,-1164.3,0,8.6992e+07,-86.828,11570,12705,1,12705,1,0.00058337,-1.7206e-10,0,0.00074069,7.6035e-05,1.6615e+08,-44.635,0,2.418e+08,2.6863,12704,656.67,0,656.67,0,0.00056994,2.3045e-09,0,0.00029168,0.00010666,1.913e+08,645.6,0,9.5039e+07,69.875,656.67,1
2268,3.48,12139,1,12139,1,8.9842e-05,-2.0985e-09,0,0.0004991,-1.6357e-05,-36.131,-592.81,0,1.6646e+08,-22.697,12138,13320,1,13320,1,0.0010449,2.1847e-09,0,0.0010449,0.00016241,2.8525e+08,631.55,0,3.5191e+08,127.02,13319,12138,1,12138,1,8.9841e-05,-1.8803e-09,0,0.00049521,-1.6264e-05,2.8631e+07,-540.8,0,1.6663e+08,-22.748,12137,10979,1,10979,1,-0.00086524,-7.149e-09,0,1.6274e-05,-0.00019517,-3.5191e+08,-1922.3,0,6.8328e+06,-288.34,10978,11571,1,11571,1,-0.00040537,-3.8116e-09,0,0.00024761,-0.000109,-1.6486e+08,-1097.9,0,8.7242e+07,-58.605,11570,12705,1,12705,1,0.00058505,-9.5283e-11,0,0.00074282,7.6253e-05,1.6663e+08,-27.514,0,2.425e+08,18.27,12704,656.67,0,656.67,0,0.00057158,2.2342e-09,0,0.00029252,0.00010696,1.9185e+08,626.2,0,9.5311e+07,61.707,656.67,1
2268,3.49,12139,1,12139,1,9.0104e-05,-3.5039e-09,0,0.00050053,-1.6404e-05,42.109,-992.14,0,1.6694e+08,-31.247,12138,13320,1,13320,1,0.0010479,1.1319e-09,0,0.0010479,0.00016287,2.8605e+08,387.62,0,3.5293e+08,245.69,13319,12138,1,12138,1,9.0103e-05,-3.4208e-09,0,0.00049663,-1.6311e-05,2.8714e+07,-985.16,0,1.6711e+08,-31.341,12137,10979,1,10979,1,-0.00086772,-9.1503e-09,0,1.6316e-05,-0.00019573,-3.5293e+08,-2469,0,6.8505e+06,-259.01,10978,11571,1,11571,1,-0.00040653,-5.8348e-09,0,0.00024831,-0.00010932,-1.6533e+08,-1655.2,0,8.7492e+07,-74.752,11570,12705,1,12705,1,0.00058673,-1.0822e-09,0,0.00074495,7.6471e-05,1.6711e+08,-315.09,0,2.4319e+08,7.0934,12704,656.67,0,656.67,0,0.00057322,2.7866e-09,0,0.00029336,0.00010727,1.924e+08,776.31,0,9.5583e+07,71.104,656.67,1
2268,3.5,12139,1,12139,1,9.0366e-05,-1.4678e-09,0,0.00050197,-1.6452e-05,-0.5816,-417.77,0,1.6741e+08,-3.9494,12138,13320,1,13320,1,0.0010509,5.2683e-10,0,0.0010509,0.00016333,2.8684e+08,180.28,0,3.5392e+08,249.44,13319,12138,1,12138,1,9.0366e-05,-1.4153e-09,0,0.00049805,-1.6359e-05,2.8798e+07,-404.37,0,1.6759e+08,-1.2819,12137,10979,1,10979,1,-0.00087018,-3.7311e-09,0,1.6359e-05,-0.00019629,-3.5392e+08,-1023,0,6.8686e+06,-171.86,10978,11571,1,11571,1,-0.00040769,-2.2255e-09,0,0.00024903,-0.00010963,-1.658e+08,-640,0,8.7742e+07,-19.952,11570,12705,1,12705,1,0.00058842,-6.6579e-10,0,0.00074708,7.6689e-05,1.6759e+08,-188.55,0,2.4388e+08,17.361,12704,656.67,0,656.67,0,0.00057486,1.046e-09,0,0.0002942,0.00010758,1.9294e+08,294.18,0,9.5855e+07,45.642,656.67,1
2268,3.51,12139,1,12139,1,9.0632e-05,-1.7842e-09,0,0.00050342,-1.65e-05,20.021,-507.32,0,1.6789e+08,-16.834,12138,13320,1,13320,1,0.001054,3.8607e-10,0,0.001054,0.00016381,2.8764e+08,132.22,0,3.5495e+08,55.766,13319,12138,1,12138,1,9.0632e-05,-1.6965e-09,0,0.00049949,-1.6407e-05,2.8882e+07,-482.76,0,1.6808e+08,-11.46,12137,10979,1,10979,1,-0.00087269,-4.6413e-09,0,1.6402e-05,-0.00019686,-3.5495e+08,-1250.7,0,6.8867e+06,-224.17,10978,11571,1,11571,1,-0.00040886,-2.8191e-09,0,0.00024975,-0.00010995,-1.6628e+08,-821.93,0,8.7995e+07,-30.542,11570,12705,1,12705,1,0.00059012,-6.4398e-10,0,0.00074924,7.691e-05,1.6808e+08,-190.52,0,2.4459e+08,4.1858,12704,656.67,0,656.67,0,0.00057652,1.3305e-09,0,0.00029505,0.00010789,1.935e+08,372.18,0,9.613e+07,31.829,656.67,1
2268,3.52,12139,1,12139,1,9.0894e-05,-1.5915e-09,0,0.00050485,-1.6548e-05,-26.539,-451.1,0,1.6837e+08,-12.54,12138,13320,1,13320,1,0.001057,1.2399e-09,0,0.001057,0.00016427,2.8844e+08,371.97,0,3.5596e+08,117.26,13319,12138,1,12138,1,9.0894e-05,-1.4482e-09,0,0.00050091,-1.6455e-05,2.8966e+07,-414.8,0,1.6856e+08,-16.9,12137,10979,1,10979,1,-0.00087517,-4.9669e-09,0,1.6444e-05,-0.00019742,-3.5596e+08,-1337.1,0,6.9047e+06,-200.05,10978,11571,1,11571,1,-0.00041002,-2.9014e-09,0,0.00025046,-0.00011026,-1.6675e+08,-844.47,0,8.8246e+07,-38.555,11570,12705,1,12705,1,0.00059181,-1.5711e-10,0,0.00075137,7.7128e-05,1.6856e+08,-45.512,0,2.4528e+08,9.2523,12704,656.67,0,656.67,0,0.00057816,1.5844e-09,0,0.00029589,0.00010819,1.9405e+08,444.39,0,9.6402e+07,42.147,656.67,1
2268,3.53,12139,1,12139,1,9.1159e-05,-2.6712e-09,0,0.00050629,-1.6597e-05,47.997,-757.93,0,1.6885e+08,-21.892,12138,13320,1,13320,1,0.00106,6.9638e-10,0,0.00106,0.00016474,2.8924e+08,238.48,0,3.5698e+08,97.993,13319,12138,1,12138,1,9.1158e-05,-2.657e-09,0,0.00050235,-1.6503e-05,2.905e+07,-768.76,0,1.6904e+08,-19.235,12137,10979,1,10979,1,-0.00087768,-6.4275e-09,0,1.6486e-05,-0.00019799,-3.5698e+08,-1731.3,0,6.9226e+06,-268.87,10978,11571,1,11571,1,-0.00041119,-4.1271e-09,0,0.00025117,-0.00011058,-1.6723e+08,-1179.6,0,8.8498e+07,-43.28,11570,12705,1,12705,1,0.00059351,-1.2494e-09,0,0.00075352,7.7348e-05,1.6904e+08,-348.92,0,2.4598e+08,2.7162,12704,656.67,0,656.67,0,0.00057982,1.8297e-09,0,0.00029674,0.0001085,1.946e+08,508.1,0,9.6675e+07,43.855,656.67,1
2268,3.54,12139,1,12139,1,9.142e-05,-1.3461e-09,0,0.00050772,-1.6644e-05,8.2053,-382.82,0,1.6932e+08,-11.085,12138,13320,1,13320,1,0.001063,1.8366e-09,0,0.001063,0.0001652,2.9003e+08,517.3,0,3.5797e+08,188.88,13319,12138,1,12138,1,9.142e-05,-1.4185e-09,0,0.00050376,-1.655e-05,2.9134e+07,-408.6,0,1.6952e+08,-10.694,12137,10979,1,10979,1,-0.00088013,-3.3206e-09,0,1.6528e-05,-0.00019854,-3.5797e+08,-894.17,0,6.9404e+06,-201.73,10978,11571,1,11571,1,-0.00041234,-2.3069e-09,0,0.00025188,-0.00011089,-1.677e+08,-673.62,0,8.8747e+07,-32.382,11570,12705,1,12705,1,0.00059518,-3.48e-10,0,0.00075564,7.7565e-05,1.6952e+08,-95.677,0,2.4667e+08,5.1354,12704,656.67,0,656.67,0,0.00058145,1.1542e-09,0,0.00029758,0.00010881,1.9515e+08,325.41,0,9.6946e+07,43.868,656.67,1
2268,3.55,12139,1,12139,1,9.1684e-05,-8.683e-10,0,0.00050916,-1.6692e-05,22.889,-246.1,0,1.698e+08,-15.563,12138,13320,1,13320,1,0.001066,6.6152e-10,0,0.001066,0.00016567,2.9083e+08,226.27,0,3.5899e+08,143.83,13319,12138,1,12138,1,9.1684e-05,-9.0009e-10,0,0.00050519,-1.6598e-05,2.9218e+07,-261.82,0,1.7e+08,-11.964,12137,10979,1,10979,1,-0.00088262,-2.1728e-09,0,1.657e-05,-0.0001991,-3.5899e+08,-586.84,0,6.9583e+06,-219.83,10978,11571,1,11571,1,-0.00041351,-1.4193e-09,0,0.00025259,-0.00011121,-1.6817e+08,-409.34,0,8.8998e+07,-38.316,11570,12705,1,12705,1,0.00059687,-3.2007e-10,0,0.00075779,7.7784e-05,1.7e+08,-95.222,0,2.4737e+08,4.8972,12704,656.67,0,656.67,0,0.0005831,6.7596e-10,0,0.00029842,0.00010912,1.957e+08,189.24,0,9.7219e+07,38.15,656.67,1
2268,3.56,12139,1,12139,1,9.1944e-05,-3.1341e-09,0,0.00051058,-1.6739e-05,-8.4194,-887.48,0,1.7028e+08,-10.367,12138,13320,1,13320,1,0.001069,2.2795e-09,0,0.001069,0.00016614,2.9162e+08,654.45,0,3.6e+08,213.14,13319,12138,1,12138,1,9.1944e-05,-2.6304e-09,0,0.0005066,-1.6645e-05,2.9301e+07,-775.18,0,1.7047e+08,-3.7927,12137,10979,1,10979,1,-0.00088511,-1.0069e-08,0,1.6612e-05,-0.00019967,-3.6e+08,-2710.8,0,6.976e+06,-338.91,10978,11571,1,11571,1,-0.00041466,-5.4597e-09,0,0.0002533,-0.00011152,-1.6864e+08,-1591.5,0,8.9246e+07,-53.803,11570,12705,1,12705,1,0.00059855,-4.6283e-10,0,0.0007599,7.8e-05,1.7047e+08,-128.52,0,2.4806e+08,40.387,12704,656.67,0,656.67,0,0.00058472,3.0315e-09,0,0.00029925,0.00010942,1.9624e+08,847.63,0,9.7488e+07,70.921,656.67,1
2268,3.57,12139,1,12139,1,9.2209e-05,-1.1527e-09,0,0.00051203,-1.6788e-05,-15.382,-326.84,0,1.7076e+08,-2.7356,12138,13320,1,13320,1,0.001072,2.1038e-09,0,0.001072,0.0001666,2.9242e+08,585.66,0,3.6101e+08,65.817,13319,12138,1,12138,1,9.221e-05,-8.3429e-10,0,0.00050804,-1.6693e-05,2.9385e+07,-234.51,0,1.7096e+08,1.1947,12137,10979,1,10979,1,-0.00088759,-4.6478e-09,0,1.6655e-05,-0.00020023,-3.6101e+08,-1249.9,0,6.9941e+06,-231.37,10978,11571,1,11571,1,-0.00041583,-2.4159e-09,0,0.00025402,-0.00011184,-1.6911e+08,-705.72,0,8.9499e+07,-26.218,11570,12705,1,12705,1,0.00060025,8.9716e-11,0,0.00076206,7.822e-05,1.7096e+08,25.572,0,2.4876e+08,25.809,12704,656.67,0,656.67,0,0.00058638,1.6024e-09,0,0.0003001,0.00010973,1.9679e+08,451.21,0,9.7763e+07,39.915,656.67,1
2268,3.58,12139,1,12139,1,9.2471e-05,-2.1472e-09,0,0.00051345,-1.6835e-05,79.889,-608.71,0,1.7123e+08,-17.688,12138,13320,1,13320,1,0.001075,5.5547e-10,0,0.001075,0.00016707,2.9321e+08,190.22,0,3.6201e+08,213.83,13319,12138,1,12138,1,9.2471e-05,-2.0637e-09,0,0.00050945,-1.674e-05,2.9469e+07,-591.62,0,1.7143e+08,-18.832,12137,10979,1,10979,1,-0.00089006,-5.5535e-09,0,1.6696e-05,-0.00020079,-3.6201e+08,-1493.1,0,7.0117e+06,-228.36,10978,11571,1,11571,1,-0.00041698,-3.3434e-09,0,0.00025472,-0.00011215,-1.6958e+08,-971.38,0,8.9748e+07,-41.951,11570,12705,1,12705,1,0.00060192,-8.1938e-10,0,0.00076417,7.8437e-05,1.7143e+08,-248.1,0,2.4945e+08,5.2647,12704,656.67,0,656.67,0,0.00058801,1.6087e-09,0,0.00030094,0.00011004,1.9734e+08,448.07,0,9.8033e+07,46.421,656.67,1
2268,3.59,12139,1,12139,1,9.2734e-05,-3.5425e-09,0,0.00051489,-1.6883e-05,50.437,-1001.4,0,1.7171e+08,-26.643,12138,13320,1,13320,1,0.001078,4.1391e-09,0,0.001078,0.00016754,2.9401e+08,1137.1,0,3.6303e+08,247,13319,12138,1,12138,1,9.2733e-05,-3.1665e-09,0,0.00051087,-1.6788e-05,2.9552e+07,-903.41,0,1.7192e+08,-30.502,12137,10979,1,10979,1,-0.00089257,-1.2212e-08,0,1.6738e-05,-0.00020135,-3.6303e+08,-3287.5,0,7.0295e+06,-368.86,10978,11571,1,11571,1,-0.00041814,-6.6979e-09,0,0.00025544,-0.00011246,-1.7005e+08,-1928.2,0,8.9998e+07,-90.142,11570,12705,1,12705,1,0.00060361,-1.001e-10,0,0.00076631,7.8656e-05,1.7192e+08,-31.31,0,2.5015e+08,28.275,12704,656.67,0,656.67,0,0.00058966,3.9095e-09,0,0.00030178,0.00011034,1.9789e+08,1095.4,0,9.8304e+07,95.966,656.67,1
2268,3.6,12139,1,12139,1,9.2998e-05,-2.2659e-09,0,0.00051633,-1.6931e-05,-46.025,-642.55,0,1.7219e+08,-15.981,12138,13320,1,13320,1,0.001081,1.5855e-09,0,0.001081,0.000168,2.948e+08,477.58,0,3.6404e+08,111.38,13319,12138,1,12138,1,9.2997e-05,-2.1529e-09,0,0.0005123,-1.6836e-05,2.9636e+07,-627.87,0,1.724e+08,-13.075,12137,10979,1,10979,1,-0.00089504,-6.4384e-09,0,1.6781e-05,-0.00020191,-3.6404e+08,-1734.6,0,7.0476e+06,-218.77,10978,11571,1,11571,1,-0.0004193,-3.9411e-09,0,0.00025615,-0.00011278,-1.7053e+08,-1143.8,0,9.025e+07,-44.505,11570,12705,1,12705,1,0.0006053,-3.8069e-10,0,0.00076845,7.8875e-05,1.724e+08,-105.81,0,2.5085e+08,13.908,12704,656.67,0,656.67,0,0.00059131,2.0345e-09,0,0.00030263,0.00011065,1.9844e+08,569.77,0,9.8578e+07,48.217,656.67,1
2268,3.61,12139,1,12139,1,9.3264e-05,-1.2357e-09,0,0.00051778,-1.698e-05,22.956,-350.91,0,1.7267e+08,-15.44,12138,13320,1,13320,1,0.0010841,4.2654e-10,0,0.0010841,0.00016847,2.956e+08,145.91,0,3.6505e+08,35.958,13319,12138,1,12138,1,9.3264e-05,-1.1377e-09,0,0.00051374,-1.6884e-05,2.9721e+07,-327.02,0,1.7288e+08,-11.108,12137,10979,1,10979,1,-0.00089753,-3.4247e-09,0,1.6823e-05,-0.00020248,-3.6505e+08,-923,0,7.0655e+06,-212.99,10978,11571,1,11571,1,-0.00042047,-2.0607e-09,0,0.00025687,-0.00011309,-1.71e+08,-601.39,0,9.0502e+07,-26.207,11570,12705,1,12705,1,0.000607,-3.2314e-10,0,0.00077061,7.9095e-05,1.7288e+08,-86.864,0,2.5155e+08,1.5931,12704,656.67,0,656.67,0,0.00059297,1.0233e-09,0,0.00030348,0.00011096,1.9899e+08,286.71,0,9.8852e+07,27.036,656.67,1
2268,3.62,12139,1,12139,1,9.3526e-05,1.5172e-10,0,0.0005192,-1.7027e-05,279.87,42.634,0,1.7314e+08,15.816,12138,13320,1,13320,1,0.0010871,9.1078e-09,0,0.0010871,0.00016893,2.9639e+08,2469.9,0,3.6605e+08,312.15,13319,12138,1,12138,1,9.3526e-05,-1.919e-10,0,0.00051515,-1.6932e-05,2.9805e+07,-56.989,0,1.7336e+08,3.8018,12137,10979,1,10979,1,-0.0009,-5.4725e-09,0,1.6863e-05,-0.00020304,-3.6605e+08,-1471.8,0,7.0824e+06,-386.48,10978,11571,1,11571,1,-0.00042163,-2.3604e-09,0,0.00025758,-0.00011341,-1.7147e+08,-682.19,0,9.0752e+07,-49.674,11570,12705,1,12705,1,0.00060868,2.1102e-09,0,0.00077273,7.9312e-05,1.7336e+08,594.9,0,2.5224e+08,80.582,12704,656.67,0,656.67,0,0.0005946,3.3114e-09,0,0.00030431,0.00011127,1.9954e+08,936.84,0,9.9122e+07,114.87,656.67,1
2268,3.63,12139,1,12139,1,9.3791e-05,-1.5696e-09,0,0.00052065,-1.7076e-05,24.699,-442.69,0,1.7362e+08,-33.711,12138,13320,1,13320,1,0.0010901,6.8458e-10,0,0.0010901,0.0001694,2.9719e+08,234.44,0,3.6707e+08,74.434,13319,12138,1,12138,1,9.3791e-05,-1.5142e-09,0,0.00051659,-1.698e-05,2.9889e+07,-432.06,0,1.7384e+08,-30.575,12137,10979,1,10979,1,-0.00090251,-4.2572e-09,0,1.6907e-05,-0.0002036,-3.6707e+08,-1145.1,0,7.101e+06,-257.31,10978,11571,1,11571,1,-0.0004228,-2.5743e-09,0,0.00025829,-0.00011372,-1.7195e+08,-728.97,0,9.1004e+07,-55.124,11570,12705,1,12705,1,0.00061038,-5.8523e-10,0,0.00077489,7.9532e-05,1.7384e+08,-167.47,0,2.5294e+08,-5.8538,12704,656.67,0,656.67,0,0.00059626,1.2494e-09,0,0.00030516,0.00011158,2.0009e+08,346.74,0,9.9397e+07,39.842,656.67,1
2268,3.64,12139,1,12139,1,9.4064e-05,-4.6256e-10,0,0.0005221,-1.7126e-05,-61.989,-134.62,0,1.741e+08,-4.7236,12138,13320,1,13320,1,0.0010931,8.5292e-10,0,0.0010931,0.00016987,2.9796e+08,242.1,0,3.6808e+08,62.953,13319,12138,1,12138,1,9.4064e-05,-2.4446e-10,0,0.00051802,-1.7029e-05,2.9977e+07,-71.637,0,1.7433e+08,-0.552,12137,10979,1,10979,1,-0.00090498,-2.1459e-09,0,1.694e-05,-0.00020417,-3.6808e+08,-586.19,0,7.1155e+06,-213.04,10978,11571,1,11571,1,-0.00042396,-1.0308e-09,0,0.00025901,-0.00011404,-1.7242e+08,-296.76,0,9.1256e+07,-14.125,11570,12705,1,12705,1,0.00061209,8.9178e-11,0,0.00077703,7.975e-05,1.7433e+08,25.185,0,2.5363e+08,13.434,12704,656.67,0,656.67,0,0.00059791,7.3518e-10,0,0.00030601,0.00011189,2.0064e+08,212.48,0,9.9667e+07,32.205,656.67,1
2268,3.65,12139,1,12139,1,9.435e-05,-1.7629e-09,0,0.00052353,-1.7178e-05,37.784,-502.35,0,1.7457e+08,-11.101,12138,13320,1,13320,1,0.0010962,2.6839e-09,0,0.0010962,0.00017033,2.9869e+08,732.92,0,3.6909e+08,190.76,13319,12138,1,12138,1,9.435e-05,-1.4331e-09,0,0.00051945,-1.7081e-05,3.0067e+07,-408.35,0,1.7482e+08,-14.291,12137,10979,1,10979,1,-0.00090746,-6.7614e-09,0,1.696e-05,-0.00020474,-3.6909e+08,-1832.1,0,7.1249e+06,-271.82,10978,11571,1,11571,1,-0.0004251,-3.5052e-09,0,0.00025972,-0.00011436,-1.7288e+08,-1032.5,0,9.1505e+07,-52.783,11570,12705,1,12705,1,0.0006138,-7.6706e-11,0,0.00077917,7.9964e-05,1.7482e+08,-22.497,0,2.543e+08,23.58,12704,656.67,0,656.67,0,0.00059955,2.2081e-09,0,0.00030686,0.0001122,2.0118e+08,625.64,0,9.993e+07,68.234,656.67,1
2268,3.66,12139,1,12139,1,9.4636e-05,-2.2629e-09,0,0.00052498,-1.723e-05,93.587,-645.49,0,1.7504e+08,-22.603,12138,13320,1,13320,1,0.0010992,3.4367e-09,0,0.0010992,0.0001708,2.9942e+08,936.3,0,3.701e+08,263.15,13319,12138,1,12138,1,9.4636e-05,-2.0998e-09,0,0.00052088,-1.7133e-05,3.0159e+07,-591.2,0,1.753e+08,-32.375,12137,10979,1,10979,1,-0.00090994,-8.0596e-09,0,1.698e-05,-0.00020531,-3.701e+08,-2187,0,7.1344e+06,-263.11,10978,11571,1,11571,1,-0.00042624,-4.4165e-09,0,0.00026044,-0.00011468,-1.7335e+08,-1293.7,0,9.1756e+07,-77.171,11570,12705,1,12705,1,0.00061552,-9.3074e-11,0,0.00078132,8.018e-05,1.753e+08,-24.876,0,2.5497e+08,17.099,12704,656.67,0,656.67,0,0.0006012,2.6955e-09,0,0.00030771,0.00011251,2.0172e+08,764.61,0,1.0019e+08,87.229,656.67,1
2268,3.67,12139,1,12139,1,9.4924e-05,-6.0659e-10,0,0.00052643,-1.7283e-05,-7.5337,-175.66,0,1.7551e+08,-9.5973,12138,13320,1,13320,1,0.0011023,1.2807e-09,0,0.0011023,0.00017126,3.0015e+08,363.55,0,3.711e+08,58.034,13319,12138,1,12138,1,9.4925e-05,-4.4052e-10,0,0.00052232,-1.7185e-05,3.0251e+07,-130.11,0,1.758e+08,-8.3063,12137,10979,1,10979,1,-0.00091241,-2.5094e-09,0,1.7e-05,-0.00020587,-3.711e+08,-683.79,0,7.1441e+06,-175.32,10978,11571,1,11571,1,-0.00042739,-1.3434e-09,0,0.00026116,-0.000115,-1.7382e+08,-393.49,0,9.2008e+07,-24.557,11570,12705,1,12705,1,0.00061724,4.7209e-11,0,0.00078348,8.0396e-05,1.758e+08,11.849,0,2.5565e+08,7.3934,12704,656.67,0,656.67,0,0.00060287,8.9777e-10,0,0.00030856,0.00011282,2.0226e+08,259.19,0,1.0046e+08,27.634,656.67,1
2268,3.68,12139,1,12139,1,9.5216e-05,-2.7605e-09,0,0.0005279,-1.7336e-05,-40.938,-783.63,0,1.7599e+08,-47.192,12138,13320,1,13320,1,0.0011054,1.1129e-09,0,0.0011054,0.00017174,3.0089e+08,381.11,0,3.7213e+08,155.16,13319,12138,1,12138,1,9.5215e-05,-2.9223e-09,0,0.00052377,-1.7238e-05,3.0343e+07,-858.95,0,1.7629e+08,-37.981,12137,10979,1,10979,1,-0.00091495,-6.1936e-09,0,1.702e-05,-0.00020646,-3.7213e+08,-1645.3,0,7.1536e+06,-350.17,10978,11571,1,11571,1,-0.00042855,-4.3734e-09,0,0.00026188,-0.00011533,-1.7429e+08,-1293.3,0,9.2263e+07,-84.214,11570,12705,1,12705,1,0.00061899,-1.0708e-09,0,0.00078566,8.0615e-05,1.7629e+08,-301.49,0,2.5633e+08,3.4925,12704,656.67,0,656.67,0,0.00060455,2.0137e-09,0,0.00030943,0.00011313,2.0281e+08,557.62,0,1.0073e+08,77.308,656.67,1
2268,3.69,12139,1,12139,1,9.5499e-05,-1.8766e-09,0,0.00052932,-1.7387e-05,12.179,-536.79,0,1.7645e+08,-8.8398,12138,13320,1,13320,1,0.0011084,2.5163e-09,0,0.0011084,0.00017219,3.016e+08,685.36,0,3.7312e+08,165.36,13319,12138,1,12138,1,9.5499e-05,-1.5069e-09,0,0.00052518,-1.729e-05,3.0434e+07,-434.9,0,1.7677e+08,-10.652,12137,10979,1,10979,1,-0.00091737,-7.1166e-09,0,1.7039e-05,-0.00020701,-3.7312e+08,-1930.4,0,7.1625e+06,-238.34,10978,11571,1,11571,1,-0.00042968,-3.7797e-09,0,0.00026259,-0.00011564,-1.7475e+08,-1114.5,0,9.2509e+07,-47.271,11570,12705,1,12705,1,0.00062068,1.9232e-11,0,0.00078777,8.0826e-05,1.7677e+08,5.558,0,2.5699e+08,25.655,12704,656.67,0,656.67,0,0.00060617,2.3379e-09,0,0.00031026,0.00011343,2.0334e+08,662.99,0,1.0099e+08,60.503,656.67,1
2268,3.7,12139,1,12139,1,9.5786e-05,9.6514e-10,0,0.00053076,-1.744e-05,-12.188,268.05,0,1.7692e+08,14.337,12138,13320,1,13320,1,0.0011114,4.1952e-09,0,0.0011114,0.00017266,3.0233e+08,1136.5,0,3.7412e+08,158.63,13319,12138,1,12138,1,9.5786e-05,8.4673e-10,0,0.00052661,-1.7342e-05,3.0525e+07,245.93,0,1.7726e+08,19.409,12137,10979,1,10979,1,-0.00091984,-1.5124e-09,0,1.7058e-05,-0.00020758,-3.7412e+08,-492.06,0,7.1719e+06,-213.1,10978,11571,1,11571,1,-0.00043082,-1.1086e-10,0,0.00026331,-0.00011596,-1.7521e+08,-28.755,0,9.276e+07,-16.285,11570,12705,1,12705,1,0.0006224,1.8754e-09,0,0.00078992,8.1042e-05,1.7726e+08,531.95,0,2.5767e+08,51.097,12704,656.67,0,656.67,0,0.00060782,1.2415e-09,0,0.00031111,0.00011374,2.0388e+08,349.31,0,1.0125e+08,57.949,656.67,1
2268,3.71,12139,1,12139,1,9.6077e-05,-1.7229e-09,0,0.00053222,-1.7493e-05,73.802,-489.49,0,1.774e+08,-18.194,12138,13320,1,13320,1,0.0011145,3.8743e-10,0,0.0011145,0.00017312,3.0306e+08,132.68,0,3.7514e+08,224.4,13319,12138,1,12138,1,9.6077e-05,-1.7631e-09,0,0.00052806,-1.7395e-05,3.0618e+07,-504.3,0,1.7776e+08,-15.801,12137,10979,1,10979,1,-0.00092233,-3.7295e-09,0,1.7077e-05,-0.00020816,-3.7514e+08,-1009.2,0,7.181e+06,-213.65,10978,11571,1,11571,1,-0.00043198,-2.5002e-09,0,0.00026403,-0.00011629,-1.7568e+08,-729.5,0,9.3013e+07,-41.765,11570,12705,1,12705,1,0.00062413,-9.5656e-10,0,0.00079209,8.1259e-05,1.7776e+08,-256.19,0,2.5835e+08,3.7903,12704,656.67,0,656.67,0,0.00060949,1.0616e-09,0,0.00031197,0.00011406,2.0443e+08,294.69,0,1.0152e+08,41.377,656.67,1
2268,3.72,12139,1,12139,1,9.6369e-05,-7.6539e-10,0,0.00053369,-1.7546e-05,-13,-218.53,0,1.7788e+08,-30.476,12138,13320,1,13320,1,0.0011176,1.7201e-09,0,0.0011176,0.00017359,3.038e+08,442.03,0,3.7615e+08,82.726,13319,12138,1,12138,1,9.6369e-05,-2.1848e-10,0,0.00052951,-1.7448e-05,3.0711e+07,-62.396,0,1.7825e+08,-26.137,12137,10979,1,10979,1,-0.00092483,-5.1878e-09,0,1.7097e-05,-0.00020873,-3.7615e+08,-1389.8,0,7.1904e+06,-230.36,10978,11571,1,11571,1,-0.00043314,-1.5431e-09,0,0.00026475,-0.00011661,-1.7616e+08,-437.49,0,9.3268e+07,-57.783,11570,12705,1,12705,1,0.00062588,1.7925e-10,0,0.00079426,8.1477e-05,1.7825e+08,51.054,0,2.5903e+08,-4.3658,12704,656.67,0,656.67,0,0.00061117,1.3944e-09,0,0.00031284,0.00011437,2.0498e+08,393.12,0,1.0179e+08,41.868,656.67,1
2268,3.73,12139,1,12139,1,9.6655e-05,-1.1028e-09,0,0.00053512,-1.7598e-05,-8.8137,-316.37,0,1.7834e+08,-3.5874,12138,13320,1,13320,1,0.0011206,2.4379e-10,0,0.0011206,0.00017405,3.0451e+08,83.49,0,3.7715e+08,75.283,13319,12138,1,12138,1,9.6654e-05,-1.1134e-09,0,0.00053092,-1.75e-05,3.0802e+07,-326.95,0,1.7874e+08,-0.58333,12137,10979,1,10979,1,-0.00092728,-2.625e-09,0,1.7115e-05,-0.00020929,-3.7715e+08,-716.3,0,7.1991e+06,-146.74,10978,11571,1,11571,1,-0.00043427,-1.4963e-09,0,0.00026546,-0.00011693,-1.7661e+08,-438.36,0,9.3516e+07,-16.59,11570,12705,1,12705,1,0.00062758,-6.4449e-10,0,0.00079639,8.169e-05,1.7874e+08,-182.17,0,2.5969e+08,9.0719,12704,656.67,0,656.67,0,0.0006128,6.3608e-10,0,0.00031368,0.00011468,2.0551e+08,180.82,0,1.0205e+08,24.288,656.67,1
2268,3.74,12139,1,12139,1,9.6944e-05,-3.2535e-09,0,0.00053657,-1.7651e-05,-17.351,-925.48,0,1.7881e+08,-40.435,12138,13320,1,13320,1,0.0011237,1.0178e-09,0,0.0011237,0.00017452,3.0525e+08,348.56,0,3.7817e+08,467.39,13319,12138,1,12138,1,9.6943e-05,-3.3879e-09,0,0.00053236,-1.7552e-05,3.0894e+07,-1000.1,0,1.7923e+08,-41.931,12137,10979,1,10979,1,-0.00092979,-7.6863e-09,0,1.7133e-05,-0.00020987,-3.7817e+08,-2149.7,0,7.208e+06,-304.35,10978,11571,1,11571,1,-0.00043542,-5.0705e-09,0,0.00026618,-0.00011725,-1.7708e+08,-1460,0,9.3768e+07,-89.924,11570,12705,1,12705,1,0.00062931,-1.5232e-09,0,0.00079854,8.1906e-05,1.7923e+08,-458.65,0,2.6036e+08,-1.9977,12704,656.67,0,656.67,0,0.00061446,2.2098e-09,0,0.00031453,0.00011499,2.0605e+08,614.98,0,1.0231e+08,80.744,656.67,1
2268,3.75,12139,1,12139,1,9.723e-05,-2.4114e-09,0,0.000538,-1.7703e-05,-5.8438,-689.93,0,1.7928e+08,-14.804,12138,13320,1,13320,1,0.0011267,2.0108e-09,0,0.0011267,0.00017498,3.0596e+08,548.56,0,3.7916e+08,181.59,13319,12138,1,12138,1,9.723e-05,-2.0774e-09,0,0.00053378,-1.7605e-05,3.0986e+07,-592.54,0,1.7972e+08,-15.588,12137,10979,1,10979,1,-0.00093224,-8.2772e-09,0,1.7151e-05,-0.00021043,-3.7916e+08,-2244.7,0,7.2167e+06,-267.15,10978,11571,1,11571,1,-0.00043655,-4.499e-09,0,0.00026689,-0.00011757,-1.7754e+08,-1333.5,0,9.4017e+07,-56.244,11570,12705,1,12705,1,0.00063101,-1.2373e-10,0,0.00080067,8.2119e-05,1.7972e+08,-34.719,0,2.6103e+08,23.182,12704,656.67,0,656.67,0,0.0006161,2.5913e-09,0,0.00031538,0.00011529,2.0658e+08,733.78,0,1.0257e+08,68.018,656.67,1
2268,3.76,12139,1,12139,1,9.7519e-05,3.2555e-10,0,0.00053945,-1.7756e-05,7.5452,90.668,0,1.7975e+08,-13.355,12138,13320,1,13320,1,0.0011297,2.9593e-09,0,0.0011297,0.00017544,3.0668e+08,813.44,0,3.8016e+08,67.224,13319,12138,1,12138,1,9.7519e-05,1.9089e-10,0,0.00053522,-1.7657e-05,3.1078e+07,52.225,0,1.8021e+08,-8.5662,12137,10979,1,10979,1,-0.00093469,-1.1092e-09,0,1.7169e-05,-0.000211,-3.8016e+08,-302.79,0,7.2255e+06,-234.38,10978,11571,1,11571,1,-0.0004377,-3.11e-10,0,0.00026761,-0.00011789,-1.7801e+08,-90.883,0,9.4268e+07,-28.146,11570,12705,1,12705,1,0.00063274,7.8013e-10,0,0.00080282,8.2335e-05,1.8021e+08,218.05,0,2.617e+08,9.1999,12704,656.67,0,656.67,0,0.00061776,8.6541e-10,0,0.00031623,0.0001156,2.0712e+08,250.01,0,1.0284e+08,34.84,656.67,1
2268,3.77,12139,1,12139,1,9.7808e-05,-1.629e-09,0,0.00054089,-1.7808e-05,-22.613,-460.57,0,1.8022e+08,-24.009,12138,13320,1,13320,1,0.0011328,3.7922e-09,0,0.0011328,0.00017591,3.074e+08,1053.1,0,3.8118e+08,213.72,13319,12138,1,12138,1,9.7808e-05,-1.3416e-09,0,0.00053665,-1.771e-05,3.117e+07,-382.64,0,1.807e+08,-19.698,12137,10979,1,10979,1,-0.00093718,-7.5318e-09,0,1.7187e-05,-0.00021157,-3.8118e+08,-2042.6,0,7.2342e+06,-319.57,10978,11571,1,11571,1,-0.00043884,-3.5596e-09,0,0.00026832,-0.00011821,-1.7847e+08,-1036.7,0,9.4518e+07,-75.663,11570,12705,1,12705,1,0.00063446,4.3471e-10,0,0.00080497,8.2549e-05,1.807e+08,118.4,0,2.6237e+08,28.089,12704,656.67,0,656.67,0,0.0006194,2.546e-09,0,0.00031708,0.00011591,2.0766e+08,720.71,0,1.031e+08,86.839,656.67,1
2268,3.78,12139,1,12139,1,9.8098e-05,6.4207e-10,0,0.00054234,-1.7861e-05,21.146,176.55,0,1.8069e+08,15.457,12138,13320,1,13320,1,0.0011358,4.6366e-09,0,0.0011358,0.00017637,3.0812e+08,1257.1,0,3.8218e+08,126.55,13319,12138,1,12138,1,9.8098e-05,3.4595e-10,0,0.00053808,-1.7762e-05,3.1262e+07,98.469,0,1.8119e+08,18.147,12137,10979,1,10979,1,-0.00093964,-1.2191e-09,0,1.7204e-05,-0.00021214,-3.8218e+08,-416.35,0,7.2427e+06,-217.44,10978,11571,1,11571,1,-0.00043998,-1.9125e-10,0,0.00026904,-0.00011853,-1.7894e+08,-53.509,0,9.4769e+07,-8.7407,11570,12705,1,12705,1,0.00063618,1.1305e-09,0,0.00080712,8.2765e-05,1.8119e+08,299.68,0,2.6304e+08,49.184,12704,656.67,0,656.67,0,0.00062106,1.1445e-09,0,0.00031793,0.00011622,2.082e+08,326.55,0,1.0337e+08,54.18,656.67,1
2268,3.79,12139,1,12139,1,9.8389e-05,-2.0744e-09,0,0.0005438,-1.7914e-05,-12.837,-587.63,0,1.8116e+08,-31.891,12138,13320,1,13320,1,0.0011389,8.1053e-10,0,0.0011389,0.00017684,3.0885e+08,277.57,0,3.8319e+08,194.65,13319,12138,1,12138,1,9.8388e-05,-2.2548e-09,0,0.00053952,-1.7815e-05,3.1355e+07,-666.33,0,1.8168e+08,-31.627,12137,10979,1,10979,1,-0.00094214,-4.7889e-09,0,1.7222e-05,-0.00021271,-3.8319e+08,-1294.3,0,7.2512e+06,-249.64,10978,11571,1,11571,1,-0.00044113,-3.2046e-09,0,0.00026976,-0.00011885,-1.7941e+08,-902.05,0,9.5021e+07,-60.461,11570,12705,1,12705,1,0.00063791,-1.0217e-09,0,0.00080928,8.2981e-05,1.8168e+08,-290.88,0,2.6372e+08,-5.5467,12704,656.67,0,656.67,0,0.00062272,1.4101e-09,0,0.00031879,0.00011653,2.0875e+08,390.82,0,1.0363e+08,51.768,656.67,1
2268,3.8,12139,1,12139,1,9.8685e-05,2.7249e-10,0,0.00054527,-1.7968e-05,-5.3533,76.322,0,1.8165e+08,-33.395,12138,13320,1,13320,1,0.001142,4.4511e-09,0,0.001142,0.00017731,3.0958e+08,1183.1,0,3.8421e+08,104.71,13319,12138,1,12138,1,9.8685e-05,3.4458e-10,0,0.00054098,-1.7869e-05,3.145e+07,93.693,0,1.8218e+08,-28.421,12137,10979,1,10979,1,-0.00094465,-5.58e-09,0,1.724e-05,-0.00021329,-3.8421e+08,-1497.2,0,7.2599e+06,-233.76,10978,11571,1,11571,1,-0.0004423,-7.8415e-10,0,0.00027049,-0.00011918,-1.7988e+08,-217.93,0,9.5277e+07,-61.979,11570,12705,1,12705,1,0.00063967,1.6842e-09,0,0.00081148,8.32e-05,1.8218e+08,487.88,0,2.644e+08,3.131,12704,656.67,0,656.67,0,0.00062442,2.0235e-09,0,0.00031966,0.00011685,2.093e+08,572.99,0,1.039e+08,53.286,656.67,1
2268,3.81,12139,1,12139,1,9.8967e-05,5.9997e-10,0,0.00054667,-1.802e-05,27.37,167.73,0,1.821e+08,27.585,12138,13320,1,13320,1,0.001145,1.2786e-08,0,0.001145,0.00017777,3.1028e+08,3454.8,0,3.8519e+08,383.35,13319,12138,1,12138,1,9.8967e-05,-2.715e-10,0,0.00054237,-1.7921e-05,3.154e+07,-73.429,0,1.8266e+08,7.1829,12137,10979,1,10979,1,-0.00094706,-4.8095e-09,0,1.7255e-05,-0.00021385,-3.8519e+08,-1307.6,0,7.2675e+06,-375.35,10978,11571,1,11571,1,-0.00044341,-2.2612e-09,0,0.00027119,-0.00011949,-1.8033e+08,-651.61,0,9.5521e+07,-40.984,11570,12705,1,12705,1,0.00064134,2.5307e-09,0,0.00081356,8.3409e-05,1.8266e+08,722.44,0,2.6505e+08,91.708,12704,656.67,0,656.67,0,0.00062601,3.851e-09,0,0.00032048,0.00011715,2.0982e+08,1093.9,0,1.0415e+08,125.76,656.67,1
2268,3.82,12139,1,12139,1,9.9259e-05,-1.3866e-09,0,0.00054813,-1.8073e-05,76.052,-392.79,0,1.8257e+08,-29.69,12138,13320,1,13320,1,0.0011481,1.9116e-09,0,0.0011481,0.00017823,3.11e+08,544.05,0,3.8621e+08,105.56,13319,12138,1,12138,1,9.9259e-05,-1.267e-09,0,0.00054382,-1.7974e-05,3.1633e+07,-351.71,0,1.8315e+08,-25.529,12137,10979,1,10979,1,-0.00094954,-5.0237e-09,0,1.7272e-05,-0.00021442,-3.8621e+08,-1361.7,0,7.2761e+06,-289.29,10978,11571,1,11571,1,-0.00044456,-2.5597e-09,0,0.00027191,-0.00011982,-1.808e+08,-751.13,0,9.5773e+07,-57.831,11570,12705,1,12705,1,0.00064307,-6.3824e-11,0,0.00081572,8.3625e-05,1.8315e+08,-16.617,0,2.6573e+08,7.9334,12704,656.67,0,656.67,0,0.00062768,1.5802e-09,0,0.00032134,0.00011746,2.1036e+08,448.54,0,1.0442e+08,57.991,656.67,1
2268,3.83,12139,1,12139,1,9.9549e-05,-4.4274e-10,0,0.00054958,-1.8126e-05,-45.34,-126.68,0,1.8304e+08,-17.615,12138,13320,1,13320,1,0.0011511,5.9427e-10,0,0.0011511,0.00017869,3.1171e+08,203.51,0,3.872e+08,153.52,13319,12138,1,12138,1,9.9549e-05,-3.2883e-10,0,0.00054525,-1.8027e-05,3.1725e+07,-98.894,0,1.8364e+08,-18.616,12137,10979,1,10979,1,-0.000952,-1.6535e-09,0,1.7289e-05,-0.00021499,-3.872e+08,-435.7,0,7.2845e+06,-185.19,10978,11571,1,11571,1,-0.0004457,-7.9355e-10,0,0.00027262,-0.00012014,-1.8126e+08,-235.82,0,9.6024e+07,-43.277,11570,12705,1,12705,1,0.00064479,-9.5074e-11,0,0.00081787,8.384e-05,1.8364e+08,-26.547,0,2.6639e+08,2.8727,12704,656.67,0,656.67,0,0.00062933,4.9087e-10,0,0.00032219,0.00011777,2.109e+08,136.52,0,1.0468e+08,37.077,656.67,1
2268,3.84,12139,1,12139,1,9.984e-05,-4.6867e-10,0,0.00055102,-1.8179e-05,-11.075,-133.87,0,1.8351e+08,-22.547,12138,13320,1,13320,1,0.0011542,4.817e-10,0,0.0011542,0.00017916,3.1243e+08,155.82,0,3.8821e+08,139.56,13319,12138,1,12138,1,9.984e-05,-4.0549e-10,0,0.00054668,-1.808e-05,3.1818e+07,-117.2,0,1.8413e+08,-21.437,12137,10979,1,10979,1,-0.00095447,-1.5243e-09,0,1.7305e-05,-0.00021556,-3.8821e+08,-409.09,0,7.2923e+06,-236.1,10978,11571,1,11571,1,-0.00044684,-8.0929e-10,0,0.00027334,-0.00012046,-1.8173e+08,-237.1,0,9.6275e+07,-40.497,11570,12705,1,12705,1,0.00064652,-1.1031e-10,0,0.00082002,8.4055e-05,1.8413e+08,-31.35,0,2.6706e+08,-3.5604,12704,656.67,0,656.67,0,0.00063099,4.7318e-10,0,0.00032305,0.00011808,2.1144e+08,131.89,0,1.0495e+08,36.495,656.67,1
2268,3.85,12139,1,12139,1,0.00010013,9.2885e-11,0,0.00055248,-1.8233e-05,36.214,23.836,0,1.8399e+08,2.8426,12138,13320,1,13320,1,0.0011572,1.8639e-09,0,0.0011572,0.00017963,3.1315e+08,507.65,0,3.8922e+08,67.077,13319,12138,1,12138,1,0.00010013,-6.4416e-11,0,0.00054812,-1.8133e-05,3.1911e+07,-16.962,0,1.8462e+08,9.0701,12137,10979,1,10979,1,-0.00095696,-1.0941e-09,0,1.7321e-05,-0.00021613,-3.8922e+08,-350.15,0,7.3006e+06,-205.83,10978,11571,1,11571,1,-0.00044799,-2.0582e-10,0,0.00027406,-0.00012078,-1.8219e+08,-60.71,0,9.6527e+07,-5.7512,11570,12705,1,12705,1,0.00064826,3.7033e-10,0,0.00082218,8.4271e-05,1.8462e+08,99.474,0,2.6774e+08,24.362,12704,656.67,0,656.67,0,0.00063265,5.1628e-10,0,0.0003239,0.00011839,2.1198e+08,147.85,0,1.0521e+08,36.953,656.67,1
2268,3.86,12139,1,12139,1,0.00010042,-2.713e-10,0,0.00055393,-1.8286e-05,0.47981,-78.086,0,1.8446e+08,-0.45278,12138,13320,1,13320,1,0.0011603,1.3885e-09,0,0.0011603,0.00018009,3.1387e+08,384.46,0,3.9023e+08,61.758,13319,12138,1,12138,1,0.00010043,-2.437e-10,0,0.00054956,-1.8186e-05,3.2004e+07,-70.19,0,1.8511e+08,0.95973,12137,10979,1,10979,1,-0.00095944,-1.292e-09,0,1.7337e-05,-0.0002167,-3.9023e+08,-353.98,0,7.3084e+06,-173.88,10978,11571,1,11571,1,-0.00044913,-7.1967e-10,0,0.00027478,-0.0001211,-1.8266e+08,-208.59,0,9.6778e+07,-10.91,11570,12705,1,12705,1,0.00064998,3.7365e-11,0,0.00082434,8.4486e-05,1.8511e+08,9.5824,0,2.6841e+08,15.54,12704,656.67,0,656.67,0,0.00063431,5.6078e-10,0,0.00032476,0.0001187,2.1252e+08,161.56,0,1.0547e+08,30.036,656.67,1
2268,3.87,12139,1,12139,1,0.00010071,2.2765e-09,0,0.00055535,-1.8338e-05,-4.4238,646.02,0,1.8492e+08,31.237,12138,13320,1,13320,1,0.0011633,6.4332e-09,0,0.0011633,0.00018055,3.1458e+08,1745.9,0,3.9123e+08,159.61,13319,12138,1,12138,1,0.00010071,2.2228e-09,0,0.00055097,-1.8238e-05,3.2096e+07,643.82,0,1.856e+08,38.196,12137,10979,1,10979,1,-0.0009619,-7.645e-10,0,1.7352e-05,-0.00021727,-3.9123e+08,-261.81,0,7.316e+06,-242.28,10978,11571,1,11571,1,-0.00045026,6.4504e-10,0,0.00027549,-0.00012142,-1.8312e+08,186.09,0,9.7026e+07,-3.6515,11570,12705,1,12705,1,0.00065168,3.7433e-09,0,0.00082646,8.4698e-05,1.856e+08,1067,0,2.6907e+08,80.076,12704,656.67,0,656.67,0,0.00063594,1.8315e-09,0,0.0003256,0.000119,2.1305e+08,512.7,0,1.0573e+08,64.335,656.67,1
2268,3.88,12139,1,12139,1,0.00010101,5.8138e-11,0,0.00055682,-1.8392e-05,43.252,19.359,0,1.854e+08,-8.1671,12138,13320,1,13320,1,0.0011664,1.5094e-09,0,0.0011664,0.00018102,3.1529e+08,423.93,0,3.9224e+08,48.262,13319,12138,1,12138,1,0.00010101,5.2987e-11,0,0.00055242,-1.8292e-05,3.219e+07,16.94,0,1.861e+08,-5.7442,12137,10979,1,10979,1,-0.00096438,-1.3233e-09,0,1.7368e-05,-0.00021784,-3.9224e+08,-368.81,0,7.324e+06,-197.5,10978,11571,1,11571,1,-0.00045141,-5.0351e-10,0,0.00027621,-0.00012174,-1.8359e+08,-137.24,0,9.7279e+07,-21.026,11570,12705,1,12705,1,0.00065343,6.1999e-10,0,0.00082863,8.4915e-05,1.861e+08,177.39,0,2.6974e+08,13.945,12704,656.67,0,656.67,0,0.00063761,7.3314e-10,0,0.00032646,0.00011932,2.1359e+08,210.72,0,1.06e+08,34.389,656.67,1
2268,3.89,12139,1,12139,1,0.0001013,1.5367e-09,0,0.00055826,-1.8445e-05,86.608,436.82,0,1.8586e+08,12.583,12138,13320,1,13320,1,0.0011695,6.8005e-09,0,0.0011695,0.00018148,3.1601e+08,1840.4,0,3.9325e+08,207.62,13319,12138,1,12138,1,0.0001013,7.4281e-10,0,0.00055385,-1.8345e-05,3.2283e+07,207.42,0,1.8659e+08,6.3494,12137,10979,1,10979,1,-0.00096686,-8.4194e-10,0,1.7382e-05,-0.00021841,-3.9325e+08,-288.33,0,7.3315e+06,-340.91,10978,11571,1,11571,1,-0.00045255,9.7002e-11,0,0.00027693,-0.00012207,-1.8405e+08,27.972,0,9.753e+07,-21.337,11570,12705,1,12705,1,0.00065515,2.7774e-09,0,0.00083078,8.513e-05,1.8659e+08,791.11,0,2.7041e+08,55.9,12704,656.67,0,656.67,0,0.00063926,1.8675e-09,0,0.00032731,0.00011962,2.1413e+08,529.54,0,1.0626e+08,81.048,656.67,1
2268,3.9,12139,1,12139,1,0.00010159,-6.7344e-10,0,0.0005597,-1.8499e-05,-72.587,-188.21,0,1.8633e+08,-28.304,12138,13320,1,13320,1,0.0011725,1.0042e-09,0,0.0011725,0.00018194,3.1671e+08,333.24,0,3.9425e+08,95.977,13319,12138,1,12138,1,0.00010159,-5.7413e-10,0,0.00055528,-1.8398e-05,3.2376e+07,-166.8,0,1.8708e+08,-18.566,12137,10979,1,10979,1,-0.00096932,-2.4876e-09,0,1.7398e-05,-0.00021898,-3.9425e+08,-671.69,0,7.3392e+06,-295.82,10978,11571,1,11571,1,-0.00045369,-1.2916e-09,0,0.00027764,-0.00012239,-1.8451e+08,-370.34,0,9.778e+07,-47.391,11570,12705,1,12705,1,0.00065687,-7.7701e-12,0,0.00083292,8.5343e-05,1.8708e+08,-2.08,0,2.7108e+08,-2.1635,12704,656.67,0,656.67,0,0.00064092,7.9894e-10,0,0.00032816,0.00011993,2.1467e+08,223.36,0,1.0652e+08,47.721,656.67,1
2268,3.91,12139,1,12139,1,0.00010192,-3.2487e-09,0,0.00056115,-1.8558e-05,-1.0907,-927.89,0,1.8679e+08,-21.807,12138,13320,1,13320,1,0.0011756,3.6911e-09,0,0.0011756,0.00018241,3.1738e+08,1009,0,3.9525e+08,243.05,13319,12138,1,12138,1,0.00010192,-2.8983e-09,0,0.00055672,-1.8458e-05,3.248e+07,-824.52,0,1.8758e+08,-30.943,12137,10979,1,10979,1,-0.00097179,-1.1438e-08,0,1.7379e-05,-0.00021956,-3.9525e+08,-3104.3,0,7.3341e+06,-252.48,10978,11571,1,11571,1,-0.0004548,-6.1301e-09,0,0.00027836,-0.00012272,-1.8496e+08,-1787.4,0,9.803e+07,-87.521,11570,12705,1,12705,1,0.00065864,-3.4067e-11,0,0.00083508,8.5552e-05,1.8758e+08,-11.369,0,2.7171e+08,40.149,12704,656.67,0,656.67,0,0.00064257,3.6322e-09,0,0.00032902,0.00012024,2.1519e+08,1032.9,0,1.0678e+08,92.406,656.67,1
2268,3.92,12139,1,12139,1,0.00010226,-1.0919e-09,0,0.00056264,-1.8621e-05,-52.862,-319.21,0,1.8725e+08,-33.339,12138,13320,1,13320,1,0.0011788,8.599e-10,0,0.0011788,0.00018287,3.1801e+08,230.89,0,3.9625e+08,201.48,13319,12138,1,12138,1,0.00010226,-1.1519e-09,0,0.00055818,-1.8521e-05,3.259e+07,-333.37,0,1.8809e+08,-32.417,12137,10979,1,10979,1,-0.00097424,-3.0242e-09,0,1.7346e-05,-0.00022015,-3.9625e+08,-832.95,0,7.3236e+06,-238.69,10978,11571,1,11571,1,-0.00045591,-1.9397e-09,0,0.00027909,-0.00012305,-1.8542e+08,-572.23,0,9.8283e+07,-63.663,11570,12705,1,12705,1,0.00066044,-2.4016e-10,0,0.00083727,8.5762e-05,1.8809e+08,-71.038,0,2.7235e+08,-6.964,12704,656.67,0,656.67,0,0.00064426,1.0009e-09,0,0.0003299,0.00012056,2.1572e+08,286.63,0,1.0703e+08,54.227,656.67,1
2268,3.93,12139,1,12139,1,0.00010261,-2.1003e-09,0,0.0005641,-1.8684e-05,33.041,-603.69,0,1.8771e+08,-5.9842,12138,13320,1,13320,1,0.0011819,4.2769e-09,0,0.0011819,0.00018333,3.1864e+08,1156.5,0,3.9725e+08,233.03,13319,12138,1,12138,1,0.00010261,-1.8953e-09,0,0.00055963,-1.8584e-05,3.27e+07,-536.58,0,1.886e+08,-15.754,12137,10979,1,10979,1,-0.0009767,-8.1936e-09,0,1.7312e-05,-0.00022073,-3.9725e+08,-2226,0,7.3126e+06,-237.99,10978,11571,1,11571,1,-0.00045702,-4.3804e-09,0,0.00027981,-0.00012339,-1.8587e+08,-1265.1,0,9.8534e+07,-57.961,11570,12705,1,12705,1,0.00066224,-1.006e-12,0,0.00083944,8.597e-05,1.886e+08,-0.35142,0,2.7297e+08,35.927,12704,656.67,0,656.67,0,0.00064593,2.8294e-09,0,0.00033077,0.00012087,2.1624e+08,806.22,0,1.0727e+08,81.877,656.67,1
2268,3.94,12139,1,12139,1,0.00010298,6.8244e-10,0,0.00056559,-1.8753e-05,12.967,185.75,0,1.8816e+08,3.5066,12138,13320,1,13320,1,0.0011851,2.8123e-09,0,0.0011851,0.00018379,3.1924e+08,779.33,0,3.9824e+08,65.104,13319,12138,1,12138,1,0.00010298,5.8389e-10,0,0.0005611,-1.8653e-05,3.282e+07,159.49,0,1.8912e+08,9.2266,12137,10979,1,10979,1,-0.00097914,-9.3337e-10,0,1.7251e-05,-0.00022133,-3.9824e+08,-319.35,0,7.2917e+06,-162.01,10978,11571,1,11571,1,-0.00045811,-4.9475e-11,0,0.00028055,-0.00012373,-1.8631e+08,-14.467,0,9.8787e+07,-14.879,11570,12705,1,12705,1,0.00066408,1.3514e-09,0,0.00084164,8.6176e-05,1.8912e+08,361.24,0,2.7358e+08,27.092,12704,656.67,0,656.67,0,0.00064763,8.2965e-10,0,0.00033166,0.00012119,2.1675e+08,236.07,0,1.0752e+08,34.04,656.67,1
2268,3.95,12139,1,12139,1,0.00010336,-8.3388e-10,0,0.00056707,-1.8823e-05,45.836,-235.26,0,1.8861e+08,-16.699,12138,13320,1,13320,1,0.0011883,1.1718e-09,0,0.0011883,0.00018425,3.1983e+08,349,0,3.9924e+08,70.994,13319,12138,1,12138,1,0.00010336,-8.2092e-10,0,0.00056256,-1.8723e-05,3.2942e+07,-229.12,0,1.8963e+08,-17.611,12137,10979,1,10979,1,-0.00098159,-2.6277e-09,0,1.7185e-05,-0.00022192,-3.9924e+08,-712.62,0,7.2688e+06,-165.22,10978,11571,1,11571,1,-0.0004592,-1.5262e-09,0,0.00028128,-0.00012407,-1.8675e+08,-441.17,0,9.904e+07,-35.879,11570,12705,1,12705,1,0.00066592,-8.5785e-11,0,0.00084384,8.638e-05,1.8963e+08,-22.225,0,2.7419e+08,1.0992,12704,656.67,0,656.67,0,0.00064932,8.7169e-10,0,0.00033255,0.0001215,2.1726e+08,246.77,0,1.0776e+08,31.832,656.67,1
2268,3.96,12139,1,12139,1,0.00010374,-1.381e-09,0,0.00056855,-1.8892e-05,-53.687,-395.63,0,1.8906e+08,-22.818,12138,13320,1,13320,1,0.0011915,6.9e-10,0,0.0011915,0.00018471,3.2042e+08,223.97,0,4.0023e+08,102.28,13319,12138,1,12138,1,0.00010374,-1.3075e-09,0,0.00056402,-1.8793e-05,3.3063e+07,-378.52,0,1.9015e+08,-20.412,12137,10979,1,10979,1,-0.00098403,-3.895e-09,0,1.7117e-05,-0.00022252,-4.0023e+08,-1058.5,0,7.2454e+06,-222.28,10978,11571,1,11571,1,-0.00046028,-2.3345e-09,0,0.00028201,-0.00012442,-1.8719e+08,-687.12,0,9.9291e+07,-53.486,11570,12705,1,12705,1,0.00066777,-3.37e-10,0,0.00084603,8.6583e-05,1.9015e+08,-98.267,0,2.7479e+08,5.9619,12704,656.67,0,656.67,0,0.000651,1.2125e-09,0,0.00033343,0.00012182,2.1777e+08,343.85,0,1.08e+08,48.065,656.67,1
2268,3.97,12139,1,12139,1,0.00010412,-1.851e-09,0,0.00057003,-1.8962e-05,23.695,-531.51,0,1.895e+08,-25.696,12138,13320,1,13320,1,0.0011947,3.1125e-09,0,0.0011947,0.00018516,3.21e+08,848.93,0,4.0122e+08,134.13,13319,12138,1,12138,1,0.00010412,-1.4634e-09,0,0.00056548,-1.8862e-05,3.3184e+07,-415.55,0,1.9066e+08,-29.972,12137,10979,1,10979,1,-0.00098647,-7.6152e-09,0,1.7049e-05,-0.00022312,-4.0122e+08,-2075.3,0,7.2216e+06,-200.86,10978,11571,1,11571,1,-0.00046136,-3.8377e-09,0,0.00028274,-0.00012476,-1.8763e+08,-1124.1,0,9.9542e+07,-73.849,11570,12705,1,12705,1,0.00066961,1.1418e-10,0,0.00084822,8.6786e-05,1.9066e+08,31.653,0,2.7539e+08,17.285,12704,656.67,0,656.67,0,0.00065268,2.4574e-09,0,0.00033431,0.00012213,2.1827e+08,701.56,0,1.0824e+08,61.313,656.67,1
2268,3.98,12139,1,12139,1,0.00010451,-1.9344e-10,0,0.00057153,-1.9032e-05,23.035,-63.782,0,1.8996e+08,-15.848,12138,13320,1,13320,1,0.0011979,7.8165e-10,0,0.0011979,0.00018562,3.2159e+08,248.72,0,4.0221e+08,27.578,13319,12138,1,12138,1,0.00010451,-1.3649e-10,0,0.00056695,-1.8933e-05,3.3307e+07,-39.003,0,1.9118e+08,-11.106,12137,10979,1,10979,1,-0.00098891,-9.713e-10,0,1.698e-05,-0.00022371,-4.0221e+08,-295.61,0,7.1977e+06,-162.8,10978,11571,1,11571,1,-0.00046244,-5.7788e-10,0,0.00028348,-0.00012511,-1.8807e+08,-175.46,0,9.9796e+07,-27.896,11570,12705,1,12705,1,0.00067146,1.349e-10,0,0.00085043,8.6991e-05,1.9118e+08,32.742,0,2.76e+08,-0.72681,12704,656.67,0,656.67,0,0.00065439,4.1451e-10,0,0.00033521,0.00012245,2.1879e+08,126.1,0,1.0848e+08,23.53,656.67,1
2268,3.99,12139,1,12139,1,0.0001049,2.2038e-09,0,0.00057303,-1.9103e-05,73.557,626,0,1.9041e+08,3.4142,12138,13320,1,13320,1,0.0012012,5.4467e-09,0,0.0012012,0.00018609,3.2219e+08,1475.8,0,4.0323e+08,74.77,13319,12138,1,12138,1,0.0001049,2.2248e-09,0,0.00056844,-1.9004e-05,3.3431e+07,646.24,0,1.917e+08,7.0106,12137,10979,1,10979,1,-0.0009914,-6.8465e-10,0,1.691e-05,-0.00022432,-4.0323e+08,-234.46,0,7.1735e+06,-231.3,10978,11571,1,11571,1,-0.00046354,1.0651e-09,0,0.00028422,-0.00012545,-1.8852e+08,305.83,0,1.0005e+08,-10.235,11570,12705,1,12705,1,0.00067333,3.3458e-09,0,0.00085266,8.7197e-05,1.917e+08,946.39,0,2.7661e+08,26.604,12704,656.67,0,656.67,0,0.0006561,1.4943e-09,0,0.00033611,0.00012277,2.193e+08,416,0,1.0873e+08,37.735,656.67,1
2268,4,12139,1,12139,1,0.00010528,-2.5906e-09,0,0.00057449,-1.9173e-05,56.236,-728.95,0,1.9085e+08,-44.026,12138,13320,1,13320,1,0.0012044,1.2899e-09,0,0.0012044,0.00018654,3.2275e+08,441.75,0,4.042e+08,113.64,13319,12138,1,12138,1,0.00010528,-2.3823e-09,0,0.00056987,-1.9074e-05,3.3552e+07,-680.75,0,1.9221e+08,-41.753,12137,10979,1,10979,1,-0.0009938,-8.024e-09,0,1.6837e-05,-0.00022491,-4.042e+08,-2165.5,0,7.1479e+06,-280.62,10978,11571,1,11571,1,-0.0004646,-4.4047e-09,0,0.00028494,-0.00012579,-1.8895e+08,-1246.8,0,1.003e+08,-94.261,11570,12705,1,12705,1,0.00067515,-4.7277e-10,0,0.00085481,8.7396e-05,1.9221e+08,-128.08,0,2.772e+08,8.9828,12704,656.67,0,656.67,0,0.00065776,2.3842e-09,0,0.00033698,0.00012308,2.198e+08,661.95,0,1.0896e+08,70.075,656.67,1
2268,4.01,12139,1,12139,1,0.00010566,2.1637e-09,0,0.00057597,-1.9243e-05,-57.234,606.85,0,1.913e+08,54.951,12138,13320,1,13320,1,0.0012076,9.1465e-09,0,0.0012076,0.000187,3.2334e+08,2490.3,0,4.0519e+08,258.05,13319,12138,1,12138,1,0.00010566,1.3566e-09,0,0.00057134,-1.9144e-05,3.3674e+07,366.1,0,1.9272e+08,46.952,12137,10979,1,10979,1,-0.00099623,-1.8812e-09,0,1.6768e-05,-0.00022551,-4.0519e+08,-529.13,0,7.1238e+06,-218.75,10978,11571,1,11571,1,-0.00046568,-4.4874e-11,0,0.00028567,-0.00012614,-1.8939e+08,-12.845,0,1.0055e+08,8.0168,11570,12705,1,12705,1,0.000677,4.2669e-09,0,0.00085701,8.7599e-05,1.9272e+08,1191.5,0,2.778e+08,106.37,12704,656.67,0,656.67,0,0.00065944,2.6979e-09,0,0.00033786,0.0001234,2.2031e+08,766.66,0,1.092e+08,72.696,656.67,1
2268,4.02,12139,1,12139,1,0.00010605,-8.5746e-10,0,0.00057747,-1.9314e-05,38.161,-237.36,0,1.9175e+08,-33.798,12138,13320,1,13320,1,0.0012108,2.3584e-10,0,0.0012108,0.00018745,3.2391e+08,80.759,0,4.0619e+08,19.088,13319,12138,1,12138,1,0.00010605,-9.2677e-10,0,0.00057281,-1.9216e-05,3.3799e+07,-266.89,0,1.9324e+08,-33.718,12137,10979,1,10979,1,-0.00099867,-2.0254e-09,0,1.6696e-05,-0.0002261,-4.0619e+08,-549.05,0,7.0989e+06,-189.2,10978,11571,1,11571,1,-0.00046677,-1.3514e-09,0,0.00028641,-0.00012648,-1.8983e+08,-354.18,0,1.008e+08,-47.237,11570,12705,1,12705,1,0.00067886,-3.8044e-10,0,0.00085922,8.7804e-05,1.9324e+08,-113.02,0,2.784e+08,-13.134,12704,656.67,0,656.67,0,0.00066115,5.7953e-10,0,0.00033876,0.00012372,2.2082e+08,155.59,0,1.0944e+08,25.972,656.67,1
2268,4.03,12139,1,12139,1,0.00010644,-4.5203e-10,0,0.00057895,-1.9385e-05,29.089,-131.61,0,1.9219e+08,12.128,12138,13320,1,13320,1,0.001214,3.0283e-09,0,0.001214,0.00018791,3.2448e+08,825.98,0,4.0718e+08,115.01,13319,12138,1,12138,1,0.00010644,-2.2314e-10,0,0.00057428,-1.9287e-05,3.3922e+07,-67.25,0,1.9376e+08,6.3775,12137,10979,1,10979,1,-0.0010011,-3.8478e-09,0,1.6622e-05,-0.0002267,-4.0718e+08,-1050.9,0,7.0734e+06,-151.94,10978,11571,1,11571,1,-0.00046784,-1.622e-09,0,0.00028714,-0.00012683,-1.9027e+08,-472.14,0,1.0106e+08,-14.972,11570,12705,1,12705,1,0.00068071,6.0636e-10,0,0.00086141,8.8006e-05,1.9376e+08,174.54,0,2.79e+08,42.987,12704,656.67,0,656.67,0,0.00066284,1.6163e-09,0,0.00033965,0.00012403,2.2132e+08,465.31,0,1.0968e+08,41.262,656.67,1
2268,4.04,12139,1,12139,1,0.00010682,-8.6644e-10,0,0.00058043,-1.9456e-05,-71.687,-246.69,0,1.9264e+08,-34.377,12138,13320,1,13320,1,0.0012172,5.553e-10,0,0.0012172,0.00018837,3.2506e+08,190.17,0,4.0817e+08,87.185,13319,12138,1,12138,1,0.00010682,-7.6538e-10,0,0.00057574,-1.9358e-05,3.4046e+07,-220.6,0,1.9427e+08,-23.343,12137,10979,1,10979,1,-0.0010035,-2.6733e-09,0,1.6548e-05,-0.0002273,-4.0817e+08,-726.49,0,7.0477e+06,-221.94,10978,11571,1,11571,1,-0.00046891,-1.48e-09,0,0.00028787,-0.00012717,-1.907e+08,-417.41,0,1.0131e+08,-61.351,11570,12705,1,12705,1,0.00068256,-2.2659e-10,0,0.00086361,8.8208e-05,1.9427e+08,-66.394,0,2.796e+08,-5.273,12704,656.67,0,656.67,0,0.00066453,8.0528e-10,0,0.00034054,0.00012435,2.2183e+08,226.44,0,1.0992e+08,43.462,656.67,1
2268,4.05,12139,1,12139,1,0.00010721,-1.1713e-09,0,0.00058193,-1.9528e-05,19.388,-337.34,0,1.9309e+08,-31.893,12138,13320,1,13320,1,0.0012204,5.3239e-10,0,0.0012204,0.00018883,3.2564e+08,178.46,0,4.0917e+08,59.823,13319,12138,1,12138,1,0.00010721,-1.2167e-09,0,0.00057721,-1.943e-05,3.417e+07,-355.12,0,1.9479e+08,-27.098,12137,10979,1,10979,1,-0.001006,-3.3674e-09,0,1.6474e-05,-0.0002279,-4.0917e+08,-919.1,0,7.0217e+06,-248.17,10978,11571,1,11571,1,-0.00047,-1.8323e-09,0,0.00028861,-0.00012752,-1.9115e+08,-533.4,0,1.0156e+08,-48.904,11570,12705,1,12705,1,0.00068443,-4.79e-10,0,0.00086582,8.8412e-05,1.9479e+08,-129.94,0,2.802e+08,-8.6275,12704,656.67,0,656.67,0,0.00066623,9.1055e-10,0,0.00034143,0.00012466,2.2234e+08,259.8,0,1.1016e+08,36.865,656.67,1
2268,4.06,12139,1,12139,1,0.0001076,-1.123e-09,0,0.00058341,-1.9599e-05,-0.49088,-325.04,0,1.9353e+08,-30.058,12138,13320,1,13320,1,0.0012236,5.9907e-10,0,0.0012236,0.00018929,3.2621e+08,205.16,0,4.1016e+08,51.831,13319,12138,1,12138,1,0.0001076,-1.0327e-09,0,0.00057868,-1.9502e-05,3.4295e+07,-304.87,0,1.9531e+08,-23.878,12137,10979,1,10979,1,-0.0010084,-3.2516e-09,0,1.6397e-05,-0.0002285,-4.1016e+08,-888.21,0,6.9951e+06,-211.84,10978,11571,1,11571,1,-0.00047107,-1.7893e-09,0,0.00028934,-0.00012787,-1.9158e+08,-526.78,0,1.0181e+08,-53.373,11570,12705,1,12705,1,0.00068628,-3.8923e-10,0,0.00086802,8.8615e-05,1.9531e+08,-110.91,0,2.808e+08,-1.3963,12704,656.67,0,656.67,0,0.00066792,9.2928e-10,0,0.00034232,0.00012498,2.2285e+08,265.61,0,1.104e+08,38.001,656.67,1
2268,4.07,12139,1,12139,1,0.00010799,-2.6992e-09,0,0.00058488,-1.967e-05,20.521,-773.27,0,1.9397e+08,-24.41,12138,13320,1,13320,1,0.0012269,1.2058e-09,0,0.0012269,0.00018974,3.2678e+08,412.95,0,4.1114e+08,151.63,13319,12138,1,12138,1,0.00010799,-2.366e-09,0,0.00058013,-1.9573e-05,3.4419e+07,-690.18,0,1.9582e+08,-23.946,12137,10979,1,10979,1,-0.0010109,-8.7358e-09,0,1.632e-05,-0.0002291,-4.1114e+08,-2378.4,0,6.9683e+06,-226.37,10978,11571,1,11571,1,-0.00047214,-4.6665e-09,0,0.00029006,-0.00012821,-1.9202e+08,-1352.4,0,1.0206e+08,-72.197,11570,12705,1,12705,1,0.00068812,-4.0773e-10,0,0.0008702,8.8815e-05,1.9582e+08,-119.23,0,2.8139e+08,21.981,12704,656.67,0,656.67,0,0.00066959,2.5301e-09,0,0.0003432,0.00012529,2.2335e+08,718.71,0,1.1064e+08,69.445,656.67,1
2268,4.08,12139,1,12139,1,0.00010839,-2.0117e-09,0,0.00058639,-1.9743e-05,1.9311,-583.54,0,1.9443e+08,-57.699,12138,13320,1,13320,1,0.0012301,9.7274e-10,0,0.0012301,0.0001902,3.2735e+08,307.92,0,4.1215e+08,91.674,13319,12138,1,12138,1,0.00010839,-2.1315e-09,0,0.00058161,-1.9645e-05,3.4544e+07,-617.79,0,1.9635e+08,-56.513,12137,10979,1,10979,1,-0.0010133,-4.886e-09,0,1.6244e-05,-0.0002297,-4.1215e+08,-1340.5,0,6.9416e+06,-242.61,10978,11571,1,11571,1,-0.00047323,-3.3094e-09,0,0.0002908,-0.00012856,-1.9246e+08,-998.17,0,1.0232e+08,-93.058,11570,12705,1,12705,1,0.00069,-6.8314e-10,0,0.00087242,8.9019e-05,1.9635e+08,-197.72,0,2.8199e+08,-20.306,12704,656.67,0,656.67,0,0.00067131,1.5857e-09,0,0.0003441,0.00012561,2.2386e+08,454.33,0,1.1088e+08,53.784,656.67,1
2268,4.09,12139,1,12139,1,0.00010878,-9.1173e-10,0,0.00058786,-1.9814e-05,6.8173,-270.7,0,1.9487e+08,-9.3656,12138,13320,1,13320,1,0.0012333,3.8843e-10,0,0.0012333,0.00019065,3.279e+08,90.458,0,4.1312e+08,28.411,13319,12138,1,12138,1,0.00010878,-8.423e-10,0,0.00058306,-1.9717e-05,3.4669e+07,-242.32,0,1.9686e+08,-5.1703,12137,10979,1,10979,1,-0.0010157,-2.6831e-09,0,1.6164e-05,-0.00023029,-4.1312e+08,-741.36,0,6.9138e+06,-134.9,10978,11571,1,11571,1,-0.00047428,-1.6068e-09,0,0.00029153,-0.0001289,-1.9289e+08,-475.95,0,1.0257e+08,-20.084,11570,12705,1,12705,1,0.00069184,-1.6914e-10,0,0.00087459,8.9219e-05,1.9686e+08,-48.888,0,2.8258e+08,3.9502,12704,656.67,0,656.67,0,0.00067298,8.195e-10,0,0.00034498,0.00012593,2.2436e+08,239.87,0,1.1111e+08,21.821,656.67,1
2268,4.1,12139,1,12139,1,0.00010917,-3.0642e-09,0,0.00058932,-1.9885e-05,-0.65971,-876.6,0,1.9531e+08,-44.729,12138,13320,1,13320,1,0.0012365,1.4065e-09,0,0.0012365,0.00019111,3.2847e+08,481.66,0,4.1411e+08,134.89,13319,12138,1,12138,1,0.00010916,-2.8367e-09,0,0.00058451,-1.9788e-05,3.4793e+07,-817.07,0,1.9737e+08,-43.297,12137,10979,1,10979,1,-0.0010181,-9.6416e-09,0,1.6086e-05,-0.00023089,-4.1411e+08,-2623.6,0,6.8868e+06,-262.85,10978,11571,1,11571,1,-0.00047535,-5.2177e-09,0,0.00029225,-0.00012924,-1.9332e+08,-1497.8,0,1.0281e+08,-96.291,11570,12705,1,12705,1,0.00069368,-6.0586e-10,0,0.00087677,8.9418e-05,1.9737e+08,-174.4,0,2.8316e+08,8.6247,12704,656.67,0,656.67,0,0.00067465,2.799e-09,0,0.00034586,0.00012624,2.2485e+08,793.13,0,1.1135e+08,73.341,656.67,1
2268,4.11,12139,1,12139,1,0.00010956,-9.1911e-10,0,0.00059084,-1.9958e-05,-4.1993,-274.88,0,1.9576e+08,-44.582,12138,13320,1,13320,1,0.0012397,1.3317e-09,0,0.0012397,0.00019157,3.2904e+08,317.41,0,4.151e+08,79.742,13319,12138,1,12138,1,0.00010956,-8.0956e-10,0,0.000586,-1.9861e-05,3.492e+07,-234.9,0,1.9789e+08,-42.282,12137,10979,1,10979,1,-0.0010206,-3.3262e-09,0,1.6007e-05,-0.0002315,-4.151e+08,-909.47,0,6.8592e+06,-195.02,10978,11571,1,11571,1,-0.00047644,-1.8618e-09,0,0.000293,-0.0001296,-1.9376e+08,-546.79,0,1.0307e+08,-74.859,11570,12705,1,12705,1,0.00069556,2.8217e-11,0,0.000879,8.9624e-05,1.9789e+08,8.2663,0,2.8377e+08,-13.523,12704,656.67,0,656.67,0,0.00067637,1.1284e-09,0,0.00034677,0.00012656,2.2537e+08,322.11,0,1.1159e+08,42.943,656.67,1
2268,4.12,12139,1,12139,1,0.00010996,-1.4741e-09,0,0.0005923,-2.003e-05,59.771,-424.96,0,1.962e+08,-32.571,12138,13320,1,13320,1,0.0012429,1.3416e-09,0,0.0012429,0.00019202,3.2959e+08,350.01,0,4.1608e+08,109.68,13319,12138,1,12138,1,0.00010996,-1.4643e-09,0,0.00058745,-1.9933e-05,3.5045e+07,-418.9,0,1.9841e+08,-34.241,12137,10979,1,10979,1,-0.001023,-4.5164e-09,0,1.5925e-05,-0.00023209,-4.1608e+08,-1231.1,0,6.8305e+06,-181.71,10978,11571,1,11571,1,-0.00047749,-2.6343e-09,0,0.00029372,-0.00012994,-1.9419e+08,-763,0,1.0332e+08,-63.054,11570,12705,1,12705,1,0.0006974,-1.6399e-10,0,0.00088117,8.9822e-05,1.9841e+08,-49.034,0,2.8435e+08,-5.2791,12704,656.67,0,656.67,0,0.00067804,1.4618e-09,0,0.00034765,0.00012687,2.2586e+08,414.42,0,1.1182e+08,48.848,656.67,1
2268,4.13,12139,1,12139,1,0.00011035,-8.796e-10,0,0.00059378,-2.0102e-05,-176.3,-257.1,0,1.9664e+08,10.847,12138,13320,1,13320,1,0.0012461,4.8655e-09,0,0.0012461,0.00019248,3.3015e+08,1325,0,4.1707e+08,171.29,13319,12138,1,12138,1,0.00011035,-5.376e-10,0,0.00058891,-2.0005e-05,3.5171e+07,-140.47,0,1.9892e+08,5.1353,12137,10979,1,10979,1,-0.0010254,-5.7886e-09,0,1.5845e-05,-0.00023269,-4.1707e+08,-1584.6,0,6.8026e+06,-118.03,10978,11571,1,11571,1,-0.00047856,-2.7497e-09,0,0.00029445,-0.00013028,-1.9463e+08,-798.48,0,1.0357e+08,-29.209,11570,12705,1,12705,1,0.00069926,6.4699e-10,0,0.00088337,9.0024e-05,1.9892e+08,172.31,0,2.8494e+08,41.192,12704,656.67,0,656.67,0,0.00067973,2.3544e-09,0,0.00034853,0.00012719,2.2637e+08,676.06,0,1.1206e+08,56.021,656.67,1
2268,4.14,12139,1,12139,1,0.00011075,-5.9171e-10,0,0.00059528,-2.0175e-05,14.096,-174.5,0,1.9708e+08,-22.972,12138,13320,1,13320,1,0.0012493,5.5467e-10,0,0.0012493,0.00019293,3.307e+08,189.68,0,4.1805e+08,31.551,13319,12138,1,12138,1,0.00011075,-5.6473e-10,0,0.00059038,-2.0079e-05,3.5298e+07,-158.3,0,1.9944e+08,-18.296,12137,10979,1,10979,1,-0.0010278,-1.6957e-09,0,1.5762e-05,-0.00023329,-4.1805e+08,-475.37,0,6.7738e+06,-214.64,10978,11571,1,11571,1,-0.00047963,-1.0067e-09,0,0.00029519,-0.00013063,-1.9506e+08,-305.93,0,1.0382e+08,-34.562,11570,12705,1,12705,1,0.00070113,-1.5206e-10,0,0.00088557,9.0225e-05,1.9944e+08,-42.974,0,2.8553e+08,-4.8893,12704,656.67,0,656.67,0,0.00068143,5.1359e-10,0,0.00034943,0.0001275,2.2687e+08,155.01,0,1.123e+08,28.627,656.67,1
2268,4.15,12139,1,12139,1,0.00011114,-2.1601e-09,0,0.00059675,-2.0247e-05,95.913,-614.28,0,1.9752e+08,-29.812,12138,13320,1,13320,1,0.0012526,5.5607e-09,0,0.0012526,0.00019339,3.3126e+08,1514.3,0,4.1905e+08,227.09,13319,12138,1,12138,1,0.00011114,-1.4129e-09,0,0.00059184,-2.0151e-05,3.5424e+07,-410.02,0,1.9996e+08,-35.099,12137,10979,1,10979,1,-0.0010303,-1.0841e-08,0,1.5678e-05,-0.00023389,-4.1905e+08,-2949.5,0,6.7447e+06,-251.16,10978,11571,1,11571,1,-0.00048069,-5.1691e-09,0,0.00029592,-0.00013098,-1.9549e+08,-1510,0,1.0407e+08,-92.501,11570,12705,1,12705,1,0.00070298,5.5116e-10,0,0.00088776,9.0425e-05,1.9996e+08,167.35,0,2.8612e+08,29.791,12704,656.67,0,656.67,0,0.0006831,3.7374e-09,0,0.00035031,0.00012782,2.2737e+08,1064.2,0,1.1253e+08,93.399,656.67,1
2268,4.16,12139,1,12139,1,0.00011154,1.8183e-10,0,0.00059825,-2.032e-05,15.346,39.534,0,1.9797e+08,-7.1787,12138,13320,1,13320,1,0.0012558,1.5129e-09,0,0.0012558,0.00019384,3.3181e+08,435.09,0,4.2002e+08,54.344,13319,12138,1,12138,1,0.00011154,1.9202e-10,0,0.00059331,-2.0225e-05,3.5551e+07,54.445,0,2.0048e+08,-2.5588,12137,10979,1,10979,1,-0.0010327,-1.7271e-09,0,1.5594e-05,-0.00023448,-4.2002e+08,-545.25,0,6.7153e+06,-107.74,10978,11571,1,11571,1,-0.00048176,-2.7543e-10,0,0.00029665,-0.00013132,-1.9593e+08,-88.317,0,1.0432e+08,-23.704,11570,12705,1,12705,1,0.00070485,7.7096e-10,0,0.00088996,9.0627e-05,2.0048e+08,203.52,0,2.8671e+08,10.809,12704,656.67,0,656.67,0,0.0006848,6.7222e-10,0,0.00035121,0.00012813,2.2787e+08,197.02,0,1.1277e+08,27.234,656.67,1
2268,4.17,12139,1,12139,1,0.00011194,-1.2445e-09,0,0.00059973,-2.0394e-05,-41.169,-353.12,0,1.9841e+08,-29.118,12138,13320,1,13320,1,0.001259,1.338e-09,0,0.001259,0.0001943,3.3236e+08,387.38,0,4.2102e+08,114.87,13319,12138,1,12138,1,0.00011194,-1.1464e-09,0,0.00059477,-2.0298e-05,3.5679e+07,-332.42,0,2.01e+08,-30.373,12137,10979,1,10979,1,-0.0010351,-4.2228e-09,0,1.551e-05,-0.00023509,-4.2102e+08,-1149,0,6.6861e+06,-213.83,10978,11571,1,11571,1,-0.00048283,-2.262e-09,0,0.00029738,-0.00013167,-1.9636e+08,-654.31,0,1.0458e+08,-61.976,11570,12705,1,12705,1,0.00070671,-6.3973e-11,0,0.00089216,9.0827e-05,2.01e+08,-16.859,0,2.873e+08,-3.4154,12704,656.67,0,656.67,0,0.00068649,1.3118e-09,0,0.0003521,0.00012845,2.2837e+08,371.7,0,1.13e+08,49.304,656.67,1
2268,4.18,12139,1,12139,1,0.00011234,-1.661e-09,0,0.00060121,-2.0466e-05,-46.384,-476.08,0,1.9885e+08,-24.941,12138,13320,1,13320,1,0.0012622,4.1246e-09,0,0.0012622,0.00019475,3.3291e+08,1137.7,0,4.22e+08,179,13319,12138,1,12138,1,0.00011234,-1.1114e-09,0,0.00059623,-2.0371e-05,3.5806e+07,-313.25,0,2.0151e+08,-20.522,12137,10979,1,10979,1,-0.0010376,-8.2248e-09,0,1.5423e-05,-0.00023569,-4.22e+08,-2242.7,0,6.6558e+06,-267.25,10978,11571,1,11571,1,-0.00048389,-3.7982e-09,0,0.00029811,-0.00013202,-1.968e+08,-1109.6,0,1.0483e+08,-73.925,11570,12705,1,12705,1,0.00070857,4.2664e-10,0,0.00089434,9.1026e-05,2.0151e+08,125.6,0,2.8788e+08,22.684,12704,656.67,0,656.67,0,0.00068817,2.7151e-09,0,0.00035299,0.00012876,2.2887e+08,776.07,0,1.1324e+08,73.026,656.67,1
2268,4.19,12139,1,12139,1,0.00011274,-2.6589e-09,0,0.00060269,-2.054e-05,2.784,-766.09,0,1.9929e+08,-39.467,12138,13320,1,13320,1,0.0012655,1.7322e-09,0,0.0012655,0.00019521,3.3346e+08,562.8,0,4.2299e+08,582.21,13319,12138,1,12138,1,0.00011274,-2.4783e-09,0,0.00059769,-2.0444e-05,3.5933e+07,-712.63,0,2.0203e+08,-39.518,12137,10979,1,10979,1,-0.00104,-8.4414e-09,0,1.5336e-05,-0.00023628,-4.2299e+08,-2318.7,0,6.6255e+06,-254.58,10978,11571,1,11571,1,-0.00048495,-4.6942e-09,0,0.00029884,-0.00013236,-1.9722e+08,-1364.8,0,1.0508e+08,-87.671,11570,12705,1,12705,1,0.00071042,-4.3672e-10,0,0.00089653,9.1225e-05,2.0203e+08,-125.59,0,2.8846e+08,4.1441,12704,656.67,0,656.67,0,0.00068986,2.515e-09,0,0.00035387,0.00012908,2.2937e+08,723.42,0,1.1347e+08,78.643,656.67,1
2268,4.2,12139,1,12139,1,0.00011314,-4.4608e-10,0,0.00060419,-2.0613e-05,-0.4681,-139.8,0,1.9974e+08,-26.227,12138,13320,1,13320,1,0.0012687,1.3005e-09,0,0.0012687,0.00019566,3.34e+08,375.05,0,4.2397e+08,69.117,13319,12138,1,12138,1,0.00011314,-2.6489e-10,0,0.00059916,-2.0519e-05,3.6062e+07,-79.747,0,2.0255e+08,-22.489,12137,10979,1,10979,1,-0.0010424,-2.7243e-09,0,1.5249e-05,-0.00023689,-4.2397e+08,-756.61,0,6.5952e+06,-174.56,10978,11571,1,11571,1,-0.00048602,-1.1301e-09,0,0.00029958,-0.00013271,-1.9766e+08,-338.29,0,1.0533e+08,-46.075,11570,12705,1,12705,1,0.0007123,2.9824e-10,0,0.00089874,9.1427e-05,2.0255e+08,81.151,0,2.8905e+08,-1.8596,12704,656.67,0,656.67,0,0.00069156,8.7529e-10,0,0.00035477,0.0001294,2.2987e+08,255.56,0,1.1371e+08,33.112,656.67,1
2268,4.21,12139,1,12139,1,0.00011354,-1.8969e-09,0,0.00060567,-2.0687e-05,29.722,-543.82,0,2.0017e+08,-30.689,12138,13320,1,13320,1,0.0012719,2.472e-09,0,0.0012719,0.00019612,3.3455e+08,680.01,0,4.2496e+08,124.35,13319,12138,1,12138,1,0.00011354,-1.5031e-09,0,0.00060062,-2.0593e-05,3.619e+07,-426.24,0,2.0307e+08,-31.054,12137,10979,1,10979,1,-0.0010448,-7.4308e-09,0,1.516e-05,-0.00023749,-4.2496e+08,-2027.4,0,6.5643e+06,-202.13,10978,11571,1,11571,1,-0.00048708,-3.8071e-09,0,0.00030031,-0.00013306,-1.9809e+08,-1114.4,0,1.0558e+08,-72.378,11570,12705,1,12705,1,0.00071417,9.2997e-11,0,0.00090093,9.1626e-05,2.0307e+08,26.486,0,2.8963e+08,10.269,12704,656.67,0,656.67,0,0.00069325,2.3385e-09,0,0.00035566,0.00012971,2.3037e+08,668.17,0,1.1394e+08,58.191,656.67,1
2268,4.22,12139,1,12139,1,0.00011395,-1.8517e-09,0,0.00060715,-2.0761e-05,-34.687,-536.3,0,2.0062e+08,-42.336,12138,13320,1,13320,1,0.0012751,8.7522e-10,0,0.0012751,0.00019657,3.3509e+08,292.31,0,4.2594e+08,78.064,13319,12138,1,12138,1,0.00011395,-1.8007e-09,0,0.00060209,-2.0667e-05,3.6319e+07,-516.11,0,2.0359e+08,-40.735,12137,10979,1,10979,1,-0.0010472,-5.0742e-09,0,1.5071e-05,-0.00023809,-4.2594e+08,-1389.9,0,6.5331e+06,-171.52,10978,11571,1,11571,1,-0.00048814,-2.9738e-09,0,0.00030104,-0.00013341,-1.9852e+08,-882.94,0,1.0583e+08,-77.026,11570,12705,1,12705,1,0.00071603,-6.563e-10,0,0.00090313,9.1826e-05,2.0359e+08,-189.05,0,2.9022e+08,-5.4091,12704,656.67,0,656.67,0,0.00069494,1.4657e-09,0,0.00035656,0.00013003,2.3087e+08,422.45,0,1.1418e+08,47.971,656.67,1
2268,4.23,12139,1,12139,1,0.00011435,-2.6173e-09,0,0.00060863,-2.0835e-05,-24.341,-754.45,0,2.0105e+08,-43.933,12138,13320,1,13320,1,0.0012784,1.1239e-09,0,0.0012784,0.00019703,3.3563e+08,384.88,0,4.2693e+08,121.2,13319,12138,1,12138,1,0.00011435,-2.3825e-09,0,0.00060355,-2.0741e-05,3.6447e+07,-690.44,0,2.041e+08,-40.427,12137,10979,1,10979,1,-0.0010497,-8.3011e-09,0,1.4981e-05,-0.00023869,-4.2693e+08,-2267.3,0,6.5016e+06,-265.24,10978,11571,1,11571,1,-0.00048919,-4.4523e-09,0,0.00030177,-0.00013376,-1.9895e+08,-1301.9,0,1.0608e+08,-83.205,11570,12705,1,12705,1,0.00071789,-5.2702e-10,0,0.00090532,9.2025e-05,2.041e+08,-149.36,0,2.908e+08,2.4691,12704,656.67,0,656.67,0,0.00069662,2.3866e-09,0,0.00035744,0.00013034,2.3137e+08,682.99,0,1.1441e+08,61.351,656.67,1
2268,4.24,12139,1,12139,1,0.00011475,-1.4037e-09,0,0.00061013,-2.0909e-05,-27.913,-412.43,0,2.015e+08,-24.063,12138,13320,1,13320,1,0.0012816,1.8899e-09,0,0.0012816,0.00019748,3.3617e+08,522.43,0,4.2791e+08,74.546,13319,12138,1,12138,1,0.00011475,-1.0967e-09,0,0.00060502,-2.0815e-05,3.6577e+07,-314.17,0,2.0463e+08,-22.088,12137,10979,1,10979,1,-0.0010521,-5.515e-09,0,1.489e-05,-0.00023929,-4.2791e+08,-1518.6,0,6.47e+06,-193.31,10978,11571,1,11571,1,-0.00049026,-2.8275e-09,0,0.00030251,-0.00013411,-1.9939e+08,-837.99,0,1.0633e+08,-56.693,11570,12705,1,12705,1,0.00071977,7.0855e-11,0,0.00090753,9.2226e-05,2.0463e+08,19.815,0,2.9138e+08,13.865,12704,656.67,0,656.67,0,0.00069832,1.7393e-09,0,0.00035834,0.00013066,2.3187e+08,506.09,0,1.1465e+08,45.893,656.67,1
2268,4.25,12139,1,12139,1,0.00011516,-3.1346e-09,0,0.0006116,-2.0983e-05,32.794,-897.72,0,2.0193e+08,-60.901,12138,13320,1,13320,1,0.0012848,2.4079e-09,0,0.0012848,0.00019793,3.3671e+08,663.22,0,4.2889e+08,174.27,13319,12138,1,12138,1,0.00011516,-2.8234e-09,0,0.00060647,-2.089e-05,3.6706e+07,-822.11,0,2.0514e+08,-63.697,12137,10979,1,10979,1,-0.0010545,-1.0512e-08,0,1.4798e-05,-0.00023989,-4.2889e+08,-2868.2,0,6.4378e+06,-263.86,10978,11571,1,11571,1,-0.00049131,-5.6621e-09,0,0.00030323,-0.00013445,-1.9981e+08,-1640.4,0,1.0658e+08,-128.48,11570,12705,1,12705,1,0.00072163,-1.7881e-10,0,0.00090971,9.2423e-05,2.0514e+08,-52.782,0,2.9196e+08,7.885,12704,656.67,0,656.67,0,0.0007,3.1996e-09,0,0.00035923,0.00013097,2.3236e+08,911.46,0,1.1488e+08,89.452,656.67,1
2268,4.26,12139,1,12139,1,0.00011556,-3.3662e-10,0,0.00061308,-2.1057e-05,0.98469,-113.46,0,2.0237e+08,0.34588,12138,13320,1,13320,1,0.001288,4.002e-09,0,0.001288,0.00019838,3.3723e+08,1094.3,0,4.2986e+08,73.776,13319,12138,1,12138,1,0.00011556,-1.2145e-10,0,0.00060794,-2.0964e-05,3.6835e+07,-32.316,0,2.0566e+08,6.1039,12137,10979,1,10979,1,-0.0010569,-4.3474e-09,0,1.4705e-05,-0.00024048,-4.2986e+08,-1224.6,0,6.4054e+06,-126.77,10978,11571,1,11571,1,-0.00049237,-1.5097e-09,0,0.00030397,-0.0001348,-2.0024e+08,-452.12,0,1.0683e+08,-25.874,11570,12705,1,12705,1,0.0007235,6.5787e-10,0,0.0009119,9.2622e-05,2.0566e+08,171.96,0,2.9254e+08,30.746,12704,656.67,0,656.67,0,0.00070169,1.6356e-09,0,0.00036012,0.00013129,2.3286e+08,478.49,0,1.1511e+08,39.353,656.67,1
2268,4.27,12139,1,12139,1,0.00011597,2.1337e-09,0,0.00061457,-2.1132e-05,-14.643,603.14,0,2.0281e+08,53.608,12138,13320,1,13320,1,0.0012913,1.0908e-08,0,0.0012913,0.00019884,3.3778e+08,2984,0,4.3086e+08,289.67,13319,12138,1,12138,1,0.00011597,1.2643e-09,0,0.0006094,-2.1039e-05,3.6965e+07,347.73,0,2.0618e+08,44.158,12137,10979,1,10979,1,-0.0010593,-2.5616e-09,0,1.4613e-05,-0.00024109,-4.3086e+08,-752.22,0,6.3732e+06,-172.62,10978,11571,1,11571,1,-0.00049343,-1.3168e-10,0,0.0003047,-0.00013515,-2.0068e+08,-37.948,0,1.0708e+08,-1.1987,11570,12705,1,12705,1,0.00072538,3.866e-09,0,0.00091411,9.2822e-05,2.0618e+08,1077.1,0,2.9312e+08,98.791,12704,656.67,0,656.67,0,0.00070338,2.881e-09,0,0.00036101,0.0001316,2.3336e+08,829.37,0,1.1535e+08,76.127,656.67,1
2268,4.28,12139,1,12139,1,0.00011638,-1.2482e-09,0,0.00061607,-2.1207e-05,14.767,-344.1,0,2.0325e+08,-42.291,12138,13320,1,13320,1,0.0012945,1.2648e-09,0,0.0012945,0.00019929,3.3831e+08,420.22,0,4.3184e+08,88.154,13319,12138,1,12138,1,0.00011638,-1.1817e-09,0,0.00061087,-2.1115e-05,3.7096e+07,-338.13,0,2.0671e+08,-40.447,12137,10979,1,10979,1,-0.0010617,-3.7255e-09,0,1.4517e-05,-0.00024169,-4.3184e+08,-1006,0,6.3399e+06,-262.1,10978,11571,1,11571,1,-0.00049449,-2.2098e-09,0,0.00030544,-0.0001355,-2.0111e+08,-616.22,0,1.0733e+08,-78.671,11570,12705,1,12705,1,0.00072726,-2.3633e-10,0,0.00091631,9.3021e-05,2.0671e+08,-63.784,0,2.937e+08,-9.6345,12704,656.67,0,656.67,0,0.00070508,1.2201e-09,0,0.00036191,0.00013192,2.3386e+08,338.9,0,1.1558e+08,54.47,656.67,1
2268,4.29,12139,1,12139,1,0.00011679,-1.6591e-09,0,0.00061755,-2.1282e-05,-60.745,-475.7,0,2.0369e+08,-34.572,12138,13320,1,13320,1,0.0012977,8.3538e-10,0,0.0012977,0.00019975,3.3883e+08,286.08,0,4.3282e+08,145.26,13319,12138,1,12138,1,0.00011679,-1.7073e-09,0,0.00061233,-2.119e-05,3.7227e+07,-485.92,0,2.0722e+08,-32.49,12137,10979,1,10979,1,-0.0010642,-4.1787e-09,0,1.4422e-05,-0.00024229,-4.3282e+08,-1141.8,0,6.3067e+06,-217.85,10978,11571,1,11571,1,-0.00049554,-2.7755e-09,0,0.00030617,-0.00013585,-2.0153e+08,-836.2,0,1.0758e+08,-64.589,11570,12705,1,12705,1,0.00072913,-5.0933e-10,0,0.0009185,9.3219e-05,2.0722e+08,-139.14,0,2.9427e+08,-5.1043,12704,656.67,0,656.67,0,0.00070677,1.3519e-09,0,0.0003628,0.00013224,2.3435e+08,385.16,0,1.1581e+08,49.076,656.67,1
2268,4.3,12139,1,12139,1,0.0001172,-1.7325e-09,0,0.00061904,-2.1357e-05,-33.561,-502.56,0,2.0413e+08,-16.977,12138,13320,1,13320,1,0.001301,1.202e-09,0,0.001301,0.0002002,3.3936e+08,340.24,0,4.338e+08,58.426,13319,12138,1,12138,1,0.0001172,-1.3602e-09,0,0.0006138,-2.1265e-05,3.7358e+07,-381.84,0,2.0774e+08,-12.487,12137,10979,1,10979,1,-0.0010666,-5.8256e-09,0,1.4326e-05,-0.0002429,-4.338e+08,-1594.8,0,6.273e+06,-165.65,10978,11571,1,11571,1,-0.0004966,-3.2509e-09,0,0.0003069,-0.0001362,-2.0196e+08,-941.28,0,1.0784e+08,-40.701,11570,12705,1,12705,1,0.000731,-1.0636e-10,0,0.0009207,9.3418e-05,2.0774e+08,-32.351,0,2.9485e+08,9.6892,12704,656.67,0,656.67,0,0.00070845,1.8399e-09,0,0.0003637,0.00013255,2.3485e+08,530.74,0,1.1604e+08,37.282,656.67,1
2268,4.31,12139,1,12139,1,0.00011761,-1.7533e-09,0,0.00062052,-2.1433e-05,-8.6938,-505.44,0,2.0457e+08,-27.503,12138,13320,1,13320,1,0.0013042,3.8582e-09,0,0.0013042,0.00020065,3.3989e+08,1053,0,4.3479e+08,160.64,13319,12138,1,12138,1,0.00011761,-1.2879e-09,0,0.00061527,-2.1341e-05,3.7489e+07,-365.4,0,2.0826e+08,-30.18,12137,10979,1,10979,1,-0.001069,-7.728e-09,0,1.4228e-05,-0.0002435,-4.3479e+08,-2114.7,0,6.2391e+06,-176.96,10978,11571,1,11571,1,-0.00049765,-3.8749e-09,0,0.00030763,-0.00013655,-2.0239e+08,-1134.4,0,1.0809e+08,-73.724,11570,12705,1,12705,1,0.00073288,2.9284e-10,0,0.0009229,9.3616e-05,2.0826e+08,82.957,0,2.9543e+08,11.608,12704,656.67,0,656.67,0,0.00071014,2.6023e-09,0,0.00036459,0.00013287,2.3534e+08,747.64,0,1.1628e+08,63.334,656.67,1
2268,4.32,12139,1,12139,1,0.00011802,-2.3213e-09,0,0.000622,-2.1508e-05,-31.63,-669.26,0,2.05e+08,-1.5532,12138,13320,1,13320,1,0.0013075,7.8915e-09,0,0.0013075,0.00020111,3.4041e+08,2158,0,4.3577e+08,275.26,13319,12138,1,12138,1,0.00011802,-1.3473e-09,0,0.00061672,-2.1416e-05,3.762e+07,-360.79,0,2.0878e+08,-9.2433,12137,10979,1,10979,1,-0.0010714,-1.3022e-08,0,1.413e-05,-0.0002441,-4.3577e+08,-3564,0,6.2047e+06,-274.4,10978,11571,1,11571,1,-0.00049869,-6.306e-09,0,0.00030836,-0.00013689,-2.0282e+08,-1833.8,0,1.0834e+08,-72.205,11570,12705,1,12705,1,0.00073474,1.1759e-09,0,0.00092508,9.3813e-05,2.0878e+08,319.51,0,2.96e+08,62.656,12704,656.67,0,656.67,0,0.00071182,4.91e-09,0,0.00036548,0.00013318,2.3583e+08,1413.4,0,1.1651e+08,102.92,656.67,1
2268,4.33,12139,1,12139,1,0.00011844,-8.0328e-10,0,0.00062349,-2.1584e-05,127.36,-243.25,0,2.0544e+08,-37.045,12138,13320,1,13320,1,0.0013107,1.3937e-09,0,0.0013107,0.00020156,3.4093e+08,438.62,0,4.3674e+08,67.956,13319,12138,1,12138,1,0.00011844,-5.6637e-10,0,0.00061819,-2.1492e-05,3.7752e+07,-164.84,0,2.0931e+08,-27.548,12137,10979,1,10979,1,-0.0010738,-3.6287e-09,0,1.4031e-05,-0.0002447,-4.3674e+08,-1060.8,0,6.1702e+06,-232.42,10978,11571,1,11571,1,-0.00049975,-1.5692e-09,0,0.00030909,-0.00013725,-2.0325e+08,-473.91,0,1.0859e+08,-71.229,11570,12705,1,12705,1,0.00073663,6.4819e-11,0,0.00092728,9.4012e-05,2.0931e+08,18.466,0,2.9658e+08,-3.1574,12704,656.67,0,656.67,0,0.00071352,1.0449e-09,0,0.00036638,0.0001335,2.3633e+08,317.41,0,1.1674e+08,47.57,656.67,1
2268,4.34,12139,1,12139,1,0.00011885,3.2348e-10,0,0.00062498,-2.166e-05,-65.665,84.826,0,2.0588e+08,-13.632,12138,13320,1,13320,1,0.0013139,1.0635e-09,0,0.0013139,0.00020201,3.4145e+08,289.79,0,4.3772e+08,154.85,13319,12138,1,12138,1,0.00011885,3.23e-10,0,0.00061965,-2.1569e-05,3.7884e+07,91.153,0,2.0983e+08,-6.4016,12137,10979,1,10979,1,-0.0010762,-9.9522e-10,0,1.3932e-05,-0.0002453,-4.3772e+08,-340.51,0,6.1356e+06,-183.97,10978,11571,1,11571,1,-0.0005008,5.338e-11,0,0.00030983,-0.00013759,-2.0367e+08,15.842,0,1.0884e+08,-27.111,11570,12705,1,12705,1,0.0007385,5.7734e-10,0,0.00092948,9.421e-05,2.0983e+08,166.24,0,2.9715e+08,9.8848,12704,656.67,0,656.67,0,0.00071522,3.9523e-10,0,0.00036728,0.00013382,2.3683e+08,107.93,0,1.1697e+08,43.286,656.67,1
2268,4.35,12139,1,12139,1,0.00011927,-7.6975e-10,0,0.00062648,-2.1736e-05,48.432,-217.88,0,2.0632e+08,-20.285,12138,13320,1,13320,1,0.0013172,1.7425e-09,0,0.0013172,0.00020246,3.4197e+08,498.35,0,4.3871e+08,104.3,13319,12138,1,12138,1,0.00011927,-6.2659e-10,0,0.00062113,-2.1645e-05,3.8017e+07,-182.61,0,2.1035e+08,-18.105,12137,10979,1,10979,1,-0.0010786,-3.2918e-09,0,1.3832e-05,-0.00024591,-4.3871e+08,-892.38,0,6.1006e+06,-192.99,10978,11571,1,11571,1,-0.00050186,-1.7066e-09,0,0.00031056,-0.00013795,-2.041e+08,-487.84,0,1.0909e+08,-46.76,11570,12705,1,12705,1,0.00074039,2.342e-10,0,0.00093169,9.4408e-05,2.1035e+08,64.424,0,2.9772e+08,0.75233,12704,656.67,0,656.67,0,0.00071691,1.1428e-09,0,0.00036817,0.00013413,2.3732e+08,323.07,0,1.172e+08,43.636,656.67,1
2268,4.36,12139,1,12139,1,0.00011974,-9.4271e-10,0,0.00062799,-2.1822e-05,-139.92,-271.04,0,2.0674e+08,-40.609,12138,13320,1,13320,1,0.0013205,6.8377e-10,0,0.0013205,0.00020291,3.4245e+08,234.15,0,4.3968e+08,181.04,13319,12138,1,12138,1,0.00011974,-9.8087e-10,0,0.00062261,-2.1732e-05,3.8167e+07,-287.46,0,2.1084e+08,-38.248,12137,10979,1,10979,1,-0.001081,-2.8482e-09,0,1.3679e-05,-0.00024653,-4.3968e+08,-759.68,0,6.0463e+06,-275.75,10978,11571,1,11571,1,-0.00050288,-1.5645e-09,0,0.0003113,-0.00013831,-2.0452e+08,-459.17,0,1.0934e+08,-67.241,11570,12705,1,12705,1,0.00074235,-2.9015e-10,0,0.00093392,9.46e-05,2.1084e+08,-76.474,0,2.9827e+08,-14.446,12704,656.67,0,656.67,0,0.00071863,8.1612e-10,0,0.00036909,0.00013445,2.378e+08,229.38,0,1.1743e+08,50.696,656.67,1
2268,4.37,12139,1,12139,1,0.00012024,-2.0821e-09,0,0.00062949,-2.1914e-05,91.822,-596.44,0,2.0715e+08,-3.9959,12138,13320,1,13320,1,0.0013239,9.0234e-09,0,0.0013239,0.00020336,3.4289e+08,2427,0,4.4065e+08,409.56,13319,12138,1,12138,1,0.00012024,-1.6381e-09,0,0.00062409,-2.1824e-05,3.8326e+07,-458.91,0,2.1132e+08,-22.433,12137,10979,1,10979,1,-0.0010834,-1.1383e-08,0,1.3497e-05,-0.00024716,-4.4065e+08,-3093.4,0,5.9809e+06,-232.69,10978,11571,1,11571,1,-0.00050386,-5.7099e-09,0,0.00031204,-0.00013868,-2.0491e+08,-1669.6,0,1.0959e+08,-86.803,11570,12705,1,12705,1,0.00074433,9.3265e-10,0,0.00093614,9.4784e-05,2.1132e+08,246.03,0,2.9879e+08,39.294,12704,656.67,0,656.67,0,0.00072033,4.4713e-09,0,0.00037001,0.00013477,2.3826e+08,1266.3,0,1.1764e+08,121.18,656.67,1
2268,4.38,12139,1,12139,1,0.00012074,-2.7071e-09,0,0.00063103,-2.2007e-05,166.93,-782.97,0,2.0757e+08,-66.772,12138,13320,1,13320,1,0.0013273,1.9983e-09,0,0.0013273,0.00020381,3.4333e+08,654.42,0,4.4163e+08,97.775,13319,12138,1,12138,1,0.00012074,-2.1003e-09,0,0.0006256,-2.1918e-05,3.8488e+07,-602.31,0,2.118e+08,-54.666,12137,10979,1,10979,1,-0.0010858,-1.0224e-08,0,1.3311e-05,-0.00024779,-4.4163e+08,-2814.5,0,5.9142e+06,-287.34,10978,11571,1,11571,1,-0.00050486,-5.0394e-09,0,0.0003128,-0.00013905,-2.0532e+08,-1483.7,0,1.0984e+08,-132.37,11570,12705,1,12705,1,0.00074635,-1.7618e-10,0,0.0009384,9.4972e-05,2.118e+08,-46.035,0,2.9933e+08,-2.5096,12704,656.67,0,656.67,0,0.00072208,2.9674e-09,0,0.00037095,0.0001351,2.3874e+08,867.19,0,1.1786e+08,77.667,656.67,1
2268,4.39,12139,1,12139,1,0.00012125,-8.2328e-10,0,0.00063255,-2.21e-05,45.56,-256.24,0,2.0798e+08,-23.224,12138,13320,1,13320,1,0.0013307,4.1674e-09,0,0.0013307,0.00020425,3.4376e+08,1137.6,0,4.4258e+08,88.212,13319,12138,1,12138,1,0.00012125,-4.1916e-10,0,0.0006271,-2.2012e-05,3.8651e+07,-125.57,0,2.1227e+08,-7.0486,12137,10979,1,10979,1,-0.0010882,-5.0515e-09,0,1.3121e-05,-0.00024842,-4.4258e+08,-1410.2,0,5.846e+06,-214.11,10978,11571,1,11571,1,-0.00050584,-2.3966e-09,0,0.00031354,-0.00013943,-2.0572e+08,-722.23,0,1.101e+08,-64.817,11570,12705,1,12705,1,0.00074835,5.0576e-10,0,0.00094064,9.5158e-05,2.1227e+08,123.17,0,2.9985e+08,17.822,12704,656.67,0,656.67,0,0.0007238,2.0207e-09,0,0.00037188,0.00013542,2.392e+08,597.62,0,1.1807e+08,54.84,656.67,1
2268,4.4,12139,1,12139,1,0.00012177,-9.718e-10,0,0.0006341,-2.2195e-05,4.1497,-287.78,0,2.084e+08,-31.033,12138,13320,1,13320,1,0.0013341,5.3267e-10,0,0.0013341,0.0002047,3.442e+08,182.33,0,4.4356e+08,29.759,13319,12138,1,12138,1,0.00012177,-8.1444e-10,0,0.00062861,-2.2107e-05,3.8815e+07,-232.64,0,2.1275e+08,-22.136,12137,10979,1,10979,1,-0.0010906,-2.9485e-09,0,1.2932e-05,-0.00024905,-4.4356e+08,-836.4,0,5.7785e+06,-198.48,10978,11571,1,11571,1,-0.00050684,-1.6824e-09,0,0.0003143,-0.0001398,-2.0613e+08,-499.13,0,1.1035e+08,-54.78,11570,12705,1,12705,1,0.00075037,-2.4225e-10,0,0.00094291,9.5346e-05,2.1275e+08,-63.452,0,3.0038e+08,-3.0235,12704,656.67,0,656.67,0,0.00072555,8.6931e-10,0,0.00037283,0.00013574,2.3967e+08,265.34,0,1.1829e+08,33.857,656.67,1
2268,4.41,12139,1,12139,1,0.00012228,-3.3125e-09,0,0.00063559,-2.2288e-05,-49.299,-944.81,0,2.088e+08,-29.769,12138,13320,1,13320,1,0.0013375,5.3025e-09,0,0.0013375,0.00020515,3.4462e+08,1451,0,4.4452e+08,185.15,13319,12138,1,12138,1,0.00012228,-2.4345e-09,0,0.00063008,-2.2201e-05,3.8978e+07,-699.18,0,2.1322e+08,-20.514,12137,10979,1,10979,1,-0.0010929,-1.3591e-08,0,1.2739e-05,-0.00024968,-4.4452e+08,-3695.1,0,5.7092e+06,-288.82,10978,11571,1,11571,1,-0.0005078,-6.9134e-09,0,0.00031504,-0.00014017,-2.0652e+08,-2014.1,0,1.106e+08,-98.544,11570,12705,1,12705,1,0.00075236,3.4202e-10,0,0.00094512,9.5527e-05,2.1322e+08,97.905,0,3.0089e+08,36.391,12704,656.67,0,656.67,0,0.00072724,4.4574e-09,0,0.00037374,0.00013606,2.4013e+08,1270.4,0,1.185e+08,91.199,656.67,1
2268,4.42,12139,1,12139,1,0.00012279,-2.0795e-09,0,0.00063713,-2.2382e-05,93.945,-613.38,0,2.0922e+08,-40.78,12138,13320,1,13320,1,0.0013409,5.2323e-09,0,0.0013409,0.00020559,3.4505e+08,1428.2,0,4.4549e+08,183.34,13319,12138,1,12138,1,0.00012279,-1.4558e-09,0,0.00063159,-2.2296e-05,3.9142e+07,-401.77,0,2.137e+08,-32.225,12137,10979,1,10979,1,-0.0010953,-9.839e-09,0,1.2547e-05,-0.00025032,-4.4549e+08,-2720.9,0,5.6403e+06,-238.88,10978,11571,1,11571,1,-0.0005088,-4.7892e-09,0,0.00031579,-0.00014055,-2.0692e+08,-1416.4,0,1.1085e+08,-109.48,11570,12705,1,12705,1,0.00075438,4.1329e-10,0,0.00094738,9.5714e-05,2.137e+08,102.08,0,3.0142e+08,22.367,12704,656.67,0,656.67,0,0.00072898,3.3619e-09,0,0.00037468,0.00013639,2.406e+08,984.71,0,1.1871e+08,83.794,656.67,1
2268,4.43,12139,1,12139,1,0.0001233,-2.3371e-09,0,0.00063865,-2.2477e-05,205.13,-680.59,0,2.0963e+08,-46.831,12138,13320,1,13320,1,0.0013443,8.3584e-09,0,0.0013443,0.00020604,3.4547e+08,2285.1,0,4.4645e+08,226.32,13319,12138,1,12138,1,0.0001233,-1.2833e-09,0,0.00063308,-2.2391e-05,3.9306e+07,-345.55,0,2.1418e+08,-37.902,12137,10979,1,10979,1,-0.0010977,-1.373e-08,0,1.2351e-05,-0.00025095,-4.4645e+08,-3767.7,0,5.5702e+06,-317.4,10978,11571,1,11571,1,-0.00050977,-6.2838e-09,0,0.00031654,-0.00014092,-2.0732e+08,-1834.2,0,1.111e+08,-145.06,11570,12705,1,12705,1,0.00075638,1.145e-09,0,0.00094961,9.5897e-05,2.1418e+08,311.37,0,3.0194e+08,44.018,12704,656.67,0,656.67,0,0.0007307,4.9699e-09,0,0.00037561,0.00013671,2.4105e+08,1439.7,0,1.1893e+08,114.04,656.67,1
2268,4.44,12139,1,12139,1,0.00012382,-3.2513e-09,0,0.00064019,-2.2572e-05,-27.438,-941.69,0,2.1005e+08,-87.966,12138,13320,1,13320,1,0.0013477,1.2862e-09,0,0.0013477,0.00020649,3.459e+08,363.64,0,4.4742e+08,286.76,13319,12138,1,12138,1,0.00012382,-3.5231e-09,0,0.00063459,-2.2487e-05,3.9471e+07,-1019.3,0,2.1466e+08,-75.822,12137,10979,1,10979,1,-0.0011001,-8.422e-09,0,1.2156e-05,-0.00025158,-4.4742e+08,-2334.7,0,5.5004e+06,-376.18,10978,11571,1,11571,1,-0.00051076,-5.167e-09,0,0.00031729,-0.0001413,-2.0772e+08,-1468.5,0,1.1135e+08,-172.94,11570,12705,1,12705,1,0.00075841,-1.3118e-09,0,0.00095187,9.6084e-05,2.1466e+08,-384.35,0,3.0246e+08,-4.6776,12704,656.67,0,656.67,0,0.00073245,2.3389e-09,0,0.00037655,0.00013703,2.4152e+08,680.21,0,1.1914e+08,113.31,656.67,1
2268,4.45,12139,1,12139,1,0.00012434,-7.0377e-10,0,0.00064172,-2.2668e-05,-11.743,-227.09,0,2.1046e+08,-12.834,12138,13320,1,13320,1,0.0013511,3.0286e-09,0,0.0013511,0.00020693,3.4631e+08,817.25,0,4.4838e+08,82.029,13319,12138,1,12138,1,0.00012434,-4.5566e-10,0,0.00063609,-2.2583e-05,3.9637e+07,-135.19,0,2.1513e+08,-0.32799,12137,10979,1,10979,1,-0.0011024,-4.0149e-09,0,1.1958e-05,-0.00025221,-4.4838e+08,-1155.2,0,5.4293e+06,-230.22,10978,11571,1,11571,1,-0.00051174,-1.9817e-09,0,0.00031804,-0.00014167,-2.0812e+08,-601.79,0,1.116e+08,-41.328,11570,12705,1,12705,1,0.00076043,4.5099e-10,0,0.00095412,9.6268e-05,2.1513e+08,106.67,0,3.0298e+08,20.215,12704,656.67,0,656.67,0,0.00073418,1.6111e-09,0,0.00037749,0.00013735,2.4199e+08,474.61,0,1.1935e+08,49.339,656.67,1
2268,4.46,12139,1,12139,1,0.00012486,-2.6072e-09,0,0.00064322,-2.2762e-05,75.03,-749.63,0,2.1086e+08,-36.399,12138,13320,1,13320,1,0.0013545,7.5018e-09,0,0.0013545,0.00020737,3.4672e+08,2038.4,0,4.4933e+08,193.71,13319,12138,1,12138,1,0.00012486,-1.7232e-09,0,0.00063756,-2.2679e-05,3.9802e+07,-455.78,0,2.156e+08,-25.62,12137,10979,1,10979,1,-0.0011048,-1.2962e-08,0,1.1759e-05,-0.00025284,-4.4933e+08,-3543.4,0,5.3583e+06,-375.66,10978,11571,1,11571,1,-0.0005127,-6.3304e-09,0,0.00031878,-0.00014204,-2.0851e+08,-1838.3,0,1.1185e+08,-113.79,11570,12705,1,12705,1,0.00076242,9.3399e-10,0,0.00095634,9.6449e-05,2.156e+08,245.57,0,3.0348e+08,36.965,12704,656.67,0,656.67,0,0.00073587,4.6049e-09,0,0.00037841,0.00013767,2.4244e+08,1320.9,0,1.1956e+08,94.026,656.67,1
2268,4.47,12139,1,12139,1,0.00012538,-1.945e-10,0,0.00064477,-2.2858e-05,-31.464,-75.245,0,2.1128e+08,-44.033,12138,13320,1,13320,1,0.0013579,3.7381e-09,0,0.0013579,0.00020781,3.4714e+08,1093.2,0,4.503e+08,64.514,13319,12138,1,12138,1,0.00012538,1.055e-10,0,0.00063908,-2.2775e-05,3.9969e+07,27.357,0,2.1608e+08,-28.918,12137,10979,1,10979,1,-0.0011071,-2.8569e-09,0,1.1561e-05,-0.00025348,-4.503e+08,-853.79,0,5.2873e+06,-218.03,10978,11571,1,11571,1,-0.0005137,-1.2307e-09,0,0.00031954,-0.00014242,-2.0892e+08,-378.62,0,1.1211e+08,-93.529,11570,12705,1,12705,1,0.00076446,6.5824e-10,0,0.00095861,9.6636e-05,2.1608e+08,155.69,0,3.0401e+08,3.3852,12704,656.67,0,656.67,0,0.00073763,1.2989e-09,0,0.00037936,0.000138,2.4291e+08,394.2,0,1.1978e+08,57.216,656.67,1
2268,4.48,12139,1,12139,1,0.0001259,-2.8609e-09,0,0.00064629,-2.2954e-05,-49.6,-816.49,0,2.1168e+08,-40.934,12138,13320,1,13320,1,0.0013613,4.8847e-09,0,0.0013613,0.00020826,3.4755e+08,1367.5,0,4.5127e+08,196.67,13319,12138,1,12138,1,0.0001259,-2.3671e-09,0,0.00064057,-2.2872e-05,4.0136e+07,-662.89,0,2.1656e+08,-36.132,12137,10979,1,10979,1,-0.0011095,-1.1367e-08,0,1.1358e-05,-0.00025412,-4.5127e+08,-3102.8,0,5.2146e+06,-228.29,10978,11571,1,11571,1,-0.00051466,-5.919e-09,0,0.00032028,-0.0001428,-2.0931e+08,-1738,0,1.1236e+08,-106.34,11570,12705,1,12705,1,0.00076648,2.2821e-10,0,0.00096086,9.6819e-05,2.1656e+08,57.219,0,3.0452e+08,16.543,12704,656.67,0,656.67,0,0.00073935,3.7333e-09,0,0.0003803,0.00013832,2.4337e+08,1070.3,0,1.1999e+08,84.932,656.67,1
2268,4.49,12139,1,12139,1,0.00012643,-1.9505e-09,0,0.00064783,-2.3051e-05,64.507,-574.48,0,2.121e+08,-46.093,12138,13320,1,13320,1,0.0013648,1.3475e-09,0,0.0013648,0.00020871,3.4797e+08,452.77,0,4.5224e+08,66.231,13319,12138,1,12138,1,0.00012643,-1.3274e-09,0,0.00064209,-2.297e-05,4.0305e+07,-384.67,0,2.1704e+08,-35.896,12137,10979,1,10979,1,-0.0011119,-7.6977e-09,0,1.1153e-05,-0.00025475,-4.5224e+08,-2132.9,0,5.1413e+06,-237.98,10978,11571,1,11571,1,-0.00051565,-3.7896e-09,0,0.00032104,-0.00014317,-2.0971e+08,-1118,0,1.1261e+08,-96.096,11570,12705,1,12705,1,0.00076852,-1.4885e-11,0,0.00096312,9.7004e-05,2.1704e+08,-3.3372,0,3.0504e+08,5.5076,12704,656.67,0,656.67,0,0.0007411,2.2762e-09,0,0.00038124,0.00013865,2.4383e+08,673.73,0,1.202e+08,61.849,656.67,1
2268,4.5,12139,1,12139,1,0.00012696,-2.9785e-10,0,0.00064936,-2.3148e-05,8.4168,-105.62,0,2.125e+08,-5.1685,12138,13320,1,13320,1,0.0013682,8.4495e-09,0,0.0013682,0.00020915,3.4837e+08,2284.7,0,4.5319e+08,262.13,13319,12138,1,12138,1,0.00012696,-2.1908e-10,0,0.00064358,-2.3067e-05,4.0473e+07,-59.805,0,2.1751e+08,0.77641,12137,10979,1,10979,1,-0.0011142,-5.7906e-09,0,1.0947e-05,-0.00025538,-4.5319e+08,-1604.2,0,5.0674e+06,-321.64,10978,11571,1,11571,1,-0.00051662,-2.4525e-09,0,0.00032179,-0.00014355,-2.101e+08,-730.36,0,1.1286e+08,-59.522,11570,12705,1,12705,1,0.00077054,1.1494e-09,0,0.00096536,9.7186e-05,2.1751e+08,306.01,0,3.0555e+08,38.124,12704,656.67,0,656.67,0,0.00074282,2.9904e-09,0,0.00038218,0.00013897,2.4429e+08,864.43,0,1.2041e+08,87.949,656.67,1
2268,4.51,12139,1,12139,1,0.00012749,-2.2693e-09,0,0.00065089,-2.3245e-05,22.027,-653.04,0,2.1291e+08,-54.915,12138,13320,1,13320,1,0.0013716,6.4425e-10,0,0.0013716,0.00020959,3.4877e+08,158,0,4.5415e+08,75.721,13319,12138,1,12138,1,0.00012749,-2.4597e-09,0,0.00064507,-2.3165e-05,4.0641e+07,-697.31,0,2.1798e+08,-47.688,12137,10979,1,10979,1,-0.0011166,-6.5088e-09,0,1.0741e-05,-0.00025602,-4.5415e+08,-2102.2,0,4.994e+06,-464.06,10978,11571,1,11571,1,-0.00051758,-3.3833e-09,0,0.00032253,-0.00014393,-2.105e+08,-977.82,0,1.1311e+08,-95.354,11570,12705,1,12705,1,0.00077256,-1.1029e-09,0,0.00096761,9.7369e-05,2.1798e+08,-304.26,0,3.0606e+08,-10.335,12704,656.67,0,656.67,0,0.00074455,1.4842e-09,0,0.00038312,0.00013929,2.4475e+08,434.19,0,1.2062e+08,62.374,656.67,1
2268,4.52,12139,1,12139,1,0.00012802,-2.9326e-10,0,0.00065242,-2.3342e-05,153.85,-100.88,0,2.1332e+08,0.24949,12138,13320,1,13320,1,0.001375,5.9728e-09,0,0.001375,0.00021004,3.4917e+08,1603.6,0,4.5511e+08,196.09,13319,12138,1,12138,1,0.00012802,-2.8163e-10,0,0.00064658,-2.3263e-05,4.0811e+07,-84.721,0,2.1846e+08,2.3236,12137,10979,1,10979,1,-0.001119,-4.3131e-09,0,1.0533e-05,-0.00025665,-4.5511e+08,-1206.1,0,4.9195e+06,-313.87,10978,11571,1,11571,1,-0.00051856,-1.7536e-09,0,0.00032329,-0.0001443,-2.109e+08,-515.72,0,1.1336e+08,-33.107,11570,12705,1,12705,1,0.0007746,6.8418e-10,0,0.00096987,9.7552e-05,2.1846e+08,185.56,0,3.0657e+08,33.921,12704,656.67,0,656.67,0,0.00074629,2.0947e-09,0,0.00038406,0.00013961,2.4521e+08,601.58,0,1.2083e+08,70.065,656.67,1
2268,4.53,12139,1,12139,1,0.00012855,2.0424e-09,0,0.00065395,-2.344e-05,-81.307,564.75,0,2.1373e+08,47.685,12138,13320,1,13320,1,0.0013785,1.0556e-08,0,0.0013785,0.00021048,3.4958e+08,2838.5,0,4.5608e+08,372.27,13319,12138,1,12138,1,0.00012855,1.4286e-09,0,0.00064808,-2.3361e-05,4.0981e+07,396.1,0,2.1893e+08,49.957,12137,10979,1,10979,1,-0.0011213,-2.6285e-09,0,1.0324e-05,-0.00025729,-4.5608e+08,-819.42,0,4.8445e+06,-502.69,10978,11571,1,11571,1,-0.00051953,-1.717e-10,0,0.00032404,-0.00014468,-2.1129e+08,-45.343,0,1.1361e+08,-8.5775,11570,12705,1,12705,1,0.00077663,3.8311e-09,0,0.00097212,9.7735e-05,2.1893e+08,1064.3,0,3.0708e+08,118.77,12704,656.67,0,656.67,0,0.00074802,2.7355e-09,0,0.000385,0.00013994,2.4566e+08,770.07,0,1.2104e+08,128.51,656.67,1
2268,4.54,12139,1,12139,1,0.00012908,-1.8705e-09,0,0.00065548,-2.3538e-05,-7.5681,-511.81,0,2.1413e+08,-49.136,12138,13320,1,13320,1,0.0013819,1.751e-09,0,0.0013819,0.00021092,3.4997e+08,589.18,0,4.5704e+08,87.592,13319,12138,1,12138,1,0.00012908,-1.7996e-09,0,0.00064958,-2.346e-05,4.1151e+07,-491.31,0,2.1941e+08,-43.311,12137,10979,1,10979,1,-0.0011237,-5.8397e-09,0,1.0111e-05,-0.00025793,-4.5704e+08,-1577.3,0,4.7687e+06,-309.3,10978,11571,1,11571,1,-0.0005205,-3.2955e-09,0,0.00032479,-0.00014506,-2.1168e+08,-934,0,1.1386e+08,-94.422,11570,12705,1,12705,1,0.00077866,-3.0659e-10,0,0.00097437,9.7917e-05,2.1941e+08,-86.012,0,3.0758e+08,-7.0282,12704,656.67,0,656.67,0,0.00074975,1.8347e-09,0,0.00038594,0.00014026,2.4612e+08,513.4,0,1.2125e+08,63.714,656.67,1
2268,4.55,12139,1,12139,1,0.00012961,-1.7404e-09,0,0.00065699,-2.3635e-05,213.82,-499.82,0,2.1453e+08,-62.674,12138,13320,1,13320,1,0.0013853,2.7306e-09,0,0.0013853,0.00021136,3.5035e+08,820,0,4.5798e+08,85.005,13319,12138,1,12138,1,0.00012961,-1.4579e-09,0,0.00065106,-2.3558e-05,4.132e+07,-407.98,0,2.1988e+08,-49.926,12137,10979,1,10979,1,-0.001126,-7.0533e-09,0,9.8986e-06,-0.00025856,-4.5798e+08,-1946.9,0,4.6927e+06,-743.85,10978,11571,1,11571,1,-0.00052144,-3.4571e-09,0,0.00032553,-0.00014543,-2.1207e+08,-1011.9,0,1.1411e+08,-110.19,11570,12705,1,12705,1,0.00078067,1.5544e-10,0,0.00097659,9.8095e-05,2.1988e+08,38.233,0,3.0808e+08,-8.3256,12704,656.67,0,656.67,0,0.00075146,2.1511e-09,0,0.00038687,0.00014058,2.4657e+08,622.37,0,1.2146e+08,77.525,656.67,1
2268,4.56,12139,1,12139,1,0.00013014,-2.11e-09,0,0.00065852,-2.3733e-05,82.398,-609.73,0,2.1494e+08,-67.743,12138,13320,1,13320,1,0.0013887,3.5392e-09,0,0.0013887,0.0002118,3.5075e+08,1138.6,0,4.5894e+08,262.39,13319,12138,1,12138,1,0.00013014,-1.8359e-09,0,0.00065256,-2.3656e-05,4.149e+07,-522.21,0,2.2035e+08,-46.079,12137,10979,1,10979,1,-0.0011284,-7.7466e-09,0,9.6861e-06,-0.0002592,-4.5894e+08,-2130.1,0,4.6169e+06,-4696.3,10978,11571,1,11571,1,-0.00052241,-3.9642e-09,0,0.00032627,-0.00014581,-2.1246e+08,-1161.5,0,1.1436e+08,-104.91,11570,12705,1,12705,1,0.0007827,-4.3068e-11,0,0.00097883,9.8277e-05,2.2035e+08,-13.848,0,3.0859e+08,-1.2916,12704,656.67,0,656.67,0,0.00075319,2.3502e-09,0,0.00038781,0.0001409,2.4703e+08,685.32,0,1.2167e+08,256.13,656.67,1
2268,4.57,12139,1,12139,1,0.00013068,5.7456e-10,0,0.00066006,-2.3832e-05,-115.09,138.23,0,2.1535e+08,-8.7348,12138,13320,1,13320,1,0.0013921,5.441e-09,0,0.0013921,0.00021224,3.5114e+08,1507.5,0,4.599e+08,121.44,13319,12138,1,12138,1,0.00013068,3.4228e-10,0,0.00065406,-2.3756e-05,4.1662e+07,83.087,0,2.2082e+08,13.538,12137,10979,1,10979,1,-0.0011307,-2.6311e-09,0,9.4709e-06,-0.00025983,-4.599e+08,-897.9,0,4.5397e+06,-3958.8,10978,11571,1,11571,1,-0.00052338,-4.5722e-10,0,0.00032703,-0.00014619,-2.1286e+08,-150.74,0,1.1461e+08,-10.335,11570,12705,1,12705,1,0.00078474,1.4889e-09,0,0.00098109,9.846e-05,2.2082e+08,372.85,0,3.0909e+08,43.938,12704,656.67,0,656.67,0,0.00075493,1.4343e-09,0,0.00038876,0.00014122,2.4748e+08,408.81,0,1.2188e+08,201.29,656.67,1
2268,4.58,12139,1,12139,1,0.00013122,-1.9566e-09,0,0.00066158,-2.3931e-05,113.1,-549.44,0,2.1575e+08,-49.621,12138,13320,1,13320,1,0.0013955,6.5681e-09,0,0.0013955,0.00021269,3.5153e+08,1829,0,4.6086e+08,175.99,13319,12138,1,12138,1,0.00013122,-1.6915e-09,0,0.00065556,-2.3855e-05,4.1834e+07,-455.07,0,2.213e+08,-24.489,12137,10979,1,10979,1,-0.0011331,-9.0072e-09,0,9.2539e-06,-0.00026047,-4.6086e+08,-2443.9,0,4.4624e+06,-3182,10978,11571,1,11571,1,-0.00052433,-4.5716e-09,0,0.00032778,-0.00014657,-2.1324e+08,-1333,0,1.1486e+08,-86.481,11570,12705,1,12705,1,0.00078678,4.8362e-10,0,0.00098333,9.8639e-05,2.213e+08,130.91,0,3.0959e+08,20.999,12704,656.67,0,656.67,0,0.00075665,3.2526e-09,0,0.0003897,0.00014155,2.4794e+08,928.67,0,1.2209e+08,245.24,656.67,1
2268,4.59,12139,1,12139,1,0.00013176,-3.7114e-09,0,0.0006631,-2.4029e-05,-44.429,-1065.4,0,2.1615e+08,-40.341,12138,13320,1,13320,1,0.001399,1.3691e-09,0,0.001399,0.00021313,3.5191e+08,432.06,0,4.6181e+08,1464.6,13319,12138,1,12138,1,0.00013176,-3.5315e-09,0,0.00065705,-2.3954e-05,4.2005e+07,-986.75,0,2.2177e+08,-51.931,12137,10979,1,10979,1,-0.0011354,-1.0384e-08,0,9.0342e-06,-0.00026111,-4.6181e+08,-2871.5,0,4.3836e+06,-274.54,10978,11571,1,11571,1,-0.00052529,-6.086e-09,0,0.00032852,-0.00014694,-2.1363e+08,-1793.1,0,1.1511e+08,-112.99,11570,12705,1,12705,1,0.0007888,-1.1281e-09,0,0.00098557,9.8819e-05,2.2177e+08,-285.24,0,3.1009e+08,4.7771,12704,656.67,0,656.67,0,0.00075837,2.9907e-09,0,0.00039064,0.00014187,2.4839e+08,866.93,0,1.2229e+08,146.26,656.67,1
2268,4.6,12139,1,12139,1,0.0001323,-1.6077e-09,0,0.00066466,-2.413e-05,25.787,-481.48,0,2.1656e+08,-92.693,12138,13320,1,13320,1,0.0014024,1.16e-09,0,0.0014024,0.00021357,3.523e+08,323.06,0,4.6278e+08,116.55,13319,12138,1,12138,1,0.0001323,-1.7544e-09,0,0.00065857,-2.4055e-05,4.2179e+07,-514.61,0,2.2224e+08,-47.118,12137,10979,1,10979,1,-0.0011378,-5.864e-09,0,8.8142e-06,-0.00026175,-4.6278e+08,-1884.6,0,4.3052e+06,-1556.3,10978,11571,1,11571,1,-0.00052626,-2.8219e-09,0,0.00032928,-0.00014733,-2.1403e+08,-858.51,0,1.1537e+08,-126.46,11570,12705,1,12705,1,0.00079087,-2.6846e-10,0,0.00098784,9.9002e-05,2.2224e+08,-75.543,0,3.106e+08,-2.3346,12704,656.67,0,656.67,0,0.00076013,1.5379e-09,0,0.00039159,0.00014219,2.4885e+08,445.97,0,1.225e+08,208,656.67,1
2268,4.61,12139,1,12139,1,0.00013285,-2.6988e-09,0,0.00066618,-2.423e-05,149.38,-781.33,0,2.1696e+08,-17.333,12138,13320,1,13320,1,0.0014059,1.8891e-09,0,0.0014059,0.00021402,3.5267e+08,605.45,0,4.6374e+08,2191.8,13319,12138,1,12138,1,0.00013285,-2.4526e-09,0,0.00066006,-2.4156e-05,4.2353e+07,-702.88,0,2.2271e+08,-38.33,12137,10979,1,10979,1,-0.0011402,-9.2102e-09,0,8.5901e-06,-0.00026239,-4.6374e+08,-2522.5,0,4.2249e+06,-441.45,10978,11571,1,11571,1,-0.00052721,-4.7862e-09,0,0.00033003,-0.00014771,-2.1441e+08,-1408.8,0,1.1562e+08,-86.546,11570,12705,1,12705,1,0.00079291,-3.6332e-10,0,0.00099009,9.9181e-05,2.2272e+08,-95.501,0,3.1109e+08,15.435,12704,656.67,0,656.67,0,0.00076185,2.7194e-09,0,0.00039253,0.00014252,2.493e+08,778.75,0,1.2271e+08,199.74,656.67,1
2268,4.62,12139,1,12139,1,0.00013339,-5.0264e-10,0,0.00066771,-2.4329e-05,37.457,-174.27,0,2.1736e+08,-7.2918,12138,13320,1,13320,1,0.0014093,5.7814e-09,0,0.0014093,0.00021445,3.5305e+08,1658.8,0,4.6468e+08,215.16,13319,12138,1,12138,1,0.00013339,-4.0107e-10,0,0.00066156,-2.4257e-05,4.2527e+07,-123.01,0,2.2316e+08,7.6212,12137,10979,1,10979,1,-0.0011425,-4.9608e-09,0,8.3664e-06,-0.00026302,-4.6468e+08,-1535.9,0,4.145e+06,-572.23,10978,11571,1,11571,1,-0.00052816,-2.2812e-09,0,0.00033078,-0.00014809,-2.148e+08,-689.71,0,1.1587e+08,-36.819,11570,12705,1,12705,1,0.00079495,7.2872e-10,0,0.00099233,9.9361e-05,2.2319e+08,185.87,0,3.1159e+08,45.153,12704,656.67,0,656.67,0,0.00076358,2.3173e-09,0,0.00039348,0.00014284,2.4975e+08,668.93,0,1.2292e+08,97.825,656.67,1
2268,4.63,12139,1,12139,1,0.00013394,1.6461e-10,0,0.00066925,-2.443e-05,-3.4083,32.773,0,2.1777e+08,-63.639,12138,13320,1,13320,1,0.0014127,2.9416e-09,0,0.0014127,0.00021489,3.5342e+08,910.29,0,4.6564e+08,50.2,13319,12138,1,12138,1,0.00013394,2.3162e-11,0,0.00066307,-2.4359e-05,4.2703e+07,6.4982,0,2.2362e+08,-35.354,12137,10979,1,10979,1,-0.0011448,-1.9958e-09,0,8.1433e-06,-0.00026366,-4.6564e+08,-618.28,0,4.0656e+06,-1326.1,10978,11571,1,11571,1,-0.00052913,-2.9986e-10,0,0.00033153,-0.00014847,-2.1519e+08,-92.043,0,1.1612e+08,-61.734,11570,12705,1,12705,1,0.00079701,4.6202e-10,0,0.0009946,9.9542e-05,2.2366e+08,126.02,0,3.1209e+08,-11.353,12704,656.67,0,656.67,0,0.00076533,6.683e-10,0,0.00039443,0.00014316,2.5021e+08,183.78,0,1.2313e+08,169.8,656.67,1
2268,4.64,12139,1,12139,1,0.00013449,-1.7143e-09,0,0.00067076,-2.453e-05,56.634,-481.36,0,2.1816e+08,29.016,12138,13320,1,13320,1,0.0014162,9.3276e-09,0,0.0014162,0.00021533,3.5379e+08,2887.1,0,4.6659e+08,2212.8,13319,12138,1,12138,1,0.00013449,-1.5488e-09,0,0.00066455,-2.4459e-05,4.2877e+07,-406.53,0,2.2407e+08,2.2242,12137,10979,1,10979,1,-0.0011472,-1.0519e-08,0,7.9163e-06,-0.0002643,-4.6659e+08,-3255.9,0,3.9843e+06,-343.81,10978,11571,1,11571,1,-0.00053006,-4.7237e-09,0,0.00033228,-0.00014885,-2.1557e+08,-1389.8,0,1.1637e+08,-50.461,11570,12705,1,12705,1,0.00079904,8.5711e-10,0,0.00099683,9.9719e-05,2.2413e+08,228,0,3.1257e+08,57.521,12704,656.67,0,656.67,0,0.00076703,3.8278e-09,0,0.00039536,0.00014348,2.5065e+08,1088.5,0,1.2333e+08,168.06,656.67,1
2268,4.65,12139,1,12139,1,0.00013503,-8.0636e-10,0,0.0006723,-2.4631e-05,67.586,-243.17,0,2.1856e+08,-40.583,12138,13320,1,13320,1,0.0014196,5.0539e-09,0,0.0014196,0.00021577,3.5416e+08,1567.5,0,4.6754e+08,773.78,13319,12138,1,12138,1,0.00013504,-6.2182e-10,0,0.00066606,-2.4561e-05,4.3052e+07,-176.31,0,2.2452e+08,-18.05,12137,10979,1,10979,1,-0.0011495,-6.6273e-09,0,7.6887e-06,-0.00026494,-4.6754e+08,-2051.7,0,3.9035e+06,-2045.1,10978,11571,1,11571,1,-0.00053102,-1.721e-09,0,0.00033303,-0.00014923,-2.1596e+08,-516.78,0,1.1662e+08,-65.233,11570,12705,1,12705,1,0.00080109,1.2839e-10,0,0.00099908,9.9899e-05,2.246e+08,30.569,0,3.1307e+08,2.783,12704,656.67,0,656.67,0,0.00076877,1.252e-09,0,0.00039631,0.00014381,2.511e+08,381.03,0,1.2354e+08,158.02,656.67,1
2268,4.66,12139,1,12139,1,0.00013559,2.3223e-10,0,0.00067385,-2.4732e-05,1.47,53.661,0,2.1897e+08,-24.072,12138,13320,1,13320,1,0.0014231,5.9322e-09,0,0.0014231,0.00021621,3.5453e+08,1835.7,0,4.685e+08,68.817,13319,12138,1,12138,1,0.00013559,1.6927e-10,0,0.00066757,-2.4663e-05,4.3229e+07,46.087,0,2.2498e+08,-4.1302,12137,10979,1,10979,1,-0.0011519,-5.1405e-09,0,7.4594e-06,-0.00026558,-4.685e+08,-1595.3,0,3.8216e+06,-1838.7,10978,11571,1,11571,1,-0.00053198,-5.2146e-10,0,0.00033378,-0.00014961,-2.1635e+08,-158.11,0,1.1687e+08,-31.55,11570,12705,1,12705,1,0.00080316,9.129e-10,0,0.0010014,0.00010008,2.2508e+08,234.36,0,3.1356e+08,18.447,12704,656.67,0,656.67,0,0.00077052,1.2864e-09,0,0.00039727,0.00014413,2.5155e+08,377.31,0,1.2374e+08,128.79,656.67,1
2268,4.67,12139,1,12139,1,0.00013613,-3.3729e-09,0,0.00067534,-2.4832e-05,-61.498,-953.03,0,2.1935e+08,-3.0938,12138,13320,1,13320,1,0.0014265,8.9564e-09,0,0.0014265,0.00021665,3.5488e+08,2452.9,0,4.6944e+08,357.97,13319,12138,1,12138,1,0.00013614,-2.8443e-09,0,0.00066903,-2.4764e-05,4.3403e+07,-787.58,0,2.2542e+08,-10.799,12137,10979,1,10979,1,-0.0011542,-1.781e-08,0,7.2271e-06,-0.00026621,-4.6944e+08,-5516.2,0,3.7385e+06,-4026,10978,11571,1,11571,1,-0.0005329,-7.2803e-09,0,0.00033452,-0.00014998,-2.1672e+08,-2105.2,0,1.1711e+08,-69.982,11570,12705,1,12705,1,0.00080517,4.3042e-10,0,0.0010035,0.00010025,2.2553e+08,115.63,0,3.1404e+08,64.249,12704,656.67,0,656.67,0,0.0007722,5.0022e-09,0,0.00039819,0.00014445,2.5199e+08,1425.9,0,1.2394e+08,173.39,656.67,1
2268,4.68,12139,1,12139,1,0.00013668,-2.4233e-09,0,0.00067687,-2.4933e-05,47.263,-708.43,0,2.1975e+08,-38.396,12138,13320,1,13320,1,0.0014299,5.9035e-09,0,0.0014299,0.00021708,3.5525e+08,1690.4,0,4.7039e+08,169.68,13319,12138,1,12138,1,0.00013668,-1.5492e-09,0,0.00067053,-2.4866e-05,4.3579e+07,-414.09,0,2.2587e+08,-23.953,12137,10979,1,10979,1,-0.0011565,-1.1082e-08,0,6.9965e-06,-0.00026685,-4.7039e+08,-3065.8,0,3.656e+06,-308.1,10978,11571,1,11571,1,-0.00053384,-5.4409e-09,0,0.00033526,-0.00015036,-2.1711e+08,-1604,0,1.1736e+08,-114.92,11570,12705,1,12705,1,0.00080722,5.3474e-10,0,0.0010058,0.00010043,2.26e+08,136.71,0,3.1453e+08,33.793,12704,656.67,0,656.67,0,0.00077393,3.8816e-09,0,0.00039914,0.00014477,2.5244e+08,1140.2,0,1.2415e+08,98.355,656.67,1
2268,4.69,12139,1,12139,1,0.00013724,-1.0836e-09,0,0.00067843,-2.5036e-05,187.88,-330,0,2.2016e+08,-70.478,12138,13320,1,13320,1,0.0014334,1.0086e-08,0,0.0014334,0.00021753,3.5562e+08,3121.7,0,4.7135e+08,262.02,13319,12138,1,12138,1,0.00013724,-9.8508e-10,0,0.00067206,-2.497e-05,4.3757e+07,-287.91,0,2.2633e+08,-60.799,12137,10979,1,10979,1,-0.0011589,-6.3431e-09,0,6.7629e-06,-0.0002675,-4.7135e+08,-1963.7,0,3.5728e+06,-1297.3,10978,11571,1,11571,1,-0.00053481,-3.0021e-09,0,0.00033602,-0.00015075,-2.175e+08,-900.55,0,1.1762e+08,-131.01,11570,12705,1,12705,1,0.0008093,6.3011e-10,0,0.0010081,0.00010061,2.2648e+08,149.58,0,3.1503e+08,3.9878,12704,656.67,0,656.67,0,0.00077569,2.5281e-09,0,0.0004001,0.0001451,2.5289e+08,746.99,0,1.2436e+08,145.38,656.67,1
2268,4.7,12139,1,12139,1,0.00013781,-1.7165e-09,0,0.00067997,-2.5139e-05,175.1,-500.2,0,2.2056e+08,-31.486,12138,13320,1,13320,1,0.0014369,8.3336e-09,0,0.0014369,0.00021797,3.5597e+08,2302.7,0,4.7231e+08,411.96,13319,12138,1,12138,1,0.00013781,-1.4761e-09,0,0.00067357,-2.5074e-05,4.3937e+07,-410.68,0,2.2679e+08,-46.768,12137,10979,1,10979,1,-0.0011612,-8.4532e-09,0,6.5244e-06,-0.00026814,-4.7231e+08,-2322.2,0,3.4874e+06,-326.8,10978,11571,1,11571,1,-0.00053575,-4.1328e-09,0,0.00033678,-0.00015114,-2.1789e+08,-1217.7,0,1.1787e+08,-115.09,11570,12705,1,12705,1,0.00081137,3.9472e-10,0,0.0010103,0.00010079,2.2695e+08,94.518,0,3.1551e+08,37.102,12704,656.67,0,656.67,0,0.00077744,3.2099e-09,0,0.00040106,0.00014542,2.5334e+08,929.48,0,1.2456e+08,135.31,656.67,1
2268,4.71,12139,1,12139,1,0.00013836,-2.8105e-09,0,0.00068148,-2.5241e-05,123.3,-809.73,0,2.2095e+08,-26.646,12138,13320,1,13320,1,0.0014403,7.2557e-09,0,0.0014403,0.00021841,3.5632e+08,2055.8,0,4.7325e+08,284.18,13319,12138,1,12138,1,0.00013836,-2.6937e-09,0,0.00067505,-2.5177e-05,4.4115e+07,-731.55,0,2.2723e+08,-21.061,12137,10979,1,10979,1,-0.0011636,-1.139e-08,0,6.2852e-06,-0.00026878,-4.7325e+08,-3134.5,0,3.402e+06,-350.15,10978,11571,1,11571,1,-0.00053668,-5.9173e-09,0,0.00033752,-0.00015152,-2.1827e+08,-1734.8,0,1.1812e+08,-113.09,11570,12705,1,12705,1,0.00081341,4.0426e-10,0,0.0010126,0.00010096,2.2742e+08,105.53,0,3.1599e+08,64.827,12704,656.67,0,656.67,0,0.00077915,3.9849e-09,0,0.000402,0.00014574,2.5378e+08,1152.5,0,1.2476e+08,129.11,656.67,1
2268,4.72,12139,1,12139,1,0.00013899,-3.411e-09,0,0.00068302,-2.5356e-05,340.94,-997.56,0,2.2132e+08,-44.068,12138,13320,1,13320,1,0.0014439,1.4322e-08,0,0.0014439,0.00021884,3.5663e+08,3957.9,0,4.7419e+08,514.3,13319,12138,1,12138,1,0.00013899,-2.6993e-09,0,0.00067656,-2.5293e-05,4.4315e+07,-775.91,0,2.2765e+08,-33.936,12137,10979,1,10979,1,-0.0011659,-1.9025e-08,0,5.9777e-06,-0.00026944,-4.7419e+08,-5246.9,0,3.2914e+06,-469.59,10978,11571,1,11571,1,-0.00053756,-9.4175e-09,0,0.00033827,-0.00015191,-2.1862e+08,-2757,0,1.1836e+08,-189.98,11570,12705,1,12705,1,0.00081555,1.7411e-09,0,0.0010148,0.00010113,2.2784e+08,431.2,0,3.1644e+08,95.201,12704,656.67,0,656.67,0,0.00078088,7.3484e-09,0,0.00040296,0.00014606,2.542e+08,2125.8,0,1.2495e+08,193.45,656.67,1
2268,4.73,12139,1,12139,1,0.00013965,-2.9542e-09,0,0.00068461,-2.5477e-05,29.548,-891.78,0,2.217e+08,-66.203,12138,13320,1,13320,1,0.0014475,5.3235e-09,0,0.0014475,0.00021927,3.5693e+08,1667.9,0,4.7513e+08,234.7,13319,12138,1,12138,1,0.00013965,-2.1899e-09,0,0.00067812,-2.5416e-05,4.4526e+07,-594.64,0,2.2807e+08,-45.72,12137,10979,1,10979,1,-0.0011682,-1.2549e-08,0,5.6464e-06,-0.00027012,-4.7513e+08,-3511,0,3.1721e+06,-445.32,10978,11571,1,11571,1,-0.00053845,-6.4149e-09,0,0.00033904,-0.00015232,-2.1898e+08,-1910.7,0,1.1862e+08,-176.42,11570,12705,1,12705,1,0.00081776,2.5498e-10,0,0.0010172,0.0001013,2.2827e+08,59.863,0,3.169e+08,42.287,12704,656.67,0,656.67,0,0.00078267,4.0833e-09,0,0.00040396,0.0001464,2.5463e+08,1239.2,0,1.2515e+08,145.44,656.67,1
2268,4.74,12139,1,12139,1,0.00014033,-2.9007e-09,0,0.00068621,-2.5601e-05,-5.9147,-874.45,0,2.2207e+08,-48.394,12138,13320,1,13320,1,0.0014512,2.5161e-09,0,0.0014512,0.00021971,3.5721e+08,860.22,0,4.7607e+08,175.53,13319,12138,1,12138,1,0.00014033,-2.1858e-09,0,0.00067967,-2.5541e-05,4.4743e+07,-626.87,0,2.2849e+08,-35.815,12137,10979,1,10979,1,-0.0011705,-1.0665e-08,0,5.3035e-06,-0.0002708,-4.7607e+08,-3008.9,0,3.0486e+06,-338.94,10978,11571,1,11571,1,-0.00053933,-5.7752e-09,0,0.00033982,-0.00015274,-2.1934e+08,-1732,0,1.1887e+08,-133.44,11570,12705,1,12705,1,0.00081999,-1.2668e-10,0,0.0010195,0.00010146,2.287e+08,-32.301,0,3.1734e+08,35.545,12704,656.67,0,656.67,0,0.00078447,3.3451e-09,0,0.00040497,0.00014673,2.5505e+08,1019.1,0,1.2534e+08,112.94,656.67,1
2268,4.75,12139,1,12139,1,0.00014101,-2.0182e-09,0,0.0006878,-2.5726e-05,23.988,-621.06,0,2.2244e+08,-49.069,12138,13320,1,13320,1,0.0014548,3.7426e-09,0,0.0014548,0.00022014,3.5748e+08,1093.1,0,4.77e+08,148.69,13319,12138,1,12138,1,0.00014101,-1.5916e-09,0,0.00068122,-2.5668e-05,4.4959e+07,-446.45,0,2.289e+08,-40.75,12137,10979,1,10979,1,-0.0011728,-8.5861e-09,0,4.9566e-06,-0.00027148,-4.77e+08,-2401.8,0,2.9236e+06,-327.53,10978,11571,1,11571,1,-0.0005402,-4.4804e-09,0,0.0003406,-0.00015315,-2.1969e+08,-1369.8,0,1.1913e+08,-118.41,11570,12705,1,12705,1,0.00082222,4.5932e-10,0,0.0010218,0.00010163,2.2912e+08,108.71,0,3.1778e+08,25.149,12704,656.67,0,656.67,0,0.00078626,2.8732e-09,0,0.00040597,0.00014707,2.5546e+08,866.07,0,1.2553e+08,99.211,656.67,1
2268,4.76,12139,1,12139,1,0.00014168,-2.1073e-09,0,0.00068937,-2.585e-05,-9.2625,-640.52,0,2.2281e+08,-26.197,12138,13320,1,13320,1,0.0014585,7.3787e-09,0,0.0014585,0.00022057,3.5774e+08,2037,0,4.7793e+08,280.62,13319,12138,1,12138,1,0.00014169,-1.7444e-09,0,0.00068275,-2.5793e-05,4.5176e+07,-501.86,0,2.2931e+08,-19.845,12137,10979,1,10979,1,-0.0011751,-1.0104e-08,0,4.6088e-06,-0.00027215,-4.7793e+08,-2808.1,0,2.7982e+06,-327.83,10978,11571,1,11571,1,-0.00054105,-5.4317e-09,0,0.00034136,-0.00015356,-2.2004e+08,-1625.2,0,1.1938e+08,-100.49,11570,12705,1,12705,1,0.00082443,7.5567e-10,0,0.0010241,0.00010179,2.2954e+08,179.98,0,3.1821e+08,46.609,12704,656.67,0,656.67,0,0.00078802,3.8754e-09,0,0.00040697,0.0001474,2.5588e+08,1148.2,0,1.2572e+08,111.49,656.67,1
2268,4.77,12139,1,12139,1,0.00014237,-6.2374e-12,0,0.00069098,-2.5976e-05,-40.87,-44.346,0,2.2319e+08,-54.518,12138,13320,1,13320,1,0.0014621,2.7488e-09,0,0.0014621,0.000221,3.5802e+08,622.12,0,4.7886e+08,65.469,13319,12138,1,12138,1,0.00014237,-7.4412e-11,0,0.00068431,-2.592e-05,4.5394e+07,-20.086,0,2.2973e+08,-32.183,12137,10979,1,10979,1,-0.0011774,-1.8567e-09,0,4.2609e-06,-0.00027283,-4.7886e+08,-635.19,0,2.6729e+06,-257.31,10978,11571,1,11571,1,-0.00054193,-1.0656e-09,0,0.00034215,-0.00015397,-2.204e+08,-331.33,0,1.1963e+08,-106.45,11570,12705,1,12705,1,0.00082667,7.9315e-10,0,0.0010264,0.00010195,2.2996e+08,207.34,0,3.1866e+08,1.4243,12704,656.67,0,656.67,0,0.00078983,1.2085e-09,0,0.00040798,0.00014773,2.563e+08,338.35,0,1.2592e+08,72.078,656.67,1
2268,4.78,12139,1,12139,1,0.00014306,-3.7491e-09,0,0.00069257,-2.6102e-05,208.01,-1076.5,0,2.2356e+08,-81.602,12138,13320,1,13320,1,0.0014658,1.6232e-09,0,0.0014658,0.00022144,3.5829e+08,546.23,0,4.7982e+08,180.9,13319,12138,1,12138,1,0.00014306,-3.9781e-09,0,0.00068585,-2.6048e-05,4.5613e+07,-1136.9,0,2.3014e+08,-75.031,12137,10979,1,10979,1,-0.0011797,-8.9842e-09,0,3.9076e-06,-0.00027352,-4.7982e+08,-2443.5,0,2.5456e+06,-382.28,10978,11571,1,11571,1,-0.00054279,-6.1128e-09,0,0.00034292,-0.00015439,-2.2075e+08,-1817.1,0,1.1988e+08,-140.32,11570,12705,1,12705,1,0.0008289,-1.2966e-09,0,0.0010288,0.00010211,2.3038e+08,-342.95,0,3.1909e+08,-24.597,12704,656.67,0,656.67,0,0.00079162,2.8747e-09,0,0.00040899,0.00014807,2.5671e+08,821.71,0,1.2611e+08,95.13,656.67,1
2268,4.79,12139,1,12139,1,0.00014374,-1.3436e-09,0,0.00069415,-2.6228e-05,55.085,-424.11,0,2.2392e+08,-7.4554,12138,13320,1,13320,1,0.0014695,2.7187e-09,0,0.0014695,0.00022187,3.5854e+08,673.96,0,4.8074e+08,169.14,13319,12138,1,12138,1,0.00014374,-1.1559e-09,0,0.0006874,-2.6175e-05,4.5833e+07,-335.9,0,2.3056e+08,-8.0273,12137,10979,1,10979,1,-0.001182,-6.3715e-09,0,3.5491e-06,-0.0002742,-4.8074e+08,-1760.7,0,2.4163e+06,-238.32,10978,11571,1,11571,1,-0.00054365,-3.1623e-09,0,0.00034369,-0.0001548,-2.211e+08,-954.15,0,1.2013e+08,-53.339,11570,12705,1,12705,1,0.00083114,5.5939e-10,0,0.0010311,0.00010228,2.308e+08,135.42,0,3.1952e+08,44.733,12704,656.67,0,656.67,0,0.0007934,2.2035e-09,0,0.00041,0.0001484,2.5712e+08,641.75,0,1.2629e+08,72.807,656.67,1
2268,4.8,12139,1,12139,1,0.00014443,-2.9865e-09,0,0.00069572,-2.6354e-05,80.097,-879.34,0,2.2428e+08,-42.68,12138,13320,1,13320,1,0.0014731,4.222e-09,0,0.0014731,0.00022229,3.5879e+08,1168.2,0,4.8167e+08,233.42,13319,12138,1,12138,1,0.00014443,-2.9443e-09,0,0.00068892,-2.6302e-05,4.6051e+07,-820.41,0,2.3096e+08,-40.011,12137,10979,1,10979,1,-0.0011843,-1.0444e-08,0,3.1919e-06,-0.00027487,-4.8167e+08,-2885.9,0,2.2875e+06,-387.43,10978,11571,1,11571,1,-0.00054449,-5.8966e-09,0,0.00034445,-0.00015521,-2.2144e+08,-1747.8,0,1.2038e+08,-114.85,11570,12705,1,12705,1,0.00083334,1.8252e-10,0,0.0010334,0.00010243,2.3121e+08,51.391,0,3.1994e+08,34.164,12704,656.67,0,656.67,0,0.00079516,3.4475e-09,0,0.00041099,0.00014872,2.5753e+08,1007,0,1.2648e+08,116.59,656.67,1
2268,4.81,12139,1,12139,1,0.00014511,1.555e-10,0,0.00069731,-2.648e-05,-73.338,-8.7915,0,2.2465e+08,-31.37,12138,13320,1,13320,1,0.0014768,3.0083e-09,0,0.0014768,0.00022272,3.5905e+08,878.17,0,4.8259e+08,128.24,13319,12138,1,12138,1,0.00014511,2.609e-10,0,0.00069048,-2.643e-05,4.6271e+07,76.211,0,2.3137e+08,-18.848,12137,10979,1,10979,1,-0.0011865,-2.7731e-09,0,2.8358e-06,-0.00027555,-4.8259e+08,-948.64,0,2.1591e+06,-324.49,10978,11571,1,11571,1,-0.00054536,-1.2646e-09,0,0.00034523,-0.00015563,-2.2179e+08,-392.65,0,1.2063e+08,-73.97,11570,12705,1,12705,1,0.00083559,1.5859e-09,0,0.0010357,0.0001026,2.3164e+08,374.46,0,3.2038e+08,22.057,12704,656.67,0,656.67,0,0.00079695,1.5633e-09,0,0.000412,0.00014906,2.5794e+08,444.51,0,1.2667e+08,80.176,656.67,1
2268,4.82,12139,1,12139,1,0.00014581,-2.4221e-10,0,0.0006989,-2.6607e-05,-40.532,-96.484,0,2.2501e+08,-28.871,12138,13320,1,13320,1,0.0014804,2.106e-09,0,0.0014804,0.00022314,3.593e+08,486.2,0,4.8351e+08,112.22,13319,12138,1,12138,1,0.00014581,-1.7547e-10,0,0.00069202,-2.6559e-05,4.6493e+07,-52.862,0,2.3178e+08,-10.066,12137,10979,1,10979,1,-0.0011888,-2.5579e-09,0,2.4757e-06,-0.00027622,-4.8351e+08,-798.14,0,2.0293e+06,-289.03,10978,11571,1,11571,1,-0.0005462,-1.0586e-09,0,0.000346,-0.00015604,-2.2214e+08,-316.49,0,1.2088e+08,-58.644,11570,12705,1,12705,1,0.00083782,4.8268e-10,0,0.001038,0.00010276,2.3205e+08,115.13,0,3.208e+08,29.947,12704,656.67,0,656.67,0,0.00079873,1.1267e-09,0,0.000413,0.00014939,2.5835e+08,313.53,0,1.2686e+08,87.305,656.67,1
2268,4.83,12139,1,12139,1,0.0001465,-2.5202e-09,0,0.00070047,-2.6734e-05,314.04,-724.41,0,2.2537e+08,-60.795,12138,13320,1,13320,1,0.0014841,1.752e-09,0,0.0014841,0.00022357,3.5955e+08,599.97,0,4.8445e+08,152.09,13319,12138,1,12138,1,0.0001465,-2.2834e-09,0,0.00069355,-2.6687e-05,4.6714e+07,-627.66,0,2.3218e+08,-56.943,12137,10979,1,10979,1,-0.0011911,-7.8861e-09,0,2.1125e-06,-0.0002769,-4.8445e+08,-2175.9,0,1.8983e+06,-336.84,10978,11571,1,11571,1,-0.00054704,-4.2722e-09,0,0.00034677,-0.00015645,-2.2248e+08,-1240.9,0,1.2113e+08,-111.57,11570,12705,1,12705,1,0.00084004,-7.0163e-10,0,0.0010403,0.00010292,2.3246e+08,-186.29,0,3.2122e+08,-2.1163,12704,656.67,0,656.67,0,0.0008005,2.2628e-09,0,0.000414,0.00014972,2.5876e+08,651.22,0,1.2704e+08,86.815,656.67,1
2268,4.84,12139,1,12139,1,0.00014719,-1.3769e-09,0,0.00070206,-2.6862e-05,-32.327,-424.09,0,2.2574e+08,8.0146,12138,13320,1,13320,1,0.0014878,3.8168e-09,0,0.0014878,0.000224,3.5979e+08,1012.5,0,4.8537e+08,142.53,13319,12138,1,12138,1,0.0001472,-9.6273e-10,0,0.0006951,-2.6816e-05,4.6936e+07,-282.59,0,2.3259e+08,11.949,12137,10979,1,10979,1,-0.0011934,-7.1661e-09,0,1.7478e-06,-0.00027759,-4.8537e+08,-2004.8,0,1.7668e+06,-180.51,10978,11571,1,11571,1,-0.0005479,-3.5213e-09,0,0.00034754,-0.00015687,-2.2283e+08,-1044.8,0,1.2138e+08,-42.292,11570,12705,1,12705,1,0.00084229,6.0504e-10,0,0.0010426,0.00010308,2.3288e+08,141.65,0,3.2165e+08,58.758,12704,656.67,0,656.67,0,0.00080228,2.5649e-09,0,0.00041501,0.00015005,2.5917e+08,749.83,0,1.2723e+08,65.438,656.67,1
2268,4.85,12139,1,12139,1,0.0001479,-2.2417e-09,0,0.00070365,-2.699e-05,66.597,-662.61,0,2.261e+08,-33.335,12138,13320,1,13320,1,0.0014915,1.6739e-09,0,0.0014915,0.00022443,3.6004e+08,468.02,0,4.863e+08,218.71,13319,12138,1,12138,1,0.0001479,-2.1265e-09,0,0.00069664,-2.6946e-05,4.716e+07,-594.48,0,2.33e+08,-32.767,12137,10979,1,10979,1,-0.0011957,-7.2928e-09,0,1.3782e-06,-0.00027827,-4.863e+08,-2033.9,0,1.6335e+06,-298.17,10978,11571,1,11571,1,-0.00054874,-4.0505e-09,0,0.00034831,-0.00015729,-2.2317e+08,-1225.6,0,1.2164e+08,-96.162,11570,12705,1,12705,1,0.00084453,-4.2074e-10,0,0.001045,0.00010324,2.3329e+08,-103.26,0,3.2207e+08,32.427,12704,656.67,0,656.67,0,0.00080407,2.1725e-09,0,0.00041602,0.00015038,2.5957e+08,644.31,0,1.2742e+08,88.86,656.67,1
2268,4.86,12139,1,12139,1,0.00014859,-2.3914e-09,0,0.00070521,-2.7118e-05,71.93,-712.83,0,2.2645e+08,3.0436,12138,13320,1,13320,1,0.0014951,6.8148e-09,0,0.0014951,0.00022485,3.6027e+08,1892.2,0,4.8722e+08,281.38,13319,12138,1,12138,1,0.00014859,-2.2158e-09,0,0.00069817,-2.7076e-05,4.7383e+07,-614.18,0,2.334e+08,8.0968,12137,10979,1,10979,1,-0.0011979,-9.6353e-09,0,1.0069e-06,-0.00027895,-4.8722e+08,-2692.6,0,1.4994e+06,-277.03,10978,11571,1,11571,1,-0.00054957,-5.4456e-09,0,0.00034908,-0.0001577,-2.2351e+08,-1628.4,0,1.2188e+08,-67.837,11570,12705,1,12705,1,0.00084676,4.2138e-10,0,0.0010472,0.00010339,2.337e+08,103.94,0,3.2248e+08,69.689,12704,656.67,0,656.67,0,0.00080583,3.6669e-09,0,0.00041702,0.00015071,2.5997e+08,1074.9,0,1.276e+08,105.39,656.67,1
2268,4.87,12139,1,12139,1,0.00014929,-3.4449e-09,0,0.00070677,-2.7246e-05,-88.126,-1009.6,0,2.2681e+08,-8.5707,12138,13320,1,13320,1,0.0014988,5.2159e-09,0,0.0014988,0.00022528,3.605e+08,1550.5,0,4.8813e+08,408.46,13319,12138,1,12138,1,0.00014929,-2.4343e-09,0,0.00069969,-2.7205e-05,4.7605e+07,-675.59,0,2.338e+08,-14.351,12137,10979,1,10979,1,-0.0012002,-1.5043e-08,0,6.3614e-07,-0.00027962,-4.8813e+08,-4156.4,0,1.3657e+06,-336.15,10978,11571,1,11571,1,-0.00055039,-6.7575e-09,0,0.00034984,-0.00015811,-2.2384e+08,-1981.3,0,1.2213e+08,-107.82,11570,12705,1,12705,1,0.00084898,5.4276e-10,0,0.0010495,0.00010355,2.3411e+08,127.4,0,3.2289e+08,77.053,12704,656.67,0,656.67,0,0.00080758,4.5945e-09,0,0.00041802,0.00015104,2.6037e+08,1349.5,0,1.2778e+08,135.96,656.67,1
2268,4.88,12139,1,12139,1,0.00015,-7.5524e-10,0,0.00070839,-2.7376e-05,44.192,-268.7,0,2.2718e+08,-67.384,12138,13320,1,13320,1,0.0015025,2.746e-09,0,0.0015025,0.00022571,3.6075e+08,597.72,0,4.8907e+08,83.024,13319,12138,1,12138,1,0.00015,-1.0791e-09,0,0.00070127,-2.7337e-05,4.7831e+07,-323.76,0,2.3422e+08,-56.944,12137,10979,1,10979,1,-0.0012024,-3.2067e-09,0,2.6464e-07,-0.00028031,-4.8907e+08,-1097,0,1.2316e+06,-389.71,10978,11571,1,11571,1,-0.00055126,-1.8639e-09,0,0.00035062,-0.00015853,-2.2419e+08,-573.14,0,1.2238e+08,-119,11570,12705,1,12705,1,0.00085126,2.5432e-10,0,0.0010519,0.00010371,2.3453e+08,55.646,0,3.2333e+08,-11.678,12704,656.67,0,656.67,0,0.0008094,1.4867e-09,0,0.00041905,0.00015138,2.6079e+08,425.02,0,1.2797e+08,69.553,656.67,1
2268,4.89,12139,1,12139,1,0.00015071,-1.7602e-09,0,0.00071,-2.7507e-05,-28.917,-524.25,0,2.2754e+08,-25.347,12138,13320,1,13320,1,0.0015062,1.3079e-09,0,0.0015062,0.00022614,3.6098e+08,326.42,0,4.9e+08,174.51,13319,12138,1,12138,1,0.00015071,-1.6223e-09,0,0.00070281,-2.747e-05,4.8059e+07,-472.29,0,2.3462e+08,-24.33,12137,10979,1,10979,1,-0.0012047,-5.336e-09,0,1.0699e-07,-0.000281,-4.9e+08,-1483.1,0,1.0945e+06,-306.14,10978,11571,1,11571,1,-0.0005521,-3.2759e-09,0,0.00035141,-0.00015895,-2.2453e+08,-975.16,0,1.2263e+08,-65.498,11570,12705,1,12705,1,0.00085353,-2.3092e-10,0,0.0010542,0.00010387,2.3494e+08,-57.487,0,3.2374e+08,13.407,12704,656.67,0,656.67,0,0.0008112,1.7265e-09,0,0.00042006,0.00015171,2.6119e+08,510.75,0,1.2816e+08,73.046,656.67,1
2268,4.9,12139,1,12139,1,0.00015142,-2.1062e-09,0,0.00071159,-2.7637e-05,-68.878,-623.3,0,2.2789e+08,11.595,12138,13320,1,13320,1,0.0015098,5.854e-09,0,0.0015098,0.00022656,3.6119e+08,1654.4,0,4.9091e+08,290.72,13319,12138,1,12138,1,0.00015142,-1.3111e-09,0,0.00070434,-2.7601e-05,4.8286e+07,-383.32,0,2.3502e+08,17.355,12137,10979,1,10979,1,-0.001207,-1.1451e-08,0,4.8996e-07,-0.00028168,-4.9091e+08,-3160.7,0,9.5633e+05,-418.27,10978,11571,1,11571,1,-0.00055291,-5.1981e-09,0,0.00035217,-0.00015937,-2.2487e+08,-1518.7,0,1.2288e+08,-54.7,11570,12705,1,12705,1,0.00085576,1.0145e-09,0,0.0010565,0.00010402,2.3534e+08,241.33,0,3.2414e+08,82.166,12704,656.67,0,656.67,0,0.00081295,3.8855e-09,0,0.00042101,0.00015204,2.6158e+08,1117.2,0,1.2834e+08,93.928,656.67,1
2268,4.91,12139,1,12139,1,0.00015213,-3.2339e-09,0,0.00071319,-2.7767e-05,-16.744,-949.06,0,2.2824e+08,-18.869,12138,13320,1,13320,1,0.0015135,8.3294e-09,0,0.0015135,0.00022698,3.6142e+08,2378.6,0,4.9183e+08,319.88,13319,12138,1,12138,1,0.00015213,-2.6352e-09,0,0.00070587,-2.7732e-05,4.8512e+07,-737.84,0,2.3542e+08,-13.998,12137,10979,1,10979,1,-0.0012092,-1.4252e-08,0,8.6674e-07,-0.00028236,-4.9183e+08,-3953.9,0,8.1909e+05,-377.11,10978,11571,1,11571,1,-0.00055374,-7.2944e-09,0,0.00035294,-0.00015978,-2.252e+08,-2109.5,0,1.2313e+08,-109,11570,12705,1,12705,1,0.000858,6.4959e-10,0,0.0010588,0.00010418,2.3575e+08,157.22,0,3.2455e+08,58.19,12704,656.67,0,656.67,0,0.00081472,4.92e-09,0,0.00042197,0.00015237,2.6198e+08,1443.9,0,1.2852e+08,118.67,656.67,1
2268,4.92,12139,1,12139,1,0.00015284,-3.1513e-09,0,0.00071481,-2.7898e-05,-114.23,-939.2,0,2.286e+08,-37.397,12138,13320,1,13320,1,0.0015172,7.168e-09,0,0.0015172,0.00022741,3.6164e+08,2120.5,0,4.9276e+08,290.34,13319,12138,1,12138,1,0.00015284,-2.647e-09,0,0.00070741,-2.7865e-05,4.8739e+07,-728.78,0,2.3582e+08,-30.702,12137,10979,1,10979,1,-0.0012115,-1.3037e-08,0,1.2469e-06,-0.00028305,-4.9276e+08,-3648,0,6.805e+05,-397.92,10978,11571,1,11571,1,-0.00055457,-6.9292e-09,0,0.00035372,-0.0001602,-2.2554e+08,-2049.3,0,1.2338e+08,-121.01,11570,12705,1,12705,1,0.00086026,4.1987e-10,0,0.0010611,0.00010434,2.3616e+08,96.924,0,3.2496e+08,45.757,12704,656.67,0,656.67,0,0.00081651,4.4288e-09,0,0.00042294,0.0001527,2.6239e+08,1323.6,0,1.287e+08,124.89,656.67,1
2268,4.93,12139,1,12139,1,0.00015356,-3.2072e-09,0,0.00071642,-2.803e-05,120.35,-961.01,0,2.2896e+08,-58.438,12138,13320,1,13320,1,0.0015209,6.1129e-09,0,0.0015209,0.00022784,3.6186e+08,1826.9,0,4.9368e+08,192.04,13319,12138,1,12138,1,0.00015356,-2.5566e-09,0,0.00070896,-2.7999e-05,4.8969e+07,-697.89,0,2.3622e+08,-48.076,12137,10979,1,10979,1,-0.0012138,-1.3685e-08,0,1.6345e-06,-0.00028373,-4.9368e+08,-3823.9,0,5.4027e+05,-388.89,10978,11571,1,11571,1,-0.0005554,-6.8867e-09,0,0.00035449,-0.00016062,-2.2588e+08,-2027.4,0,1.2363e+08,-150.85,11570,12705,1,12705,1,0.00086253,4.5939e-10,0,0.0010635,0.00010449,2.3657e+08,110.08,0,3.2537e+08,35.668,12704,656.67,0,656.67,0,0.00081829,4.3993e-09,0,0.00042391,0.00015303,2.6278e+08,1314.7,0,1.2889e+08,120.36,656.67,1
2268,4.94,12139,1,12139,1,0.00015428,-5.9733e-09,0,0.00071803,-2.8161e-05,-101.47,-1751.9,0,2.2931e+08,-42.543,12138,13320,1,13320,1,0.0015247,3.9555e-09,0,0.0015247,0.00022826,3.6208e+08,1221.9,0,4.946e+08,426.82,13319,12138,1,12138,1,0.00015428,-5.6848e-09,0,0.00071049,-2.8131e-05,4.9198e+07,-1597.8,0,2.3662e+08,-48.315,12137,10979,1,10979,1,-0.0012161,-1.8273e-08,0,2.0217e-06,-0.00028442,-4.946e+08,-5088.3,0,4.0007e+05,-4348.9,10978,11571,1,11571,1,-0.00055622,-1.0787e-08,0,0.00035526,-0.00016104,-2.2621e+08,-3234.8,0,1.2388e+08,-156.54,11570,12705,1,12705,1,0.00086478,-8.6495e-10,0,0.0010658,0.00010465,2.3697e+08,-221.36,0,3.2577e+08,87.634,12704,656.67,0,656.67,0,0.00082006,5.5637e-09,0,0.00042487,0.00015336,2.6318e+08,1659.5,0,1.2907e+08,230.45,656.67,1
2268,4.95,12139,1,12139,1,0.000155,-2.5566e-09,0,0.00071965,-2.8294e-05,33.39,-819.06,0,2.2966e+08,-68.115,12138,13320,1,13320,1,0.0015284,1.0181e-08,0,0.0015284,0.00022868,3.6228e+08,2821.5,0,4.9551e+08,294.67,13319,12138,1,12138,1,0.000155,-1.8013e-09,0,0.00071204,-2.8266e-05,4.9429e+07,-494.12,0,2.3702e+08,-29.255,12137,10979,1,10979,1,-0.0012183,-1.4587e-08,0,2.4094e-06,-0.00028511,-4.9551e+08,-4152.9,0,2.5789e+05,-3445.5,10978,11571,1,11571,1,-0.00055704,-7.1166e-09,0,0.00035604,-0.00016146,-2.2655e+08,-2151.7,0,1.2413e+08,-141.98,11570,12705,1,12705,1,0.00086705,1.7236e-09,0,0.0010681,0.0001048,2.3738e+08,406.5,0,3.2618e+08,54.681,12704,656.67,0,656.67,0,0.00082185,5.4114e-09,0,0.00042585,0.0001537,2.6358e+08,1608.7,0,1.2925e+08,306.64,656.67,1
2268,4.96,12139,1,12139,1,0.00015573,-5.0324e-10,0,0.00072128,-2.8428e-05,-55.765,-222.43,0,2.3002e+08,-96.214,12138,13320,1,13320,1,0.001532,4.1021e-09,0,0.001532,0.0002291,3.6249e+08,1343.4,0,4.9642e+08,122.71,13319,12138,1,12138,1,0.00015573,-8.4133e-11,0,0.00071359,-2.8401e-05,4.9662e+07,-21.542,0,2.3742e+08,-40.689,12137,10979,1,10979,1,-0.0012205,-4.6242e-09,0,2.8071e-06,-0.00028579,-4.9642e+08,-1581.9,0,1.1563e+05,-1811.4,10978,11571,1,11571,1,-0.00055787,-2.6901e-09,0,0.00035681,-0.00016188,-2.2688e+08,-842.64,0,1.2438e+08,-179.96,11570,12705,1,12705,1,0.00086933,1.3753e-09,0,0.0010704,0.00010496,2.3779e+08,328.36,0,3.2659e+08,10.094,12704,656.67,0,656.67,0,0.00082365,2.3737e-09,0,0.00042683,0.00015403,2.6398e+08,704.74,0,1.2944e+08,178.29,656.67,1
2268,4.97,12139,1,12139,1,0.00015646,7.0803e-10,0,0.00072291,-2.8562e-05,-13.994,155.65,0,2.3037e+08,-50.944,12138,13320,1,13320,1,0.0015357,4.0849e-09,0,0.0015357,0.00022952,3.627e+08,944.35,0,4.9733e+08,960.74,13319,12138,1,12138,1,0.00015646,4.8934e-10,0,0.00071515,-2.8537e-05,4.9895e+07,128.96,0,2.3782e+08,-38.881,12137,10979,1,10979,1,-0.0012228,-2.0091e-09,0,3.2093e-06,-0.00028647,-4.9733e+08,-687.57,0,22652,-728.08,10978,11571,1,11571,1,-0.00055869,-3.5541e-10,0,0.00035758,-0.0001623,-2.2722e+08,-120.15,0,1.2463e+08,-100.6,11570,12705,1,12705,1,0.00087162,1.6116e-09,0,0.0010727,0.00010511,2.382e+08,400.89,0,3.2699e+08,-6.8297,12704,656.67,0,656.67,0,0.00082544,1.3006e-09,0,0.00042781,0.00015436,2.6438e+08,338.56,0,1.2962e+08,120.16,656.67,1
2268,4.98,12139,1,12139,1,0.0001572,-1.9747e-09,0,0.00072454,-2.8697e-05,-53.498,-568.03,0,2.3074e+08,-40.301,12138,13320,1,13320,1,0.0015395,2.3909e-09,0,0.0015395,0.00022995,3.6291e+08,753.89,0,4.9827e+08,123.5,13319,12138,1,12138,1,0.0001572,-1.8877e-09,0,0.00071672,-2.8674e-05,5.013e+07,-518.29,0,2.3822e+08,-23.364,12137,10979,1,10979,1,-0.0012251,-6.608e-09,0,3.6134e-06,-0.00028717,-4.9827e+08,-1822.7,0,1.6856e+05,-788.05,10978,11571,1,11571,1,-0.00055952,-3.7047e-09,0,0.00035836,-0.00016273,-2.2755e+08,-1088.8,0,1.2488e+08,-59.174,11570,12705,1,12705,1,0.00087391,-1.1961e-10,0,0.0010751,0.00010527,2.386e+08,-34.537,0,3.274e+08,14.277,12704,656.67,0,656.67,0,0.00082724,2.0604e-09,0,0.00042879,0.0001547,2.6478e+08,602.66,0,1.2978e+08,105.17,656.67,1
2268,4.99,12139,1,12139,1,0.00015793,-1.9779e-09,0,0.00072616,-2.8832e-05,0.22733,-584.65,0,2.311e+08,-32.8,12138,13320,1,13320,1,0.0015432,4.8677e-09,0,0.0015432,0.00023038,3.631e+08,1465.5,0,4.9918e+08,162.77,13319,12138,1,12138,1,0.00015793,-1.4918e-09,0,0.00071826,-2.881e-05,5.0365e+07,-409.46,0,2.3862e+08,-14.686,12137,10979,1,10979,1,-0.0012273,-9.0471e-09,0,4.0167e-06,-0.00028786,-4.9918e+08,-2714.9,0,3.1426e+05,-727.2,10978,11571,1,11571,1,-0.00056033,-4.3956e-09,0,0.00035913,-0.00016315,-2.2788e+08,-1282.3,0,1.2513e+08,-77.546,11570,12705,1,12705,1,0.00087619,3.4263e-10,0,0.0010774,0.00010542,2.3901e+08,79.964,0,3.2779e+08,38.454,12704,656.67,0,656.67,0,0.00082902,3.0134e-09,0,0.00042976,0.00015503,2.6517e+08,884.05,0,1.2994e+08,118.27,656.67,1
2268,5,12139,1,12139,1,0.00015867,-2.5263e-09,0,0.00072778,-2.8967e-05,68.972,-748.87,0,2.3146e+08,-35.481,12138,13320,1,13320,1,0.0015469,5.0714e-09,0,0.0015469,0.0002308,3.633e+08,1524.4,0,5.001e+08,197.36,13319,12138,1,12138,1,0.00015867,-2.2212e-09,0,0.0007198,-2.8947e-05,5.0599e+07,-606.06,0,2.3901e+08,-18.316,12137,10979,1,10979,1,-0.0012296,-9.2626e-09,0,4.4194e-06,-0.00028855,-5.001e+08,-2785.7,0,4.5959e+05,-1667.2,10978,11571,1,11571,1,-0.00056114,-4.7794e-09,0,0.00035991,-0.00016357,-2.2821e+08,-1447.9,0,1.2538e+08,-81.173,11570,12705,1,12705,1,0.00087847,-8.7937e-11,0,0.0010797,0.00010557,2.3941e+08,-21.584,0,3.2818e+08,42.261,12704,656.67,0,656.67,0,0.00083081,2.8241e-09,0,0.00043074,0.00015536,2.6556e+08,845.78,0,1.3011e+08,179.79,656.67,1
2268,5.01,12139,1,12139,1,0.00015941,-7.8562e-10,0,0.00072941,-2.9102e-05,-55.315,-269.31,0,2.3182e+08,-33.749,12138,13320,1,13320,1,0.0015506,4.6888e-09,0,0.0015506,0.00023122,3.6349e+08,1410.6,0,5.0101e+08,830.57,13319,12138,1,12138,1,0.00015941,-5.7981e-10,0,0.00072135,-2.9084e-05,5.0836e+07,-160.41,0,2.3941e+08,-24.53,12137,10979,1,10979,1,-0.0012318,-6.0245e-09,0,4.8245e-06,-0.00028924,-5.0101e+08,-1808.7,0,6.0611e+05,-802.24,10978,11571,1,11571,1,-0.00056195,-2.0746e-09,0,0.00036068,-0.000164,-2.2854e+08,-650.24,0,1.2563e+08,-86.512,11570,12705,1,12705,1,0.00088077,4.8766e-10,0,0.001082,0.00010573,2.3981e+08,121.17,0,3.2858e+08,11.044,12704,656.67,0,656.67,0,0.0008326,1.6113e-09,0,0.00043172,0.0001557,2.6596e+08,476.62,0,1.3027e+08,103.06,656.67,1
2268,5.02,12139,1,12139,1,0.00016015,-1.8844e-09,0,0.00073102,-2.9238e-05,-41.048,-564.89,0,2.3217e+08,-27.7,12138,13320,1,13320,1,0.0015543,1.1515e-09,0,0.0015543,0.00023164,3.6367e+08,335.86,0,5.0191e+08,116.25,13319,12138,1,12138,1,0.00016015,-1.9835e-09,0,0.00072289,-2.9221e-05,5.1071e+07,-579.75,0,2.398e+08,-18.847,12137,10979,1,10979,1,-0.001234,-5.8204e-09,0,5.236e-06,-0.00028992,-5.0191e+08,-1709.3,0,7.5481e+05,-318.95,10978,11571,1,11571,1,-0.00056275,-3.0203e-09,0,0.00036145,-0.00016442,-2.2886e+08,-912.35,0,1.2588e+08,-70.97,11570,12705,1,12705,1,0.00088304,-4.8299e-10,0,0.0010843,0.00010588,2.4021e+08,-134.5,0,3.2897e+08,27.895,12704,656.67,0,656.67,0,0.00083438,1.6586e-09,0,0.00043269,0.00015603,2.6635e+08,493.77,0,1.3043e+08,74.122,656.67,1
2268,5.03,12139,1,12139,1,0.00016089,-3.8305e-09,0,0.00073264,-2.9373e-05,43.846,-1113.5,0,2.3253e+08,15.057,12138,13320,1,13320,1,0.0015581,4.8199e-09,0,0.0015581,0.00023206,3.6386e+08,1444.7,0,5.0283e+08,500.76,13319,12138,1,12138,1,0.00016088,-3.7541e-09,0,0.00072443,-2.9359e-05,5.1307e+07,-1033.4,0,2.4019e+08,5.3476,12137,10979,1,10979,1,-0.0012363,-1.1548e-08,0,5.6441e-06,-0.00029062,-5.0283e+08,-3426.1,0,9.0222e+05,-355.3,10978,11571,1,11571,1,-0.00056355,-6.8322e-09,0,0.00036222,-0.00016484,-2.2919e+08,-2018.4,0,1.2613e+08,-53.733,11570,12705,1,12705,1,0.00088532,-5.5948e-10,0,0.0010867,0.00010603,2.4061e+08,-157.15,0,3.2936e+08,84.003,12704,656.67,0,656.67,0,0.00083616,3.664e-09,0,0.00043366,0.00015636,2.6673e+08,1069.8,0,1.3059e+08,111.23,656.67,1
2268,5.04,12139,1,12139,1,0.00016163,-3.03e-09,0,0.00073428,-2.951e-05,66.878,-913.99,0,2.3289e+08,-17.09,12138,13320,1,13320,1,0.0015619,1.978e-09,0,0.0015619,0.00023249,3.6405e+08,486.77,0,5.0376e+08,251.41,13319,12138,1,12138,1,0.00016163,-2.8053e-09,0,0.000726,-2.9498e-05,5.1546e+07,-791.8,0,2.4059e+08,-19.948,12137,10979,1,10979,1,-0.0012386,-9.2553e-09,0,6.0544e-06,-0.00029132,-5.0376e+08,-2686.7,0,1.0503e+06,-364.73,10978,11571,1,11571,1,-0.00056437,-5.4811e-09,0,0.00036301,-0.00016527,-2.2952e+08,-1633.4,0,1.2638e+08,-79.808,11570,12705,1,12705,1,0.00088764,-5.3652e-10,0,0.001089,0.00010618,2.4102e+08,-137.51,0,3.2976e+08,41.212,12704,656.67,0,656.67,0,0.00083797,2.896e-09,0,0.00043465,0.0001567,2.6713e+08,872.92,0,1.3075e+08,101.08,656.67,1
2268,5.05,12139,1,12139,1,0.00016238,-3.7571e-09,0,0.00073588,-2.9647e-05,61.026,-1120.7,0,2.3324e+08,12.368,12138,13320,1,13320,1,0.0015656,3.1819e-09,0,0.0015656,0.0002329,3.6422e+08,888.07,0,5.0466e+08,315.32,13319,12138,1,12138,1,0.00016238,-3.5079e-09,0,0.00072753,-2.9637e-05,5.1785e+07,-953.7,0,2.4098e+08,0.79956,12137,10979,1,10979,1,-0.0012408,-1.2308e-08,0,6.4735e-06,-0.00029201,-5.0466e+08,-3467.8,0,1.2017e+06,-346,10978,11571,1,11571,1,-0.00056515,-6.9551e-09,0,0.00036378,-0.0001657,-2.2984e+08,-2091.4,0,1.2662e+08,-75.388,11570,12705,1,12705,1,0.00088992,-2.8284e-10,0,0.0010913,0.00010633,2.4141e+08,-82.312,0,3.3014e+08,88.992,12704,656.67,0,656.67,0,0.00083973,3.8435e-09,0,0.00043562,0.00015702,2.6751e+08,1146.5,0,1.3091e+08,119.75,656.67,1
2268,5.06,12139,1,12139,1,0.00016313,-4.2954e-09,0,0.0007375,-2.9784e-05,60.049,-1280.2,0,2.336e+08,14.634,12138,13320,1,13320,1,0.0015693,5.6247e-09,0,0.0015693,0.00023332,3.644e+08,1587,0,5.0557e+08,375.25,13319,12138,1,12138,1,0.00016313,-4.0118e-09,0,0.00072907,-2.9775e-05,5.2023e+07,-1100.7,0,2.4137e+08,-0.1093,12137,10979,1,10979,1,-0.001243,-1.4582e-08,0,6.8872e-06,-0.0002927,-5.0557e+08,-4114.4,0,1.3511e+06,-442.85,10978,11571,1,11571,1,-0.00056595,-8.2503e-09,0,0.00036455,-0.00016612,-2.3017e+08,-2484.6,0,1.2687e+08,-89.192,11570,12705,1,12705,1,0.00089221,-9.855e-11,0,0.0010936,0.00010648,2.4181e+08,-24.684,0,3.3052e+08,114.95,12704,656.67,0,656.67,0,0.00084151,4.6883e-09,0,0.0004366,0.00015736,2.679e+08,1394.8,0,1.3107e+08,151.49,656.67,1
2268,5.07,12139,1,12139,1,0.00016387,-3.0806e-09,0,0.00073912,-2.9921e-05,-55.802,-953.16,0,2.3395e+08,-36.242,12138,13320,1,13320,1,0.001573,3.5752e-09,0,0.001573,0.00023374,3.6457e+08,1077.1,0,5.0647e+08,213.2,13319,12138,1,12138,1,0.00016388,-2.5898e-09,0,0.00073061,-2.9914e-05,5.2263e+07,-732.75,0,2.4176e+08,-21.025,12137,10979,1,10979,1,-0.0012452,-1.11e-08,0,7.3051e-06,-0.00029339,-5.0647e+08,-3210.9,0,1.5019e+06,-473.89,10978,11571,1,11571,1,-0.00056674,-6.3569e-09,0,0.00036532,-0.00016654,-2.3049e+08,-1955.8,0,1.2712e+08,-111.75,11570,12705,1,12705,1,0.0008945,3.2507e-10,0,0.0010959,0.00010663,2.422e+08,79.637,0,3.309e+08,49.103,12704,656.67,0,656.67,0,0.00084329,3.6941e-09,0,0.00043757,0.00015769,2.6829e+08,1117.3,0,1.3123e+08,123.98,656.67,1
2268,5.08,12139,1,12139,1,0.00016463,-2.7626e-09,0,0.00074077,-3.006e-05,-64.96,-855.86,0,2.3431e+08,-35.675,12138,13320,1,13320,1,0.0015768,1.8953e-09,0,0.0015768,0.00023417,3.6475e+08,616.08,0,5.0739e+08,219.79,13319,12138,1,12138,1,0.00016463,-2.3621e-09,0,0.00073219,-3.0055e-05,5.2505e+07,-667.74,0,2.4216e+08,-21.92,12137,10979,1,10979,1,-0.0012475,-9.296e-09,0,7.7279e-06,-0.00029409,-5.0739e+08,-2736.5,0,1.6545e+06,-450.57,10978,11571,1,11571,1,-0.00056756,-5.5635e-09,0,0.00036611,-0.00016698,-2.3082e+08,-1704.5,0,1.2737e+08,-109.06,11570,12705,1,12705,1,0.00089683,9.3055e-11,0,0.0010983,0.00010678,2.4261e+08,21.165,0,3.313e+08,38.759,12704,656.67,0,656.67,0,0.00084511,3.0826e-09,0,0.00043857,0.00015802,2.6868e+08,939.07,0,1.3139e+08,111.57,656.67,1
2268,5.09,12139,1,12139,1,0.0001654,-3.1803e-09,0,0.00074239,-3.02e-05,-134.15,-965.2,0,2.3466e+08,-20.48,12138,13320,1,13320,1,0.0015805,1.558e-09,0,0.0015805,0.00023458,3.6491e+08,312.76,0,5.0829e+08,234.96,13319,12138,1,12138,1,0.0001654,-3.1597e-09,0,0.00073373,-3.0197e-05,5.2748e+07,-913.41,0,2.4254e+08,-20.862,12137,10979,1,10979,1,-0.0012497,-9.3205e-09,0,8.1588e-06,-0.00029478,-5.0829e+08,-2725.4,0,1.81e+06,-385.87,10978,11571,1,11571,1,-0.00056834,-5.4849e-09,0,0.00036688,-0.0001674,-2.3114e+08,-1660.2,0,1.2762e+08,-76.555,11570,12705,1,12705,1,0.00089914,-7.7141e-10,0,0.0011006,0.00010693,2.43e+08,-204.14,0,3.3167e+08,31.737,12704,656.67,0,656.67,0,0.0008469,2.8724e-09,0,0.00043956,0.00015836,2.6906e+08,870.79,0,1.3155e+08,86.193,656.67,1
2268,5.1,12139,1,12139,1,0.00016618,-1.8501e-09,0,0.00074404,-3.0344e-05,-140.95,-583.94,0,2.3502e+08,-17.259,12138,13320,1,13320,1,0.0015844,1.8359e-09,0,0.0015844,0.000235,3.6508e+08,367.65,0,5.092e+08,274.89,13319,12138,1,12138,1,0.00016618,-1.6269e-09,0,0.0007353,-3.0343e-05,5.2998e+07,-475.31,0,2.4293e+08,-16.63,12137,10979,1,10979,1,-0.001252,-6.7201e-09,0,8.6055e-06,-0.00029549,-5.092e+08,-1941.8,0,1.9713e+06,-468.46,10978,11571,1,11571,1,-0.00056913,-3.8533e-09,0,0.00036766,-0.00016784,-2.3146e+08,-1175.3,0,1.2786e+08,-73.674,11570,12705,1,12705,1,0.00090149,2.1402e-10,0,0.001103,0.00010708,2.4339e+08,52.795,0,3.3205e+08,51.772,12704,656.67,0,656.67,0,0.00084871,2.2781e-09,0,0.00044056,0.00015869,2.6945e+08,680.3,0,1.317e+08,112.58,656.67,1
2268,5.11,12139,1,12139,1,0.00016708,7.4794e-10,0,0.00074575,-3.0508e-05,-2.3542,134.21,0,2.3534e+08,-6.8897,12138,13320,1,13320,1,0.0015883,6.9203e-09,0,0.0015883,0.00023541,3.652e+08,1816.6,0,5.1009e+08,185.07,13319,12138,1,12138,1,0.00016708,4.2067e-10,0,0.00073691,-3.051e-05,5.3282e+07,97.381,0,2.4328e+08,18.949,12137,10979,1,10979,1,-0.0012541,-2.534e-09,0,9.1589e-06,-0.00029622,-5.1009e+08,-867.2,0,2.1715e+06,-508.57,10978,11571,1,11571,1,-0.00056984,-1.2036e-09,0,0.00036847,-0.0001683,-2.3175e+08,-394.28,0,1.2809e+08,-33.541,11570,12705,1,12705,1,0.000904,2.3644e-09,0,0.0011054,0.00010721,2.4374e+08,557.78,0,3.324e+08,58.966,12704,656.67,0,656.67,0,0.00085056,2.2704e-09,0,0.00044159,0.00015904,2.6981e+08,628.56,0,1.3185e+08,106.94,656.67,1
2268,5.12,12139,1,12139,1,0.00016801,9.7911e-10,0,0.00074746,-3.0678e-05,-18.033,242.19,0,2.3566e+08,-38.36,12138,13320,1,13320,1,0.0015923,3.0891e-09,0,0.0015923,0.00023582,3.6528e+08,724.52,0,5.1098e+08,63.188,13319,12138,1,12138,1,0.00016801,9.8497e-10,0,0.00073854,-3.0682e-05,5.3575e+07,266.52,0,2.4363e+08,-8.0987,12137,10979,1,10979,1,-0.0012563,-9.2159e-10,0,9.747e-06,-0.00029696,-5.1098e+08,-315.5,0,2.3844e+06,-381.42,10978,11571,1,11571,1,-0.00057053,-9.5955e-11,0,0.00036927,-0.00016877,-2.3203e+08,-23.887,0,1.2831e+08,-67.893,11570,12705,1,12705,1,0.00090654,1.9232e-09,0,0.0011078,0.00010734,2.4409e+08,490.41,0,3.3273e+08,10.753,12704,656.67,0,656.67,0,0.00085243,1.0937e-09,0,0.00044264,0.00015939,2.7016e+08,283.13,0,1.3199e+08,74.829,656.67,1
2268,5.13,12139,1,12139,1,0.00016895,-5.4044e-10,0,0.0007492,-3.0851e-05,-81.008,-152.54,0,2.3598e+08,-41.688,12138,13320,1,13320,1,0.0015964,2.0618e-09,0,0.0015964,0.00023623,3.6535e+08,509.32,0,5.1187e+08,59.159,13319,12138,1,12138,1,0.00016895,-4.4357e-10,0,0.00074016,-3.0858e-05,5.3873e+07,-129.84,0,2.4397e+08,-33.731,12137,10979,1,10979,1,-0.0012585,-2.317e-09,0,1.0344e-05,-0.00029772,-5.1187e+08,-610.62,0,2.6003e+06,-398.36,10978,11571,1,11571,1,-0.00057121,-1.2114e-09,0,0.00037008,-0.00016925,-2.3231e+08,-349.41,0,1.2853e+08,-68.449,11570,12705,1,12705,1,0.00090912,8.2628e-11,0,0.0011102,0.00010747,2.4443e+08,20.907,0,3.3305e+08,-6.2704,12704,656.67,0,656.67,0,0.00085431,9.028e-10,0,0.00044369,0.00015974,2.7051e+08,237.6,0,1.3214e+08,54.044,656.67,1
2268,5.14,12139,1,12139,1,0.0001699,-1.1434e-09,0,0.0007509,-3.1025e-05,12.101,-323.19,0,2.3629e+08,-9.2925,12138,13320,1,13320,1,0.0016005,1.4848e-09,0,0.0016005,0.00023664,3.654e+08,507.92,0,5.1275e+08,171.04,13319,12138,1,12138,1,0.0001699,-1.0092e-09,0,0.00074177,-3.1034e-05,5.4171e+07,-284.27,0,2.443e+08,-6.6753,12137,10979,1,10979,1,-0.0012607,-4.0549e-09,0,1.0946e-05,-0.00029847,-5.1275e+08,-1109.4,0,2.8182e+06,-423.76,10978,11571,1,11571,1,-0.00057187,-2.1627e-09,0,0.00037089,-0.00016972,-2.3258e+08,-627.61,0,1.2875e+08,-27.841,11570,12705,1,12705,1,0.00091167,1.3653e-11,0,0.0011127,0.0001076,2.4477e+08,3.5413,0,3.3336e+08,26.93,12704,656.67,0,656.67,0,0.00085616,1.2724e-09,0,0.00044474,0.00016008,2.7084e+08,362.73,0,1.3227e+08,72.031,656.67,1
2268,5.15,12139,1,12139,1,0.00017085,-8.6263e-10,0,0.00075263,-3.1198e-05,5.0859,-256.8,0,2.3661e+08,-28.322,12138,13320,1,13320,1,0.0016046,8.9481e-10,0,0.0016046,0.00023705,3.6547e+08,306.26,0,5.1364e+08,88.302,13319,12138,1,12138,1,0.00017085,-7.8348e-10,0,0.0007434,-3.1211e-05,5.4471e+07,-214.5,0,2.4465e+08,-22.094,12137,10979,1,10979,1,-0.0012629,-2.9688e-09,0,1.1545e-05,-0.00029923,-5.1364e+08,-840.71,0,3.0349e+06,-368.53,10978,11571,1,11571,1,-0.00057255,-1.593e-09,0,0.0003717,-0.0001702,-2.3285e+08,-476.2,0,1.2897e+08,-54.623,11570,12705,1,12705,1,0.00091425,-7.0633e-11,0,0.0011151,0.00010772,2.4511e+08,-18.118,0,3.3368e+08,7.1716,12704,656.67,0,656.67,0,0.00085804,9.2922e-10,0,0.0004458,0.00016043,2.7119e+08,276.21,0,1.3241e+08,58.588,656.67,1
2268,5.16,12139,1,12139,1,0.00017181,9.9882e-10,0,0.00075436,-3.1374e-05,-25.815,251.75,0,2.3692e+08,-34.883,12138,13320,1,13320,1,0.0016086,3.4729e-09,0,0.0016086,0.00023746,3.6552e+08,879.52,0,5.1452e+08,44.268,13319,12138,1,12138,1,0.00017181,9.0451e-10,0,0.00074502,-3.1389e-05,5.4773e+07,240.59,0,2.4498e+08,-23.566,12137,10979,1,10979,1,-0.001265,-6.3957e-10,0,1.2155e-05,-0.00029998,-5.1452e+08,-219.03,0,3.255e+06,-346.68,10978,11571,1,11571,1,-0.00057322,1.6946e-10,0,0.00037251,-0.00017067,-2.3312e+08,50.101,0,1.2918e+08,-43.885,11570,12705,1,12705,1,0.00091683,1.5611e-09,0,0.0011175,0.00010785,2.4544e+08,401.88,0,3.34e+08,-7.2842,12704,656.67,0,656.67,0,0.00085992,9.3441e-10,0,0.00044685,0.00016078,2.7153e+08,233.25,0,1.3255e+08,52.519,656.67,1
2268,5.17,12139,1,12139,1,0.00017277,2.2041e-09,0,0.00075608,-3.155e-05,-39.646,603.26,0,2.3723e+08,9.6348,12138,13320,1,13320,1,0.0016128,8.6695e-09,0,0.0016128,0.00023787,3.6558e+08,2303.5,0,5.1541e+08,227.99,13319,12138,1,12138,1,0.00017277,1.621e-09,0,0.00074665,-3.1567e-05,5.5076e+07,452.94,0,2.4532e+08,28.954,12137,10979,1,10979,1,-0.0012672,-1.4133e-09,0,1.277e-05,-0.00030074,-5.1541e+08,-483.98,0,3.4771e+06,-517.73,10978,11571,1,11571,1,-0.00057388,9.7535e-11,0,0.00037332,-0.00017115,-2.3339e+08,25.545,0,1.294e+08,-25.945,11570,12705,1,12705,1,0.00091941,4.0407e-09,0,0.00112,0.00010797,2.4578e+08,1113.8,0,3.3431e+08,80.386,12704,656.67,0,656.67,0,0.00086179,2.4687e-09,0,0.00044791,0.00016113,2.7187e+08,675.89,0,1.3269e+08,122.99,656.67,1
2268,5.18,12139,1,12139,1,0.00017373,-2.881e-10,0,0.00075782,-3.1726e-05,-38.554,-48.832,0,2.3755e+08,-40.708,12138,13320,1,13320,1,0.0016168,2.3295e-09,0,0.0016168,0.00023827,3.6562e+08,796.87,0,5.1628e+08,89.058,13319,12138,1,12138,1,0.00017373,-1.9823e-10,0,0.00074827,-3.1746e-05,5.538e+07,-52.664,0,2.4565e+08,-27.276,12137,10979,1,10979,1,-0.0012694,-1.9136e-09,0,1.3384e-05,-0.0003015,-5.1628e+08,-425.16,0,3.6988e+06,-564.7,10978,11571,1,11571,1,-0.00057454,-1.0616e-09,0,0.00037414,-0.00017163,-2.3366e+08,-252.53,0,1.2962e+08,-62.24,11570,12705,1,12705,1,0.000922,3.0225e-10,0,0.0011224,0.0001081,2.4611e+08,96.891,0,3.3462e+08,-3.4965,12704,656.67,0,656.67,0,0.00086367,8.8874e-10,0,0.00044897,0.00016148,2.7221e+08,241.32,0,1.3282e+08,73.655,656.67,1
2268,5.19,12139,1,12139,1,0.0001747,-2.2522e-09,0,0.00075954,-3.1904e-05,0.90386,-607.92,0,2.3786e+08,-48.458,12138,13320,1,13320,1,0.0016209,1.3034e-09,0,0.0016209,0.00023868,3.6566e+08,446.34,0,5.1717e+08,157.54,13319,12138,1,12138,1,0.0001747,-2.1887e-09,0,0.00074989,-3.1927e-05,5.5685e+07,-584.82,0,2.4599e+08,-40.57,12137,10979,1,10979,1,-0.0012715,-6.4147e-09,0,1.4007e-05,-0.00030226,-5.1717e+08,-1738.4,0,3.9235e+06,-524.12,10978,11571,1,11571,1,-0.00057519,-3.757e-09,0,0.00037494,-0.00017211,-2.3393e+08,-1028.3,0,1.2983e+08,-91.063,11570,12705,1,12705,1,0.00092459,-6.5102e-10,0,0.0011248,0.00010822,2.4644e+08,-189.72,0,3.3492e+08,1.1711,12704,656.67,0,656.67,0,0.00086554,1.9524e-09,0,0.00045003,0.00016182,2.7254e+08,530.89,0,1.3296e+08,87.992,656.67,1
2268,5.2,12139,1,12139,1,0.00017567,-3.1228e-09,0,0.00076126,-3.2081e-05,-60.019,-884.12,0,2.3816e+08,-3.4801,12138,13320,1,13320,1,0.0016251,3.0893e-09,0,0.0016251,0.00023909,3.657e+08,956.36,0,5.1805e+08,232.61,13319,12138,1,12138,1,0.00017567,-2.6685e-09,0,0.0007515,-3.2107e-05,5.5991e+07,-725.14,0,2.4632e+08,-0.48655,12137,10979,1,10979,1,-0.0012737,-1.1125e-08,0,1.4627e-05,-0.00030302,-5.1805e+08,-3062.3,0,4.147e+06,-499.55,10978,11571,1,11571,1,-0.00057584,-5.9828e-09,0,0.00037576,-0.00017259,-2.3419e+08,-1726.6,0,1.3005e+08,-67.313,11570,12705,1,12705,1,0.00092717,1.234e-10,0,0.0011273,0.00010834,2.4677e+08,31.551,0,3.3522e+08,64.071,12704,656.67,0,656.67,0,0.0008674,3.5112e-09,0,0.00045108,0.00016217,2.7287e+08,1002.9,0,1.3309e+08,103.76,656.67,1
2268,5.21,12139,1,12139,1,0.00017664,-8.1293e-10,0,0.00076299,-3.2259e-05,10.182,-285.54,0,2.3847e+08,-44.589,12138,13320,1,13320,1,0.0016292,2.3869e-09,0,0.0016292,0.00023949,3.6573e+08,805.95,0,5.1892e+08,141.1,13319,12138,1,12138,1,0.00017664,-3.3517e-10,0,0.00075313,-3.2288e-05,5.6298e+07,-89.903,0,2.4665e+08,-25.672,12137,10979,1,10979,1,-0.0012759,-4.917e-09,0,1.5248e-05,-0.00030378,-5.1892e+08,-1552.3,0,4.3708e+06,-409.67,10978,11571,1,11571,1,-0.00057649,-2.5583e-09,0,0.00037657,-0.00017307,-2.3445e+08,-781.96,0,1.3026e+08,-104.27,11570,12705,1,12705,1,0.00092978,9.2613e-10,0,0.0011297,0.00010847,2.471e+08,206.73,0,3.3552e+08,18.652,12704,656.67,0,656.67,0,0.00086928,1.9642e-09,0,0.00045215,0.00016252,2.7321e+08,589.3,0,1.3323e+08,88.521,656.67,1
2268,5.22,12139,1,12139,1,0.00017762,-1.3048e-09,0,0.00076472,-3.2439e-05,148.03,-414.07,0,2.3877e+08,-31.728,12138,13320,1,13320,1,0.0016333,4.5985e-09,0,0.0016333,0.00023989,3.6576e+08,1367.3,0,5.198e+08,138.92,13319,12138,1,12138,1,0.00017762,-7.5776e-10,0,0.00075475,-3.247e-05,5.6607e+07,-207.64,0,2.4698e+08,-19.379,12137,10979,1,10979,1,-0.001278,-6.8834e-09,0,1.5882e-05,-0.00030454,-5.198e+08,-2020.6,0,4.5988e+06,-318.66,10978,11571,1,11571,1,-0.00057713,-3.5988e-09,0,0.00037738,-0.00017355,-2.3471e+08,-1070.6,0,1.3048e+08,-95.471,11570,12705,1,12705,1,0.00093238,7.234e-10,0,0.0011321,0.00010859,2.4743e+08,176.03,0,3.3582e+08,32.839,12704,656.67,0,656.67,0,0.00087115,2.6348e-09,0,0.00045321,0.00016286,2.7354e+08,787.68,0,1.3336e+08,87.017,656.67,1
2268,5.23,12139,1,12139,1,0.0001786,-2.4277e-09,0,0.00076645,-3.2618e-05,-78.57,-721.11,0,2.3908e+08,-53.845,12138,13320,1,13320,1,0.0016374,1.5572e-09,0,0.0016374,0.0002403,3.6579e+08,532.93,0,5.2067e+08,129.8,13319,12138,1,12138,1,0.0001786,-1.8144e-09,0,0.00075637,-3.2653e-05,5.6916e+07,-508.17,0,2.473e+08,-33.576,12137,10979,1,10979,1,-0.0012802,-8.4035e-09,0,1.6515e-05,-0.0003053,-5.2067e+08,-2417.5,0,4.8266e+06,-385.22,10978,11571,1,11571,1,-0.00057777,-4.514e-09,0,0.00037819,-0.00017403,-2.3497e+08,-1350.7,0,1.3069e+08,-130.16,11570,12705,1,12705,1,0.00093498,-3.0876e-10,0,0.0011346,0.00010871,2.4775e+08,-74.18,0,3.3612e+08,19.275,12704,656.67,0,656.67,0,0.00087302,2.5318e-09,0,0.00045428,0.00016321,2.7387e+08,772.08,0,1.335e+08,94.807,656.67,1
2268,5.24,12139,1,12139,1,0.00017959,-1.359e-09,0,0.00076818,-3.2799e-05,73.187,-440.64,0,2.3938e+08,-60.524,12138,13320,1,13320,1,0.0016415,1.7229e-09,0,0.0016415,0.0002407,3.6581e+08,360.39,0,5.2154e+08,123.52,13319,12138,1,12138,1,0.00017959,-8.4556e-10,0,0.00075799,-3.2836e-05,5.7227e+07,-254.83,0,2.4763e+08,-34.406,12137,10979,1,10979,1,-0.0012823,-5.0546e-09,0,1.7152e-05,-0.00030606,-5.2154e+08,-1641.5,0,5.0555e+06,-420.99,10978,11571,1,11571,1,-0.00057841,-3.0309e-09,0,0.00037901,-0.00017451,-2.3523e+08,-932.32,0,1.309e+08,-128.28,11570,12705,1,12705,1,0.00093759,1.8732e-10,0,0.001137,0.00010883,2.4808e+08,51.656,0,3.3641e+08,2.7802,12704,656.67,0,656.67,0,0.00087489,1.9012e-09,0,0.00045535,0.00016356,2.742e+08,579.34,0,1.3363e+08,90.749,656.67,1
2268,5.25,12139,1,12139,1,0.00018058,-8.8092e-10,0,0.00076991,-3.298e-05,140.56,-299.77,0,2.3968e+08,-40.256,12138,13320,1,13320,1,0.0016456,4.0792e-09,0,0.0016456,0.0002411,3.6583e+08,1212.5,0,5.2241e+08,186.19,13319,12138,1,12138,1,0.00018058,-2.7389e-10,0,0.00075962,-3.3021e-05,5.7539e+07,-84.273,0,2.4796e+08,-28.964,12137,10979,1,10979,1,-0.0012844,-6.2304e-09,0,1.7796e-05,-0.00030682,-5.2241e+08,-1829.5,0,5.2864e+06,-335.26,10978,11571,1,11571,1,-0.00057904,-2.941e-09,0,0.00037982,-0.00017499,-2.3549e+08,-874.68,0,1.3112e+08,-112.93,11570,12705,1,12705,1,0.0009402,1.1098e-09,0,0.0011394,0.00010895,2.484e+08,250.9,0,3.3653e+08,21.252,12704,656.67,0,656.67,0,0.00087676,2.4116e-09,0,0.00045641,0.00016391,2.7453e+08,713.33,0,1.3376e+08,92.129,656.67,1
2268,5.26,12139,1,12139,1,0.00018157,-2.0205e-09,0,0.00077165,-3.3162e-05,-126.93,-609.29,0,2.3998e+08,-47.665,12138,13320,1,13320,1,0.0016498,2.2932e-09,0,0.0016498,0.0002415,3.6584e+08,784.42,0,5.2329e+08,149.66,13319,12138,1,12138,1,0.00018157,-1.6699e-09,0,0.00076124,-3.3205e-05,5.7852e+07,-457.16,0,2.4828e+08,-35.018,12137,10979,1,10979,1,-0.0012866,-7.0664e-09,0,1.8441e-05,-0.00030759,-5.2329e+08,-2055,0,5.5176e+06,-363.23,10978,11571,1,11571,1,-0.00057967,-4.1447e-09,0,0.00038063,-0.00017548,-2.3575e+08,-1243.9,0,1.3133e+08,-121.28,11570,12705,1,12705,1,0.00094282,5.5262e-11,0,0.0011419,0.00010907,2.4872e+08,12.947,0,3.3659e+08,25.395,12704,656.67,0,656.67,0,0.00087864,2.4163e-09,0,0.00045748,0.00016426,2.7485e+08,726.42,0,1.3389e+08,97.072,656.67,1
2268,5.27,12139,1,12139,1,0.00018257,1.5993e-09,0,0.00077337,-3.3345e-05,153.25,366.74,0,2.4028e+08,-52.954,12138,13320,1,13320,1,0.0016538,6.9278e-09,0,0.0016538,0.00024189,3.6586e+08,1598,0,5.2413e+08,204.33,13319,12138,1,12138,1,0.00018257,1.205e-09,0,0.00076286,-3.3391e-05,5.8166e+07,329.36,0,2.486e+08,-30.574,12137,10979,1,10979,1,-0.0012887,-3.0255e-09,0,1.9091e-05,-0.00030834,-5.2413e+08,-1035.6,0,5.7506e+06,-484.8,10978,11571,1,11571,1,-0.00058029,-9.8226e-11,0,0.00038143,-0.00017596,-2.36e+08,-30.916,0,1.3154e+08,-104.23,11570,12705,1,12705,1,0.00094543,3.1407e-09,0,0.0011443,0.00010918,2.4904e+08,759.16,0,3.3665e+08,19.564,12704,656.67,0,656.67,0,0.0008805,2.1827e-09,0,0.00045855,0.0001646,2.7518e+08,540.34,0,1.3402e+08,112.51,656.67,1
2268,5.28,12139,1,12139,1,0.00018357,-2.351e-09,0,0.00077513,-3.3529e-05,-68.144,-661.24,0,2.4058e+08,-45.533,12138,13320,1,13320,1,0.001658,6.2591e-09,0,0.001658,0.00024231,3.6588e+08,1842.2,0,5.2503e+08,310.95,13319,12138,1,12138,1,0.00018357,-2.2131e-09,0,0.00076451,-3.3577e-05,5.8482e+07,-589.18,0,2.4893e+08,-50.303,12137,10979,1,10979,1,-0.0012909,-9.8355e-09,0,1.9746e-05,-0.00030912,-5.2503e+08,-2704.7,0,5.9847e+06,-699.67,10978,11571,1,11571,1,-0.00058093,-5.1983e-09,0,0.00038226,-0.00017645,-2.3626e+08,-1484.2,0,1.3176e+08,-113.26,11570,12705,1,12705,1,0.00094808,4.4791e-10,0,0.0011468,0.00010931,2.4937e+08,107.06,0,3.3672e+08,23.098,12704,656.67,0,656.67,0,0.0008824,3.5555e-09,0,0.00045964,0.00016496,2.7551e+08,1014.6,0,1.3416e+08,133.37,656.67,1
2268,5.29,12139,1,12139,1,0.00018458,-3.2352e-09,0,0.00077685,-3.3714e-05,-145.21,-938.78,0,2.4088e+08,-50.572,12138,13320,1,13320,1,0.0016622,3.5563e-09,0,0.0016622,0.00024271,3.6586e+08,1215.7,0,5.2589e+08,156.36,13319,12138,1,12138,1,0.00018458,-2.7545e-09,0,0.00076612,-3.3765e-05,5.88e+07,-746.2,0,2.4924e+08,-34.15,12137,10979,1,10979,1,-0.001293,-1.0877e-08,0,2.0406e-05,-0.00030988,-5.2589e+08,-3069.8,0,6.2205e+06,-366.49,10978,11571,1,11571,1,-0.00058154,-6.2422e-09,0,0.00038307,-0.00017693,-2.3651e+08,-1831.4,0,1.3197e+08,-134.89,11570,12705,1,12705,1,0.0009507,-2.6688e-10,0,0.0011492,0.00010942,2.4968e+08,-60.884,0,3.3676e+08,31.637,12704,656.67,0,656.67,0,0.00088427,3.4425e-09,0,0.0004607,0.0001653,2.7582e+08,1031.9,0,1.3429e+08,107.94,656.67,1
2268,5.3,12139,1,12139,1,0.00018559,-9.0447e-10,0,0.00077862,-3.39e-05,22.067,-324.5,0,2.4118e+08,-73.734,12138,13320,1,13320,1,0.0016664,4.5251e-09,0,0.0016664,0.00024311,3.6588e+08,1462.6,0,5.2677e+08,158.87,13319,12138,1,12138,1,0.0001856,-4.5509e-10,0,0.00076777,-3.3954e-05,5.912e+07,-131.42,0,2.4957e+08,-52.069,12137,10979,1,10979,1,-0.0012951,-5.8336e-09,0,2.1064e-05,-0.00031066,-5.2677e+08,-1862,0,6.4553e+06,-414.63,10978,11571,1,11571,1,-0.00058218,-2.9358e-09,0,0.0003839,-0.00017743,-2.3677e+08,-912.61,0,1.3218e+08,-151.73,11570,12705,1,12705,1,0.00095337,1.097e-09,0,0.0011517,0.00010954,2.5001e+08,243.57,0,3.3683e+08,5.0483,12704,656.67,0,656.67,0,0.00088618,2.4824e-09,0,0.0004618,0.00016566,2.7616e+08,746.69,0,1.3442e+08,106.73,656.67,1
2268,5.31,12139,1,12139,1,0.00018662,-2.0047e-09,0,0.00078036,-3.4087e-05,-83.784,-614.07,0,2.4147e+08,-65.332,12138,13320,1,13320,1,0.0016705,2.4341e-09,0,0.0016705,0.00024351,3.6586e+08,832.61,0,5.2763e+08,182.49,13319,12138,1,12138,1,0.00018662,-1.351e-09,0,0.0007694,-3.4144e-05,5.9442e+07,-370.37,0,2.4989e+08,-44.976,12137,10979,1,10979,1,-0.0012973,-8.0317e-09,0,2.1739e-05,-0.00031143,-5.2763e+08,-2362.3,0,6.6958e+06,-384.68,10978,11571,1,11571,1,-0.00058278,-4.0714e-09,0,0.00038471,-0.00017792,-2.3701e+08,-1235.7,0,1.3239e+08,-148.35,11570,12705,1,12705,1,0.00095603,2.1684e-10,0,0.0011541,0.00010966,2.5032e+08,49.128,0,3.3687e+08,14.368,12704,656.67,0,656.67,0,0.00088806,2.5617e-09,0,0.00046288,0.00016601,2.7647e+08,782.48,0,1.3455e+08,115.69,656.67,1
2268,5.32,12139,1,12139,1,0.00018764,-1.0116e-09,0,0.0007821,-3.4274e-05,-130.59,-347.13,0,2.4177e+08,-56.868,12138,13320,1,13320,1,0.0016747,3.6615e-09,0,0.0016747,0.00024391,3.6585e+08,1185.7,0,5.2849e+08,167.38,13319,12138,1,12138,1,0.00018764,-5.0006e-10,0,0.00077103,-3.4334e-05,5.9764e+07,-140.14,0,2.502e+08,-39.823,12137,10979,1,10979,1,-0.0012994,-5.91e-09,0,2.2411e-05,-0.0003122,-5.2849e+08,-1841,0,6.9347e+06,-349.41,10978,11571,1,11571,1,-0.00058339,-3.0141e-09,0,0.00038553,-0.00017841,-2.3726e+08,-935.45,0,1.326e+08,-145.26,11570,12705,1,12705,1,0.00095868,9.4842e-10,0,0.0011566,0.00010977,2.5063e+08,210.01,0,3.3691e+08,26.89,12704,656.67,0,656.67,0,0.00088994,2.3041e-09,0,0.00046396,0.00016636,2.7679e+08,695.6,0,1.3468e+08,111.95,656.67,1
2268,5.33,12139,1,12139,1,0.00018866,-3.0045e-09,0,0.00078384,-3.4462e-05,-31.691,-885.35,0,2.4206e+08,-73.02,12138,13320,1,13320,1,0.0016789,2.145e-09,0,0.0016789,0.00024431,3.6584e+08,492.27,0,5.2936e+08,218.61,13319,12138,1,12138,1,0.00018867,-2.3671e-09,0,0.00077266,-3.4525e-05,6.0087e+07,-637.7,0,2.5052e+08,-59.018,12137,10979,1,10979,1,-0.0013015,-1.0799e-08,0,2.3087e-05,-0.00031298,-5.2936e+08,-3060.7,0,7.1748e+06,-444.36,10978,11571,1,11571,1,-0.000584,-5.4668e-09,0,0.00038634,-0.0001789,-2.3751e+08,-1614.1,0,1.3281e+08,-174.23,11570,12705,1,12705,1,0.00096133,-4.4409e-10,0,0.001159,0.00010989,2.5095e+08,-119.97,0,3.3695e+08,19.999,12704,656.67,0,656.67,0,0.00089182,3.1205e-09,0,0.00046505,0.0001667,2.7711e+08,933.19,0,1.3481e+08,125.38,656.67,1
2268,5.34,12139,1,12139,1,0.00018969,-2.1863e-09,0,0.00078559,-3.465e-05,-14.731,-686.89,0,2.4235e+08,-75.967,12138,13320,1,13320,1,0.0016831,2.3024e-09,0,0.0016831,0.00024471,3.6582e+08,436.92,0,5.3023e+08,197.99,13319,12138,1,12138,1,0.0001897,-1.6736e-09,0,0.00077429,-3.4716e-05,6.0411e+07,-443.11,0,2.5083e+08,-60.36,12137,10979,1,10979,1,-0.0013036,-8.5792e-09,0,2.3764e-05,-0.00031375,-5.3023e+08,-2574.2,0,7.4149e+06,-454.95,10978,11571,1,11571,1,-0.0005846,-4.47e-09,0,0.00038716,-0.00017939,-2.3775e+08,-1329.1,0,1.3302e+08,-179.92,11570,12705,1,12705,1,0.000964,1.4861e-10,0,0.0011615,0.00011,2.5126e+08,36.757,0,3.3699e+08,17.989,12704,656.67,0,656.67,0,0.00089371,2.7968e-09,0,0.00046614,0.00016706,2.7743e+08,841.7,0,1.3494e+08,125.5,656.67,1
2268,5.35,12139,1,12139,1,0.00019073,-1.0067e-09,0,0.00078735,-3.484e-05,-45.826,-369.26,0,2.4264e+08,-73.601,12138,13320,1,13320,1,0.0016873,2.9497e-09,0,0.0016873,0.00024511,3.6581e+08,578.42,0,5.3109e+08,153.53,13319,12138,1,12138,1,0.00019073,-6.7991e-10,0,0.00077593,-3.4909e-05,6.0737e+07,-210.05,0,2.5115e+08,-57.199,12137,10979,1,10979,1,-0.0013058,-5.4784e-09,0,2.4448e-05,-0.00031452,-5.3109e+08,-1807,0,7.657e+06,-442.6,10978,11571,1,11571,1,-0.00058521,-2.7891e-09,0,0.00038798,-0.00017988,-2.38e+08,-877.91,0,1.3323e+08,-158.3,11570,12705,1,12705,1,0.00096668,7.1693e-10,0,0.0011639,0.00011011,2.5157e+08,180.61,0,3.3703e+08,-0.57137,12704,656.67,0,656.67,0,0.0008956,2.2292e-09,0,0.00046723,0.00016741,2.7775e+08,649.21,0,1.3507e+08,104.71,656.67,1
2268,5.36,12139,1,12139,1,0.00019177,-2.2358e-09,0,0.00078909,-3.5031e-05,-90.887,-693.36,0,2.4293e+08,-51.599,12138,13320,1,13320,1,0.0016915,2.7851e-09,0,0.0016915,0.0002455,3.6578e+08,872.66,0,5.3195e+08,165.96,13319,12138,1,12138,1,0.00019177,-1.5219e-09,0,0.00077756,-3.5102e-05,6.1064e+07,-420.48,0,2.5146e+08,-37.888,12137,10979,1,10979,1,-0.0013079,-9.8111e-09,0,2.5139e-05,-0.0003153,-5.3195e+08,-2844.1,0,7.9014e+06,-376.24,10978,11571,1,11571,1,-0.0005858,-4.8914e-09,0,0.0003888,-0.00018038,-2.3824e+08,-1444.8,0,1.3344e+08,-142.33,11570,12705,1,12705,1,0.00096935,6.3707e-10,0,0.0011664,0.00011023,2.5188e+08,145.28,0,3.3705e+08,33.256,12704,656.67,0,656.67,0,0.00089748,3.1722e-09,0,0.00046832,0.00016776,2.7806e+08,948.35,0,1.3519e+08,108.11,656.67,1
2268,5.37,12139,1,12139,1,0.00019281,-7.1468e-10,0,0.00079084,-3.5221e-05,-309.29,-285.33,0,2.4322e+08,-41.731,12138,13320,1,13320,1,0.0016956,3.0795e-09,0,0.0016956,0.0002459,3.6575e+08,919.72,0,5.328e+08,215.93,13319,12138,1,12138,1,0.00019281,7.5306e-11,0,0.0007792,-3.5296e-05,6.1392e+07,22.702,0,2.5177e+08,-28.875,12137,10979,1,10979,1,-0.00131,-6.397e-09,0,2.5829e-05,-0.00031607,-5.328e+08,-2066.8,0,8.1449e+06,-410.15,10978,11571,1,11571,1,-0.00058639,-2.7862e-09,0,0.00038961,-0.00018087,-2.3848e+08,-823.11,0,1.3365e+08,-136.96,11570,12705,1,12705,1,0.00097202,1.3979e-09,0,0.0011688,0.00011034,2.5218e+08,318.2,0,3.3708e+08,41.006,12704,656.67,0,656.67,0,0.00089937,2.5635e-09,0,0.00046941,0.00016811,2.7837e+08,753.49,0,1.3532e+08,120.59,656.67,1
2268,5.38,12139,1,12139,1,0.00019386,-2.4813e-10,0,0.0007926,-3.5413e-05,-132.77,-143.51,0,2.4351e+08,-46.484,12138,13320,1,13320,1,0.0016998,2.9144e-09,0,0.0016998,0.00024629,3.6572e+08,965.12,0,5.3366e+08,147.06,13319,12138,1,12138,1,0.00019386,5.7795e-11,0,0.00078084,-3.5491e-05,6.1722e+07,18.761,0,2.5208e+08,-23.385,12137,10979,1,10979,1,-0.0013121,-3.9262e-09,0,2.6527e-05,-0.00031685,-5.3366e+08,-1343,0,8.3908e+06,-392.68,10978,11571,1,11571,1,-0.00058699,-1.8577e-09,0,0.00039043,-0.00018137,-2.3872e+08,-580.02,0,1.3386e+08,-116.31,11570,12705,1,12705,1,0.00097471,1.402e-09,0,0.0011713,0.00011045,2.5249e+08,309.53,0,3.3711e+08,15.897,12704,656.67,0,656.67,0,0.00090126,1.8777e-09,0,0.00047051,0.00016846,2.7869e+08,551.52,0,1.3545e+08,91.636,656.67,1
2268,5.39,12139,1,12139,1,0.00019491,2.2031e-09,0,0.00079436,-3.5607e-05,-75.067,546.96,0,2.4379e+08,-47.1,12138,13320,1,13320,1,0.001704,8.3655e-09,0,0.001704,0.00024668,3.6569e+08,1996.3,0,5.3451e+08,119.79,13319,12138,1,12138,1,0.00019491,1.3922e-09,0,0.00078249,-3.5687e-05,6.2053e+07,364.17,0,2.5238e+08,-34.489,12137,10979,1,10979,1,-0.0013142,-1.3417e-09,0,2.7232e-05,-0.00031762,-5.3451e+08,-459.47,0,8.6386e+06,-394.74,10978,11571,1,11571,1,-0.00058757,1.5126e-10,0,0.00039124,-0.00018186,-2.3896e+08,45.833,0,1.3407e+08,-110.2,11570,12705,1,12705,1,0.00097739,3.7319e-09,0,0.0011737,0.00011056,2.5279e+08,966.92,0,3.3712e+08,23.137,12704,656.67,0,656.67,0,0.00090316,2.5419e-09,0,0.00047161,0.00016881,2.79e+08,623.43,0,1.3557e+08,87.548,656.67,1
2268,5.4,12139,1,12139,1,0.00019597,-1.3268e-09,0,0.00079612,-3.5801e-05,19.139,-360.57,0,2.4408e+08,-35.759,12138,13320,1,13320,1,0.0017082,3.9683e-09,0,0.0017082,0.00024708,3.6565e+08,1280.4,0,5.3537e+08,132.98,13319,12138,1,12138,1,0.00019597,-1.0561e-09,0,0.00078413,-3.5884e-05,6.2386e+07,-273.23,0,2.5269e+08,-24.52,12137,10979,1,10979,1,-0.0013163,-6.0623e-09,0,2.7942e-05,-0.0003184,-5.3537e+08,-1650.7,0,8.8878e+06,-526.42,10978,11571,1,11571,1,-0.00058816,-3.2122e-09,0,0.00039206,-0.00018236,-2.392e+08,-911.39,0,1.3428e+08,-65.595,11570,12705,1,12705,1,0.0009801,3.0993e-10,0,0.0011762,0.00011067,2.531e+08,78.495,0,3.3714e+08,19.118,12704,656.67,0,656.67,0,0.00090505,2.2927e-09,0,0.00047271,0.00016916,2.7931e+08,645.09,0,1.357e+08,82.576,656.67,1
2268,5.41,12139,1,12139,1,0.00019703,-2.5215e-09,0,0.00079786,-3.5995e-05,78.575,-706.14,0,2.4436e+08,-76.972,12138,13320,1,13320,1,0.0017125,3.9715e-09,0,0.0017125,0.00024748,3.656e+08,1323.3,0,5.3623e+08,151.37,13319,12138,1,12138,1,0.00019703,-1.7751e-09,0,0.00078575,-3.6081e-05,6.2719e+07,-445.23,0,2.5299e+08,-60.501,12137,10979,1,10979,1,-0.0013184,-1.1138e-08,0,2.865e-05,-0.00031918,-5.3623e+08,-3083.2,0,9.1358e+06,-673.45,10978,11571,1,11571,1,-0.00058872,-5.4499e-09,0,0.00039288,-0.00018286,-2.3943e+08,-1542.3,0,1.3448e+08,-149.34,11570,12705,1,12705,1,0.00098279,3.9452e-10,0,0.0011786,0.00011078,2.534e+08,95.523,0,3.3715e+08,9.4153,12704,656.67,0,656.67,0,0.00090693,3.5628e-09,0,0.0004738,0.00016951,2.7962e+08,1026.4,0,1.3582e+08,115.05,656.67,1
2268,5.42,12139,1,12139,1,0.00019809,-1.2654e-09,0,0.00079963,-3.6189e-05,148.35,-406.54,0,2.4464e+08,-83.765,12138,13320,1,13320,1,0.0017167,1.9984e-09,0,0.0017167,0.00024787,3.6555e+08,546.83,0,5.3708e+08,130.14,13319,12138,1,12138,1,0.00019809,-1.1037e-09,0,0.00078739,-3.6278e-05,6.3054e+07,-287.37,0,2.533e+08,-59.452,12137,10979,1,10979,1,-0.0013205,-5.3866e-09,0,2.9357e-05,-0.00031997,-5.3708e+08,-1717.9,0,9.3828e+06,-379.81,10978,11571,1,11571,1,-0.00058931,-2.6847e-09,0,0.00039371,-0.00018336,-2.3966e+08,-817.06,0,1.3469e+08,-167.79,11570,12705,1,12705,1,0.0009855,3.6178e-10,0,0.0011811,0.00011089,2.537e+08,91.038,0,3.3716e+08,-0.89372,12704,656.67,0,656.67,0,0.00090883,1.8823e-09,0,0.00047491,0.00016986,2.7993e+08,566.53,0,1.3595e+08,111.35,656.67,1
2268,5.43,12139,1,12139,1,0.00019916,-1.7183e-09,0,0.00080138,-3.6385e-05,-130.13,-532.41,0,2.4492e+08,-55.405,12138,13320,1,13320,1,0.0017209,2.4596e-09,0,0.0017209,0.00024827,3.6549e+08,840.72,0,5.3793e+08,128.51,13319,12138,1,12138,1,0.00019916,-8.8345e-10,0,0.00078903,-3.6477e-05,6.339e+07,-245.87,0,2.536e+08,-37.71,12137,10979,1,10979,1,-0.0013226,-8.0426e-09,0,3.0074e-05,-0.00032075,-5.3793e+08,-2360,0,9.6332e+06,-386.16,10978,11571,1,11571,1,-0.00058988,-3.8815e-09,0,0.00039453,-0.00018386,-2.399e+08,-1150.6,0,1.3489e+08,-132.21,11570,12705,1,12705,1,0.0009882,5.592e-10,0,0.0011836,0.000111,2.54e+08,130.27,0,3.3717e+08,18.371,12704,656.67,0,656.67,0,0.00091072,2.6392e-09,0,0.00047602,0.00017021,2.8023e+08,794.42,0,1.3607e+08,94.778,656.67,1
2268,5.44,12139,1,12139,1,0.00020023,-1.7491e-10,0,0.00080315,-3.6582e-05,-11.649,-119.92,0,2.452e+08,-49.078,12138,13320,1,13320,1,0.0017252,4.5475e-09,0,0.0017252,0.00024866,3.6544e+08,1396.3,0,5.3878e+08,111.42,13319,12138,1,12138,1,0.00020024,2.2e-10,0,0.00079067,-3.6677e-05,6.3728e+07,59.728,0,2.539e+08,-27.365,12137,10979,1,10979,1,-0.0013247,-4.0206e-09,0,3.0795e-05,-0.00032153,-5.3878e+08,-1375.3,0,9.8841e+06,-309.54,10978,11571,1,11571,1,-0.00059044,-1.9472e-09,0,0.00039535,-0.00018436,-2.4013e+08,-594.86,0,1.351e+08,-119.58,11570,12705,1,12705,1,0.00099092,1.5213e-09,0,0.001186,0.0001111,2.5429e+08,319.81,0,3.3717e+08,15.994,12704,656.67,0,656.67,0,0.00091261,2.0535e-09,0,0.00047712,0.00017057,2.8054e+08,608.35,0,1.362e+08,87.451,656.67,1
2268,5.45,12139,1,12139,1,0.00020132,-7.5055e-10,0,0.00080494,-3.6781e-05,-39.108,-259.95,0,2.4549e+08,-68.878,12138,13320,1,13320,1,0.0017295,2.4066e-09,0,0.0017295,0.00024906,3.6539e+08,507.85,0,5.3964e+08,64.866,13319,12138,1,12138,1,0.00020132,-9.7377e-10,0,0.00079234,-3.6879e-05,6.4069e+07,-275.37,0,2.5421e+08,-45.856,12137,10979,1,10979,1,-0.0013268,-2.8478e-09,0,3.1524e-05,-0.00032232,-5.3964e+08,-974.1,0,1.0137e+07,-426.2,10978,11571,1,11571,1,-0.00059103,-1.8651e-09,0,0.00039618,-0.00018487,-2.4037e+08,-567.14,0,1.3531e+08,-127.41,11570,12705,1,12705,1,0.00099367,1.4319e-10,0,0.0011885,0.00011121,2.546e+08,33.781,0,3.3718e+08,-6.9699,12704,656.67,0,656.67,0,0.00091454,1.3736e-09,0,0.00047825,0.00017092,2.8085e+08,384.88,0,1.3633e+08,81.103,656.67,1
2268,5.46,12139,1,12139,1,0.00020241,1.8238e-09,0,0.0008067,-3.6981e-05,118.72,447.28,0,2.4576e+08,0.17742,12138,13320,1,13320,1,0.0017337,8.2131e-09,0,0.0017337,0.00024945,3.6532e+08,2190.4,0,5.4049e+08,167.06,13319,12138,1,12138,1,0.00020241,1.4323e-09,0,0.00079399,-3.7081e-05,6.4411e+07,341.9,0,2.5451e+08,27.904,12137,10979,1,10979,1,-0.0013289,-3.3111e-09,0,3.2264e-05,-0.0003231,-5.4049e+08,-1132.7,0,1.0394e+07,-498.03,10978,11571,1,11571,1,-0.00059158,-5.2137e-10,0,0.00039699,-0.00018537,-2.4059e+08,-140.05,0,1.3551e+08,-47.12,11570,12705,1,12705,1,0.00099639,3.856e-09,0,0.001191,0.00011132,2.5489e+08,958.39,0,3.3717e+08,90.687,12704,656.67,0,656.67,0,0.00091643,2.6584e-09,0,0.00047936,0.00017127,2.8115e+08,726.67,0,1.3645e+08,122.14,656.67,1
2268,5.47,12139,1,12139,1,0.0002035,-1.2164e-09,0,0.00080847,-3.7181e-05,31.846,-326.15,0,2.4604e+08,-70.572,12138,13320,1,13320,1,0.001738,1.2933e-09,0,0.001738,0.00024984,3.6525e+08,442.68,0,5.4134e+08,37.891,13319,12138,1,12138,1,0.0002035,-1.3404e-09,0,0.00079564,-3.7284e-05,6.4754e+07,-338.57,0,2.5481e+08,-58.628,12137,10979,1,10979,1,-0.001331,-3.5607e-09,0,3.3001e-05,-0.0003239,-5.4134e+08,-1007.5,0,1.0649e+07,-491.1,10978,11571,1,11571,1,-0.00059214,-2.1936e-09,0,0.00039782,-0.00018588,-2.4082e+08,-561.39,0,1.3572e+08,-105.83,11570,12705,1,12705,1,0.00099914,-1.5369e-10,0,0.0011935,0.00011142,2.5518e+08,-39.267,0,3.3716e+08,-21.727,12704,656.67,0,656.67,0,0.00091834,1.1532e-09,0,0.00048048,0.00017163,2.8145e+08,333.82,0,1.3657e+08,66.024,656.67,1
2268,5.48,12139,1,12139,1,0.00020459,-1.3001e-09,0,0.00081024,-3.7381e-05,-137.68,-366.59,0,2.4632e+08,-36.12,12138,13320,1,13320,1,0.0017423,3.6317e-09,0,0.0017423,0.00025023,3.6518e+08,1169.8,0,5.4219e+08,124.92,13319,12138,1,12138,1,0.00020459,-8.2261e-10,0,0.00079728,-3.7487e-05,6.5098e+07,-195.67,0,2.551e+08,-24.929,12137,10979,1,10979,1,-0.0013331,-6.3893e-09,0,3.3742e-05,-0.00032469,-5.4219e+08,-1787,0,1.0905e+07,-419.68,10978,11571,1,11571,1,-0.00059269,-3.0755e-09,0,0.00039865,-0.00018638,-2.4104e+08,-885.14,0,1.3592e+08,-86.448,11570,12705,1,12705,1,0.0010019,4.1269e-10,0,0.0011959,0.00011153,2.5547e+08,105.22,0,3.3715e+08,15.397,12704,656.67,0,656.67,0,0.00092024,2.3066e-09,0,0.0004816,0.00017198,2.8175e+08,677.51,0,1.3669e+08,74.701,656.67,1
2268,5.49,12139,1,12139,1,0.00020568,-1.6121e-09,0,0.000812,-3.7582e-05,-26.193,-474.95,0,2.4659e+08,-63.779,12138,13320,1,13320,1,0.0017465,2.3473e-09,0,0.0017465,0.00025062,3.6509e+08,802.88,0,5.4303e+08,68.733,13319,12138,1,12138,1,0.00020569,-1.0577e-09,0,0.00079892,-3.7691e-05,6.5442e+07,-287.36,0,2.5539e+08,-47.171,12137,10979,1,10979,1,-0.0013351,-6.1103e-09,0,3.4483e-05,-0.00032547,-5.4303e+08,-1813.3,0,1.1161e+07,-356.41,10978,11571,1,11571,1,-0.00059323,-3.2765e-09,0,0.00039947,-0.00018689,-2.4126e+08,-951.89,0,1.3612e+08,-118.45,11570,12705,1,12705,1,0.0010046,1.7521e-11,0,0.0011984,0.00011163,2.5576e+08,4.4511,0,3.3712e+08,-5.2879,12704,656.67,0,656.67,0,0.00092212,2.0031e-09,0,0.00048271,0.00017233,2.8205e+08,616.84,0,1.3681e+08,74.272,656.67,1
2268,5.5,12139,1,12139,1,0.00020678,-1.5161e-09,0,0.00081377,-3.7783e-05,-55.038,-461.79,0,2.4686e+08,-61.1,12138,13320,1,13320,1,0.0017508,2.4974e-09,0,0.0017508,0.00025101,3.6502e+08,853.57,0,5.4388e+08,82.791,13319,12138,1,12138,1,0.00020678,-7.904e-10,0,0.00080057,-3.7895e-05,6.5787e+07,-214.97,0,2.5569e+08,-40.985,12137,10979,1,10979,1,-0.0013372,-6.8359e-09,0,3.5226e-05,-0.00032627,-5.4388e+08,-2012.1,0,1.1416e+07,-413.09,10978,11571,1,11571,1,-0.00059379,-3.3188e-09,0,0.00040029,-0.0001874,-2.4149e+08,-978.6,0,1.3633e+08,-123.51,11570,12705,1,12705,1,0.0010074,2.9884e-10,0,0.0012009,0.00011174,2.5605e+08,69.046,0,3.3711e+08,8.2159,12704,656.67,0,656.67,0,0.00092403,2.2353e-09,0,0.00048383,0.00017268,2.8235e+08,679.88,0,1.3694e+08,81.981,656.67,1
2268,5.51,12139,1,12139,1,0.00020788,-1.3064e-09,0,0.00081553,-3.7985e-05,-58.68,-415.45,0,2.4713e+08,-48.961,12138,13320,1,13320,1,0.0017551,8.0478e-09,0,0.0017551,0.0002514,3.6493e+08,2364.9,0,5.4471e+08,180.78,13319,12138,1,12138,1,0.00020789,-6.0258e-10,0,0.0008022,-3.81e-05,6.6133e+07,-153.51,0,2.5598e+08,-32.751,12137,10979,1,10979,1,-0.0013393,-9.0805e-09,0,3.5976e-05,-0.00032705,-5.4471e+08,-2637.1,0,1.1674e+07,-402.73,10978,11571,1,11571,1,-0.00059432,-4.3689e-09,0,0.00040111,-0.0001879,-2.417e+08,-1264.3,0,1.3653e+08,-136.43,11570,12705,1,12705,1,0.0010101,1.1556e-09,0,0.0012033,0.00011184,2.5633e+08,236.41,0,3.3708e+08,35.498,12704,656.67,0,656.67,0,0.00092591,3.7727e-09,0,0.00048495,0.00017303,2.8264e+08,1113.7,0,1.3706e+08,110.28,656.67,1
2268,5.52,12139,1,12139,1,0.00020899,-1.1149e-09,0,0.00081733,-3.8189e-05,-14.254,-370.76,0,2.4741e+08,-99.346,12138,13320,1,13320,1,0.0017594,2.4664e-09,0,0.0017594,0.00025179,3.6486e+08,654.59,0,5.4557e+08,69.476,13319,12138,1,12138,1,0.000209,-1.0001e-09,0,0.00080387,-3.8307e-05,6.6483e+07,-265.77,0,2.5628e+08,-68.615,12137,10979,1,10979,1,-0.0013414,-4.9546e-09,0,3.6728e-05,-0.00032786,-5.4557e+08,-1685.2,0,1.1932e+07,-478.58,10978,11571,1,11571,1,-0.00059488,-2.5919e-09,0,0.00040195,-0.00018841,-2.4193e+08,-770.62,0,1.3673e+08,-187.02,11570,12705,1,12705,1,0.0010129,3.5487e-10,0,0.0012058,0.00011194,2.5663e+08,109.56,0,3.3707e+08,-9.6779,12704,656.67,0,656.67,0,0.00092785,1.9545e-09,0,0.00048609,0.00017339,2.8294e+08,582.24,0,1.3718e+08,107.67,656.67,1
2268,5.53,12139,1,12139,1,0.00021012,-4.39e-10,0,0.00081912,-3.8396e-05,-51.993,-186.63,0,2.4768e+08,-71.524,12138,13320,1,13320,1,0.0017637,2.9921e-09,0,0.0017637,0.00025218,3.6477e+08,591.35,0,5.4642e+08,78.155,13319,12138,1,12138,1,0.00021012,-5.4625e-10,0,0.00080554,-3.8517e-05,6.6836e+07,-143.76,0,2.5657e+08,-46.109,12137,10979,1,10979,1,-0.0013435,-3.088e-09,0,3.7498e-05,-0.00032865,-5.4642e+08,-1056.3,0,1.2195e+07,-404.08,10978,11571,1,11571,1,-0.00059542,-1.617e-09,0,0.00040278,-0.00018893,-2.4215e+08,-505.73,0,1.3694e+08,-141.12,11570,12705,1,12705,1,0.0010157,5.5742e-10,0,0.0012083,0.00011204,2.5691e+08,122.61,0,3.3704e+08,-0.89291,12704,656.67,0,656.67,0,0.00092977,1.5506e-09,0,0.00048723,0.00017375,2.8324e+08,432.6,0,1.3731e+08,90.284,656.67,1
2268,5.54,12139,1,12139,1,0.00021125,-4.4191e-10,0,0.0008209,-3.8602e-05,100.64,-170.48,0,2.4794e+08,-59.381,12138,13320,1,13320,1,0.001768,5.3926e-09,0,0.001768,0.00025257,3.6466e+08,1636.4,0,5.4726e+08,100.34,13319,12138,1,12138,1,0.00021125,9.1128e-11,0,0.00080719,-3.8726e-05,6.719e+07,22.976,0,2.5686e+08,-43.778,12137,10979,1,10979,1,-0.0013455,-5.759e-09,0,3.8271e-05,-0.00032945,-5.4726e+08,-1705.8,0,1.246e+07,-465.19,10978,11571,1,11571,1,-0.00059595,-2.4018e-09,0,0.00040361,-0.00018944,-2.4237e+08,-706.42,0,1.3714e+08,-127.66,11570,12705,1,12705,1,0.0010184,1.2137e-09,0,0.0012108,0.00011214,2.5719e+08,242.85,0,3.37e+08,10.998,12704,656.67,0,656.67,0,0.00093168,2.416e-09,0,0.00048836,0.0001741,2.8353e+08,712.96,0,1.3742e+08,87.1,656.67,1
2268,5.55,12139,1,12139,1,0.00021237,-3.3703e-09,0,0.00082268,-3.8808e-05,6.7049,-963.33,0,2.4821e+08,-71.887,12138,13320,1,13320,1,0.0017724,2.7914e-09,0,0.0017724,0.00025296,3.6457e+08,954.74,0,5.4811e+08,175.31,13319,12138,1,12138,1,0.00021237,-2.6365e-09,0,0.00080885,-3.8935e-05,6.7543e+07,-691.29,0,2.5714e+08,-53.448,12137,10979,1,10979,1,-0.0013476,-1.1675e-08,0,3.9041e-05,-0.00033025,-5.4811e+08,-3306.1,0,1.2722e+07,-418.18,10978,11571,1,11571,1,-0.00059648,-6.2342e-09,0,0.00040443,-0.00018995,-2.4258e+08,-1791.6,0,1.3734e+08,-164.62,11570,12705,1,12705,1,0.0010212,-4.7279e-10,0,0.0012133,0.00011224,2.5747e+08,-105.08,0,3.3696e+08,27.639,12704,656.67,0,656.67,0,0.00093358,3.5369e-09,0,0.00048949,0.00017446,2.8382e+08,1055.6,0,1.3754e+08,120.65,656.67,1
2268,5.56,12139,1,12139,1,0.0002135,-1.0629e-09,0,0.00082446,-3.9016e-05,-13.307,-382.79,0,2.4848e+08,-80.169,12138,13320,1,13320,1,0.0017767,2.8126e-09,0,0.0017767,0.00025335,3.6446e+08,887.92,0,5.4894e+08,140.19,13319,12138,1,12138,1,0.0002135,-2.2759e-10,0,0.0008105,-3.9146e-05,6.7899e+07,-52.813,0,2.5743e+08,-54.302,12137,10979,1,10979,1,-0.0013497,-6.7813e-09,0,3.9812e-05,-0.00033105,-5.4894e+08,-2238.7,0,1.2985e+07,-485.62,10978,11571,1,11571,1,-0.00059701,-3.0798e-09,0,0.00040527,-0.00019047,-2.428e+08,-940.77,0,1.3754e+08,-175.75,11570,12705,1,12705,1,0.001024,9.6308e-10,0,0.0012158,0.00011234,2.5776e+08,218.31,0,3.3693e+08,15.286,12704,656.67,0,656.67,0,0.0009355,2.5885e-09,0,0.00049063,0.00017481,2.8411e+08,775.01,0,1.3766e+08,119.39,656.67,1
2268,5.57,12139,1,12139,1,0.00021463,-4.8458e-10,0,0.00082625,-3.9224e-05,-81.761,-216.68,0,2.4874e+08,-55.954,12138,13320,1,13320,1,0.001781,7.3506e-09,0,0.001781,0.00025374,3.6435e+08,2211,0,5.4978e+08,148.12,13319,12138,1,12138,1,0.00021464,3.0448e-10,0,0.00081216,-3.9357e-05,6.8255e+07,78.362,0,2.5771e+08,-35.439,12137,10979,1,10979,1,-0.0013517,-8.2304e-09,0,4.0593e-05,-0.00033185,-5.4978e+08,-2531.6,0,1.325e+07,-395.34,10978,11571,1,11571,1,-0.00059753,-3.4395e-09,0,0.00040609,-0.00019098,-2.4301e+08,-1010.8,0,1.3774e+08,-156.02,11570,12705,1,12705,1,0.0010268,2.1999e-09,0,0.0012183,0.00011244,2.5803e+08,459.61,0,3.3688e+08,41.996,12704,656.67,0,656.67,0,0.00093741,3.774e-09,0,0.00049177,0.00017517,2.844e+08,1109,0,1.3778e+08,117.64,656.67,1
2268,5.58,12139,1,12139,1,0.00021577,1.0436e-09,0,0.00082804,-3.9433e-05,50.585,195.39,0,2.4901e+08,-50.728,12138,13320,1,13320,1,0.0017853,9.7869e-09,0,0.0017853,0.00025412,3.6425e+08,2868.9,0,5.5061e+08,192.14,13319,12138,1,12138,1,0.00021578,9.5392e-10,0,0.00081382,-3.9569e-05,6.8613e+07,238.51,0,2.58e+08,-11.547,12137,10979,1,10979,1,-0.0013538,-5.4146e-09,0,4.1377e-05,-0.00033265,-5.5061e+08,-1852.1,0,1.3516e+07,-488.8,10978,11571,1,11571,1,-0.00059805,-1.4742e-09,0,0.00040692,-0.0001915,-2.4322e+08,-469.63,0,1.3794e+08,-126.23,11570,12705,1,12705,1,0.0010296,3.3602e-09,0,0.0012207,0.00011254,2.5831e+08,747.17,0,3.3684e+08,38.513,12704,656.67,0,656.67,0,0.00093933,3.2459e-09,0,0.00049292,0.00017552,2.8469e+08,945.79,0,1.379e+08,141.75,656.67,1
2268,5.59,12139,1,12139,1,0.00021692,1.1002e-09,0,0.00082983,-3.9643e-05,31.722,265.55,0,2.4927e+08,-71.665,12138,13320,1,13320,1,0.0017897,5.6998e-09,0,0.0017897,0.0002545,3.6413e+08,1949.5,0,5.5144e+08,147.01,13319,12138,1,12138,1,0.00021692,1.1879e-09,0,0.00081548,-3.9782e-05,6.8972e+07,290.16,0,2.5828e+08,-39.611,12137,10979,1,10979,1,-0.0013558,-4.266e-09,0,4.217e-05,-0.00033345,-5.5144e+08,-1459.3,0,1.3785e+07,-383.7,10978,11571,1,11571,1,-0.00059856,-5.6624e-10,0,0.00040774,-0.00019202,-2.4343e+08,-147.95,0,1.3814e+08,-137.58,11570,12705,1,12705,1,0.0010324,2.7241e-09,0,0.0012232,0.00011264,2.5859e+08,676.57,0,3.3678e+08,1.9766,12704,656.67,0,656.67,0,0.00094124,2.0431e-09,0,0.00049406,0.00017588,2.8498e+08,590.85,0,1.3802e+08,108.07,656.67,1
2268,5.6,12139,1,12139,1,0.00021806,-1.7244e-10,0,0.0008316,-3.9853e-05,-148.76,-47.607,0,2.4952e+08,-52.587,12138,13320,1,13320,1,0.001794,8.8377e-09,0,0.001794,0.00025488,3.64e+08,2860.1,0,5.5227e+08,169.98,13319,12138,1,12138,1,0.00021807,-3.6934e-10,0,0.00081712,-3.9995e-05,6.9331e+07,-79.106,0,2.5855e+08,-40.19,12137,10979,1,10979,1,-0.0013578,-5.7923e-09,0,4.2963e-05,-0.00033424,-5.5227e+08,-1780.3,0,1.4053e+07,-633.44,10978,11571,1,11571,1,-0.00059906,-2.2625e-09,0,0.00040857,-0.00019253,-2.4363e+08,-625.79,0,1.3833e+08,-121.82,11570,12705,1,12705,1,0.0010352,1.2048e-09,0,0.0012257,0.00011273,2.5886e+08,322.88,0,3.3672e+08,30.031,12704,656.67,0,656.67,0,0.00094314,3.1879e-09,0,0.0004952,0.00017623,2.8526e+08,971.96,0,1.3814e+08,119.97,656.67,1
2268,5.61,12139,1,12139,1,0.00021921,-1.1714e-09,0,0.0008334,-4.0065e-05,-91.882,-311.75,0,2.4979e+08,-102.91,12138,13320,1,13320,1,0.0017984,7.654e-09,0,0.0017984,0.00025528,3.6389e+08,2618,0,5.5312e+08,132.37,13319,12138,1,12138,1,0.00021922,-1.3625e-09,0,0.0008188,-4.0209e-05,6.9693e+07,-299.14,0,2.5884e+08,-101.08,12137,10979,1,10979,1,-0.0013599,-6.6578e-09,0,4.3755e-05,-0.00033506,-5.5312e+08,-1931.7,0,1.4321e+07,-449.45,10978,11571,1,11571,1,-0.00059958,-3.5283e-09,0,0.0004094,-0.00019305,-2.4384e+08,-993.67,0,1.3853e+08,-189.14,11570,12705,1,12705,1,0.001038,6.0038e-10,0,0.0012282,0.00011283,2.5913e+08,138.59,0,3.3668e+08,-16.96,12704,656.67,0,656.67,0,0.00094507,2.9978e-09,0,0.00049635,0.00017659,2.8555e+08,913.92,0,1.3826e+08,107.64,656.67,1
2268,5.62,12139,1,12139,1,0.00022038,9.7549e-10,0,0.00083522,-4.0279e-05,33.12,240.71,0,2.5005e+08,-103.93,12138,13320,1,13320,1,0.0018028,6.1952e-09,0,0.0018028,0.00025566,3.6376e+08,2119.1,0,5.5396e+08,72.942,13319,12138,1,12138,1,0.00022038,8.0843e-10,0,0.00082048,-4.0426e-05,7.0059e+07,204.91,0,2.5912e+08,-66.274,12137,10979,1,10979,1,-0.001362,-2.8299e-09,0,4.4561e-05,-0.00033587,-5.5396e+08,-748.62,0,1.4593e+07,-427.9,10978,11571,1,11571,1,-0.0006001,-6.1499e-10,0,0.00041024,-0.00019358,-2.4405e+08,-175.19,0,1.3873e+08,-178.04,11570,12705,1,12705,1,0.0010409,2.3483e-09,0,0.0012307,0.00011293,2.5941e+08,557.26,0,3.3662e+08,-10.202,12704,656.67,0,656.67,0,0.00094701,1.8934e-09,0,0.00049752,0.00017695,2.8584e+08,546.98,0,1.3838e+08,116.32,656.67,1
2268,5.63,12139,1,12139,1,0.00022156,8.2823e-10,0,0.00083703,-4.0494e-05,23.466,227.85,0,2.5031e+08,-70.55,12138,13320,1,13320,1,0.0018072,4.7042e-09,0,0.0018072,0.00025605,3.6363e+08,1609,0,5.548e+08,64.85,13319,12138,1,12138,1,0.00022156,8.7946e-10,0,0.00082216,-4.0644e-05,7.0428e+07,224.07,0,2.594e+08,-26.64,12137,10979,1,10979,1,-0.0013641,-3.4982e-09,0,4.5377e-05,-0.00033668,-5.548e+08,-669.1,0,1.4868e+07,-387.99,10978,11571,1,11571,1,-0.0006006,-4.3335e-10,0,0.00041108,-0.00019411,-2.4426e+08,-124.24,0,1.3893e+08,-125.37,11570,12705,1,12705,1,0.0010437,1.9755e-09,0,0.0012332,0.00011302,2.5968e+08,477.35,0,3.3655e+08,9.1454,12704,656.67,0,656.67,0,0.00094895,1.4634e-09,0,0.00049868,0.00017731,2.8612e+08,413.42,0,1.385e+08,103.93,656.67,1
2268,5.64,12139,1,12139,1,0.00022272,2.5415e-11,0,0.00083881,-4.0709e-05,44.106,35.467,0,2.5056e+08,-74.85,12138,13320,1,13320,1,0.0018115,6.9741e-09,0,0.0018115,0.00025643,3.6348e+08,2349.2,0,5.5561e+08,124.48,13319,12138,1,12138,1,0.00022273,-5.0539e-10,0,0.00082381,-4.0862e-05,7.0795e+07,-117.91,0,2.5967e+08,-64.66,12137,10979,1,10979,1,-0.0013661,-2.5789e-09,0,4.6193e-05,-0.00033748,-5.5561e+08,-725.03,0,1.5143e+07,-506.19,10978,11571,1,11571,1,-0.00060108,-1.3073e-09,0,0.00041191,-0.00019462,-2.4445e+08,-356.61,0,1.3913e+08,-130.44,11570,12705,1,12705,1,0.0010465,5.3504e-10,0,0.0012357,0.00011311,2.5994e+08,164.63,0,3.3647e+08,-10.423,12704,656.67,0,656.67,0,0.00095085,1.9842e-09,0,0.00049983,0.00017766,2.8639e+08,605.42,0,1.3861e+08,86.205,656.67,1
2268,5.65,12139,1,12139,1,0.0002239,-2.0455e-09,0,0.00084062,-4.0924e-05,-164.37,-528.23,0,2.5082e+08,-74.543,12138,13320,1,13320,1,0.0018159,3.6607e-09,0,0.0018159,0.00025682,3.6336e+08,1252.7,0,5.5646e+08,79.135,13319,12138,1,12138,1,0.0002239,-2.2148e-09,0,0.00082549,-4.108e-05,7.1162e+07,-515.44,0,2.5995e+08,-49.379,12137,10979,1,10979,1,-0.0013681,-6.8197e-09,0,4.7004e-05,-0.0003383,-5.5646e+08,-1895.8,0,1.5416e+07,-478.97,10978,11571,1,11571,1,-0.00060159,-3.7946e-09,0,0.00041274,-0.00019515,-2.4466e+08,-1034.3,0,1.3933e+08,-145.47,11570,12705,1,12705,1,0.0010494,-1.9642e-10,0,0.0012382,0.00011321,2.6021e+08,-39.671,0,3.3641e+08,3.8375,12704,656.67,0,656.67,0,0.00095279,2.3033e-09,0,0.000501,0.00017802,2.8668e+08,668.87,0,1.3873e+08,94.692,656.67,1
2268,5.66,12139,1,12139,1,0.00022507,-3.2635e-09,0,0.00084242,-4.114e-05,-321.26,-896.41,0,2.5107e+08,-68.023,12138,13320,1,13320,1,0.0018204,9.6177e-09,0,0.0018204,0.00025721,3.6321e+08,3076.4,0,5.5729e+08,483.61,13319,12138,1,12138,1,0.00022508,-3.142e-09,0,0.00082715,-4.1299e-05,7.1532e+07,-796.21,0,2.6022e+08,-62.077,12137,10979,1,10979,1,-0.0013702,-1.3275e-08,0,4.7824e-05,-0.00033912,-5.5729e+08,-3711.3,0,1.5691e+07,-622.6,10978,11571,1,11571,1,-0.00060207,-7.2382e-09,0,0.00041358,-0.00019568,-2.4486e+08,-2046.3,0,1.3952e+08,-191.82,11570,12705,1,12705,1,0.0010522,3.7861e-10,0,0.0012407,0.0001133,2.6048e+08,96.434,0,3.3633e+08,24.592,12704,656.67,0,656.67,0,0.0009547,4.8914e-09,0,0.00050216,0.00017837,2.8696e+08,1420.9,0,1.3885e+08,174.04,656.67,1
2268,5.67,12139,1,12139,1,0.00022626,-4.2792e-10,0,0.00084424,-4.1358e-05,122.2,-202.12,0,2.5133e+08,-90.352,12138,13320,1,13320,1,0.0018248,6.7093e-09,0,0.0018248,0.00025759,3.6307e+08,2252.4,0,5.5813e+08,260.31,13319,12138,1,12138,1,0.00022627,1.183e-10,0,0.00082883,-4.152e-05,7.1905e+07,31.978,0,2.6049e+08,-39.746,12137,10979,1,10979,1,-0.0013722,-7.493e-09,0,4.8646e-05,-0.00033994,-5.5813e+08,-2408.8,0,1.5967e+07,-612.61,10978,11571,1,11571,1,-0.00060257,-3.1728e-09,0,0.00041443,-0.00019621,-2.4506e+08,-951.59,0,1.3972e+08,-201.12,11570,12705,1,12705,1,0.0010551,2.3741e-09,0,0.0012433,0.0001134,2.6075e+08,514.09,0,3.3626e+08,40.774,12704,656.67,0,656.67,0,0.00095665,3.5381e-09,0,0.00050334,0.00017874,2.8724e+08,1055.4,0,1.3897e+08,195.24,656.67,1
2268,5.68,12139,1,12139,1,0.00022745,-7.5776e-10,0,0.00084604,-4.1577e-05,-189.39,-279.15,0,2.5158e+08,-115.61,12138,13320,1,13320,1,0.0018292,3.3177e-09,0,0.0018292,0.00025796,3.629e+08,1055.9,0,5.5894e+08,169.87,13319,12138,1,12138,1,0.00022746,-2.957e-10,0,0.00083049,-4.1742e-05,7.2279e+07,-75.639,0,2.6076e+08,-73.817,12137,10979,1,10979,1,-0.0013742,-5.7788e-09,0,4.9482e-05,-0.00034075,-5.5894e+08,-1976.6,0,1.6247e+07,-493.52,10978,11571,1,11571,1,-0.00060304,-2.651e-09,0,0.00041526,-0.00019673,-2.4525e+08,-760.43,0,1.3991e+08,-235.76,11570,12705,1,12705,1,0.001058,1.049e-09,0,0.0012458,0.00011349,2.61e+08,252.78,0,3.3617e+08,9.717,12704,656.67,0,656.67,0,0.00095857,2.3832e-09,0,0.0005045,0.00017909,2.8751e+08,697.8,0,1.3908e+08,159.72,656.67,1
2268,5.69,12139,1,12139,1,0.00022864,-1.918e-09,0,0.00084784,-4.1795e-05,62.314,-581.24,0,2.5183e+08,-100.29,12138,13320,1,13320,1,0.0018336,7.7595e-09,0,0.0018336,0.00025835,3.6275e+08,2508.4,0,5.5977e+08,363.34,13319,12138,1,12138,1,0.00022864,-1.561e-09,0,0.00083216,-4.1963e-05,7.2651e+07,-406.1,0,2.6103e+08,-81.632,12137,10979,1,10979,1,-0.0013763,-8.1533e-09,0,5.0313e-05,-0.00034156,-5.5977e+08,-2589.4,0,1.6525e+07,-518.62,10978,11571,1,11571,1,-0.00060352,-4.7312e-09,0,0.00041609,-0.00019726,-2.4544e+08,-1404.9,0,1.401e+08,-220.21,11570,12705,1,12705,1,0.0010608,5.6256e-10,0,0.0012483,0.00011358,2.6126e+08,115.28,0,3.3608e+08,18.537,12704,656.67,0,656.67,0,0.00096049,3.2841e-09,0,0.00050567,0.00017945,2.8779e+08,1010.4,0,1.392e+08,176.46,656.67,1
2268,5.7,12139,1,12139,1,0.00022984,-1.007e-09,0,0.00084968,-4.2016e-05,-174.1,-357.25,0,2.5209e+08,-94.425,12138,13320,1,13320,1,0.0018381,3.4775e-09,0,0.0018381,0.00025874,3.626e+08,1093.4,0,5.6061e+08,187.19,13319,12138,1,12138,1,0.00022985,-1.1051e-09,0,0.00083385,-4.2187e-05,7.3029e+07,-282.27,0,2.613e+08,-44.716,12137,10979,1,10979,1,-0.0013784,-4.9696e-09,0,5.115e-05,-0.00034239,-5.6061e+08,-1699.8,0,1.6805e+07,-595.25,10978,11571,1,11571,1,-0.00060402,-2.8345e-09,0,0.00041694,-0.00019779,-2.4565e+08,-866.19,0,1.405e+08,-203.71,11570,12705,1,12705,1,0.0010637,7.3762e-10,0,0.0012508,0.00011367,2.6153e+08,159.38,0,3.3601e+08,13.174,12704,656.67,0,656.67,0,0.00096246,2.2132e-09,0,0.00050686,0.00017981,2.8807e+08,643.12,0,1.3932e+08,156.5,656.67,1
2268,5.71,12139,1,12139,1,0.00023105,-5.7914e-11,0,0.00085148,-4.2238e-05,109.94,-100.84,0,2.5233e+08,-50.47,12138,13320,1,13320,1,0.0018425,6.994e-09,0,0.0018425,0.00025911,3.6243e+08,2237.4,0,5.6142e+08,203.37,13319,12138,1,12138,1,0.00023106,1.6725e-11,0,0.00083552,-4.2412e-05,7.3408e+07,4.6703,0,2.6156e+08,-8.1957,12137,10979,1,10979,1,-0.0013803,-5.6187e-09,0,5.2004e-05,-0.0003432,-5.6142e+08,-1844.5,0,1.7091e+07,-492.52,10978,11571,1,11571,1,-0.00060447,-2.3436e-09,0,0.00041777,-0.00019832,-2.4583e+08,-754.91,0,1.4093e+08,-129.1,11570,12705,1,12705,1,0.0010666,2.3148e-09,0,0.0012533,0.00011376,2.6178e+08,495.73,0,3.359e+08,43.71,12704,656.67,0,656.67,0,0.00096438,2.9537e-09,0,0.00050803,0.00018017,2.8833e+08,870.48,0,1.3943e+08,151.27,656.67,1
2268,5.72,12139,1,12139,1,0.00023226,-7.6855e-10,0,0.00085332,-4.246e-05,-11.864,-258.07,0,2.5258e+08,-109.17,12138,13320,1,13320,1,0.001847,5.6873e-09,0,0.001847,0.0002595,3.6227e+08,1945.2,0,5.6226e+08,118.79,13319,12138,1,12138,1,0.00023227,-4.3749e-10,0,0.00083722,-4.2637e-05,7.3787e+07,-97.742,0,2.6183e+08,-72.756,12137,10979,1,10979,1,-0.0013824,-5.6898e-09,0,5.2853e-05,-0.00034403,-5.6226e+08,-1828.4,0,1.7375e+07,-475.98,10978,11571,1,11571,1,-0.00060496,-2.6492e-09,0,0.00041862,-0.00019886,-2.4603e+08,-799.36,0,1.4137e+08,-194.02,11570,12705,1,12705,1,0.0010695,8.2933e-10,0,0.0012558,0.00011385,2.6204e+08,185.11,0,3.3582e+08,-12.104,12704,656.67,0,656.67,0,0.00096634,2.3902e-09,0,0.00050922,0.00018053,2.8862e+08,735.65,0,1.3955e+08,124.91,656.67,1
2268,5.73,12139,1,12139,1,0.00023354,-3.9137e-09,0,0.00085516,-4.2695e-05,265.69,-1101.4,0,2.5281e+08,-117.94,12138,13320,1,13320,1,0.0018516,5.4888e-09,0,0.0018516,0.00025988,3.6208e+08,1877.3,0,5.6309e+08,162.59,13319,12138,1,12138,1,0.00023354,-2.8046e-09,0,0.00083892,-4.2874e-05,7.417e+07,-741.07,0,2.6208e+08,-90.273,12137,10979,1,10979,1,-0.0013844,-1.4639e-08,0,5.3767e-05,-0.00034488,-5.6309e+08,-4154.1,0,1.7678e+07,-537.35,10978,11571,1,11571,1,-0.00060538,-7.8446e-09,0,0.00041947,-0.00019941,-2.462e+08,-2195.9,0,1.418e+08,-235.77,11570,12705,1,12705,1,0.0010725,-2.6474e-10,0,0.0012584,0.00011393,2.6228e+08,-55.753,0,3.3569e+08,-3.439,12704,656.67,0,656.67,0,0.00096829,4.6374e-09,0,0.00051043,0.00018089,2.8887e+08,1377.6,0,1.3966e+08,146.13,656.67,1
2268,5.74,12139,1,12139,1,0.00023487,-2.5263e-10,0,0.00085707,-4.2939e-05,-15.53,-194.78,0,2.5305e+08,-152.56,12138,13320,1,13320,1,0.0018563,6.8735e-09,0,0.0018563,0.00026026,3.6188e+08,1324.6,0,5.6391e+08,144.67,13319,12138,1,12138,1,0.00023488,-9.6864e-10,0,0.00084066,-4.3121e-05,7.4562e+07,-265.31,0,2.6233e+08,-94.895,12137,10979,1,10979,1,-0.0013865,-5.2862e-09,0,5.4715e-05,-0.00034574,-5.6391e+08,-1568.1,0,1.7992e+07,-711.62,10978,11571,1,11571,1,-0.0006058,-2.5137e-09,0,0.00042035,-0.00019998,-2.4637e+08,-762.36,0,1.4223e+08,-291.7,11570,12705,1,12705,1,0.0010756,1.4164e-09,0,0.001261,0.00011401,2.6252e+08,311.5,0,3.3557e+08,-6.7073,12704,656.67,0,656.67,0,0.00097032,3.0071e-09,0,0.00051168,0.00018127,2.8913e+08,745.7,0,1.3978e+08,184.87,656.67,1
2268,5.75,12139,1,12139,1,0.00023623,-2.5443e-09,0,0.00085896,-4.3188e-05,3.838,-788.53,0,2.5327e+08,-114.65,12138,13320,1,13320,1,0.001861,3.5752e-09,0,0.001861,0.00026064,3.6164e+08,1222.8,0,5.6473e+08,129.85,13319,12138,1,12138,1,0.00023623,-1.6605e-09,0,0.0008424,-4.3372e-05,7.4961e+07,-434.96,0,2.6256e+08,-89.037,12137,10979,1,10979,1,-0.0013885,-1.101e-08,0,5.5702e-05,-0.00034662,-5.6473e+08,-3372.7,0,1.8319e+07,-600.39,10978,11571,1,11571,1,-0.00060618,-5.5366e-09,0,0.00042122,-0.00020055,-2.4653e+08,-1631.4,0,1.4266e+08,-216.53,11570,12705,1,12705,1,0.0010787,3.3637e-10,0,0.0012636,0.00011408,2.6274e+08,72.612,0,3.3542e+08,-7.532,12704,656.67,0,656.67,0,0.00097232,3.5626e-09,0,0.00051293,0.00018164,2.8938e+08,1084.8,0,1.3989e+08,134.09,656.67,1
2268,5.76,12139,1,12139,1,0.00023759,-2.2402e-09,0,0.00086085,-4.3438e-05,226,-744.62,0,2.5348e+08,-114.93,12138,13320,1,13320,1,0.0018657,7.1345e-09,0,0.0018657,0.00026101,3.6139e+08,2287.7,0,5.6554e+08,287.13,13319,12138,1,12138,1,0.0002376,-6.3606e-10,0,0.00084413,-4.3625e-05,7.5362e+07,-190.45,0,2.6278e+08,-85.063,12137,10979,1,10979,1,-0.0013905,-1.4454e-08,0,5.6692e-05,-0.00034749,-5.6554e+08,-4429.9,0,1.8646e+07,-620.64,10978,11571,1,11571,1,-0.00060655,-6.3634e-09,0,0.00042209,-0.00020112,-2.4667e+08,-1855.9,0,1.431e+08,-256.21,11570,12705,1,12705,1,0.0010817,2.198e-09,0,0.0012662,0.00011415,2.6295e+08,466.48,0,3.3525e+08,15.057,12704,656.67,0,656.67,0,0.00097431,5.3337e-09,0,0.00051418,0.00018201,2.8962e+08,1578.2,0,1.3999e+08,177.63,656.67,1
2268,5.77,12139,1,12139,1,0.00023897,-2.1398e-09,0,0.00086278,-4.3691e-05,-170.55,-755.97,0,2.537e+08,-175.82,12138,13320,1,13320,1,0.0018705,5.7267e-09,0,0.0018705,0.00026139,3.6116e+08,1122.3,0,5.6637e+08,168.77,13319,12138,1,12138,1,0.00023897,-1.6403e-09,0,0.0008459,-4.388e-05,7.5767e+07,-421.31,0,2.6302e+08,-135.16,12137,10979,1,10979,1,-0.0013925,-1.1222e-08,0,5.7684e-05,-0.00034838,-5.6637e+08,-3834.5,0,1.8974e+07,-668.08,10978,11571,1,11571,1,-0.00060694,-5.3374e-09,0,0.00042298,-0.0002017,-2.4683e+08,-1598.3,0,1.4354e+08,-340.61,11570,12705,1,12705,1,0.0010849,9.7531e-10,0,0.0012689,0.00011422,2.6318e+08,243.86,0,3.351e+08,-21.271,12704,656.67,0,656.67,0,0.00097636,4.2577e-09,0,0.00051545,0.00018239,2.8987e+08,1253.3,0,1.4011e+08,192.06,656.67,1
2268,5.78,12139,1,12139,1,0.00024036,-2.4365e-10,0,0.00086471,-4.3947e-05,-84.327,-273.54,0,2.5392e+08,-121.65,12138,13320,1,13320,1,0.0018753,7.424e-09,0,0.0018753,0.00026177,3.6091e+08,1673.3,0,5.6718e+08,316.79,13319,12138,1,12138,1,0.00024037,2.5236e-10,0,0.00084766,-4.4138e-05,7.6176e+07,67.16,0,2.6325e+08,-65.213,12137,10979,1,10979,1,-0.0013945,-9.0433e-09,0,5.87e-05,-0.00034926,-5.6718e+08,-3093,0,1.9309e+07,-735.33,10978,11571,1,11571,1,-0.00060731,-3.7466e-09,0,0.00042386,-0.00020228,-2.4699e+08,-1192.6,0,1.4398e+08,-285.78,11570,12705,1,12705,1,0.0010881,3.2351e-09,0,0.0012716,0.00011429,2.634e+08,713.39,0,3.3492e+08,13.677,12704,656.67,0,656.67,0,0.0009784,4.3365e-09,0,0.00051673,0.00018276,2.9011e+08,1225,0,1.4021e+08,206.72,656.67,1
2268,5.79,12139,1,12139,1,0.00024177,1.0833e-09,0,0.00086664,-4.4204e-05,75.038,104.51,0,2.5414e+08,-89.238,12138,13320,1,13320,1,0.0018801,9.8176e-09,0,0.0018801,0.00026214,3.6066e+08,1929.8,0,5.6798e+08,485.13,13319,12138,1,12138,1,0.00024177,1.2067e-09,0,0.00084943,-4.4398e-05,7.6587e+07,301.79,0,2.6347e+08,-63.011,12137,10979,1,10979,1,-0.0013965,-7.8665e-09,0,5.9729e-05,-0.00035014,-5.6798e+08,-2690.6,0,1.9648e+07,-778.11,10978,11571,1,11571,1,-0.00060767,-1.9879e-09,0,0.00042474,-0.00020286,-2.4713e+08,-657.05,0,1.4442e+08,-244.04,11570,12705,1,12705,1,0.0010912,3.7405e-09,0,0.0012742,0.00011436,2.6361e+08,954.73,0,3.3474e+08,43.035,12704,656.67,0,656.67,0,0.00098044,4.1588e-09,0,0.00051801,0.00018314,2.9035e+08,1096.1,0,1.4032e+08,244.84,656.67,1
2268,5.8,12139,1,12139,1,0.00024318,1.0898e-09,0,0.00086859,-4.4464e-05,13.144,177.79,0,2.5436e+08,-114.13,12138,13320,1,13320,1,0.0018849,7.0938e-09,0,0.0018849,0.00026252,3.6039e+08,1633.1,0,5.688e+08,63.654,13319,12138,1,12138,1,0.00024319,1.0576e-09,0,0.00085122,-4.466e-05,7.7001e+07,224.73,0,2.637e+08,-73.934,12137,10979,1,10979,1,-0.0013985,-3.6601e-09,0,6.0765e-05,-0.00035103,-5.688e+08,-1252.8,0,1.999e+07,-381.32,10978,11571,1,11571,1,-0.00060805,-8.101e-10,0,0.00042563,-0.00020345,-2.4728e+08,-244.69,0,1.4487e+08,-216.04,11570,12705,1,12705,1,0.0010944,2.8943e-09,0,0.0012769,0.00011443,2.6383e+08,657.56,0,3.3457e+08,-7.3813,12704,656.67,0,656.67,0,0.0009825,2.6734e-09,0,0.00051931,0.00018352,2.906e+08,689.67,0,1.4043e+08,123.13,656.67,1
2268,5.81,12139,1,12139,1,0.0002446,-1.4182e-09,0,0.00087052,-4.4724e-05,-88.477,-454.79,0,2.5456e+08,-55.432,12138,13320,1,13320,1,0.0018898,9.4152e-09,0,0.0018898,0.0002629,3.6011e+08,2816.6,0,5.6962e+08,283.88,13319,12138,1,12138,1,0.0002446,-5.2274e-10,0,0.000853,-4.4923e-05,7.7415e+07,-127.7,0,2.6392e+08,-38.704,12137,10979,1,10979,1,-0.0014005,-1.0798e-08,0,6.0026e-05,-0.00035192,-5.6962e+08,-3316.6,0,2.0334e+07,-382.92,10978,11571,1,11571,1,-0.00060839,-4.9609e-09,0,0.00042649,-0.00020404,-2.4742e+08,-1435.6,0,1.4531e+08,-151.42,11570,12705,1,12705,1,0.0010976,1.3706e-09,0,0.0012795,0.0001145,2.6404e+08,276.13,0,3.3437e+08,24.278,12704,656.67,0,656.67,0,0.00098453,4.5672e-09,0,0.00052059,0.0001839,2.9083e+08,1369.2,0,1.4054e+08,120.88,656.67,1
2268,5.82,12139,1,12139,1,0.00024601,-5.0515e-09,0,0.00087243,-4.4984e-05,-364.46,-1442.2,0,2.5476e+08,-158.26,12138,13320,1,13320,1,0.0018946,3.0856e-09,0,0.0018946,0.00026327,3.5983e+08,1056,0,5.7043e+08,316.76,13319,12138,1,12138,1,0.00024602,-4.2344e-09,0,0.00085475,-4.5185e-05,7.7829e+07,-1036,0,2.6414e+08,-135.49,12137,10979,1,10979,1,-0.0014025,-1.719e-08,0,5.9235e-05,-0.00035281,-5.7043e+08,-5161.8,0,2.0675e+07,-591.31,10978,11571,1,11571,1,-0.00060872,-8.6733e-09,0,0.00042736,-0.00020462,-2.4756e+08,-2456.4,0,1.4575e+08,-311.97,11570,12705,1,12705,1,0.0011008,-1.1362e-09,0,0.0012821,0.00011456,2.6424e+08,-263.02,0,3.3417e+08,-5.0487,12704,656.67,0,656.67,0,0.00098654,4.9331e-09,0,0.00052187,0.00018427,2.9106e+08,1513.4,0,1.4064e+08,186.6,656.67,1
2268,5.83,12139,1,12139,1,0.00024743,-1.5297e-09,0,0.00087439,-4.5245e-05,107.01,-599.15,0,2.5498e+08,-130.92,12138,13320,1,13320,1,0.0018995,5.9211e-09,0,0.0018995,0.00026365,3.5957e+08,1657.6,0,5.7125e+08,344.09,13319,12138,1,12138,1,0.00024744,-1.5003e-10,0,0.00085655,-4.5448e-05,7.8245e+07,-42.377,0,2.6436e+08,-78.873,12137,10979,1,10979,1,-0.0014045,-1.1201e-08,0,5.8441e-05,-0.00035371,-5.7125e+08,-3831,0,2.1015e+07,-514.9,10978,11571,1,11571,1,-0.00060909,-5.0895e-09,0,0.00042825,-0.00020521,-2.4771e+08,-1551.6,0,1.462e+08,-299.73,11570,12705,1,12705,1,0.001104,1.7921e-09,0,0.0012848,0.00011463,2.6445e+08,384.69,0,3.34e+08,-1.3072,12704,656.67,0,656.67,0,0.00098861,4.5182e-09,0,0.00052317,0.00018465,2.913e+08,1342.8,0,1.4075e+08,189.98,656.67,1
2268,5.84,12139,1,12139,1,0.00024888,-6.7471e-10,0,0.00087635,-4.551e-05,37.856,-379.4,0,2.5519e+08,-164.04,12138,13320,1,13320,1,0.0019043,9.3257e-09,0,0.0019043,0.00026402,3.5929e+08,1753.9,0,5.7206e+08,509.8,13319,12138,1,12138,1,0.00024889,-1.4062e-09,0,0.00085834,-4.5716e-05,7.8667e+07,-385.39,0,2.6458e+08,-131.91,12137,10979,1,10979,1,-0.0014065,-7.5579e-09,0,5.7636e-05,-0.00035461,-5.7206e+08,-2586.2,0,2.1363e+07,-614.99,10978,11571,1,11571,1,-0.00060943,-3.5611e-09,0,0.00042914,-0.00020581,-2.4785e+08,-1099.7,0,1.4665e+08,-368.58,11570,12705,1,12705,1,0.0011072,1.5599e-09,0,0.0012875,0.0001147,2.6466e+08,299.8,0,3.338e+08,-9.9,12704,656.67,0,656.67,0,0.00099068,4.0704e-09,0,0.00052449,0.00018504,2.9154e+08,1051.4,0,1.4086e+08,245.85,656.67,1
2268,5.85,12139,1,12139,1,0.00025033,-8.4616e-10,0,0.00087831,-4.5777e-05,44.003,-405.77,0,2.554e+08,-106.71,12138,13320,1,13320,1,0.0019092,6.6566e-09,0,0.0019092,0.0002644,3.59e+08,1209,0,5.7287e+08,504.91,13319,12138,1,12138,1,0.00025034,-7.3156e-10,0,0.00086013,-4.5985e-05,7.909e+07,-178.21,0,2.648e+08,-91.799,12137,10979,1,10979,1,-0.0014085,-7.513e-09,0,5.6824e-05,-0.00035552,-5.7287e+08,-2569.6,0,2.1715e+07,-471.66,10978,11571,1,11571,1,-0.00060977,-3.4755e-09,0,0.00043004,-0.00020641,-2.4798e+08,-1092,0,1.471e+08,-271.53,11570,12705,1,12705,1,0.0011105,1.3253e-09,0,0.0012901,0.00011476,2.6486e+08,273.55,0,3.3359e+08,5.8573,12704,656.67,0,656.67,0,0.00099275,3.4692e-09,0,0.0005258,0.00018542,2.9177e+08,948.37,0,1.4097e+08,200.07,656.67,1
2268,5.86,12139,1,12139,1,0.00025179,1.7866e-09,0,0.00088026,-4.6044e-05,-108.41,290.97,0,2.556e+08,-18.661,12138,13320,1,13320,1,0.0019141,8.3806e-09,0,0.0019141,0.00026476,3.5871e+08,1993.4,0,5.7366e+08,575.04,13319,12138,1,12138,1,0.0002518,1.8913e-09,0,0.00086191,-4.6254e-05,7.9515e+07,455.45,0,2.6501e+08,-6.1583,12137,10979,1,10979,1,-0.0014104,-5.3201e-09,0,5.6004e-05,-0.00035641,-5.7366e+08,-1820.5,0,2.2069e+07,-452.9,10978,11571,1,11571,1,-0.0006101,-1.6911e-09,0,0.00043094,-0.000207,-2.4812e+08,-551.67,0,1.4755e+08,-145.16,11570,12705,1,12705,1,0.0011137,5.4779e-09,0,0.0012928,0.00011482,2.6506e+08,1216.7,0,3.3338e+08,61.027,12704,656.67,0,656.67,0,0.0009948,3.9626e-09,0,0.00052711,0.0001858,2.92e+08,1031.5,0,1.4108e+08,190.93,656.67,1
2268,5.87,12139,1,12139,1,0.00025325,-2.0596e-09,0,0.00088222,-4.6312e-05,-56.821,-656.63,0,2.558e+08,-50.927,12138,13320,1,13320,1,0.001919,4.5915e-09,0,0.001919,0.00026514,3.584e+08,1396.6,0,5.7448e+08,430.12,13319,12138,1,12138,1,0.00025325,-8.6601e-10,0,0.00086369,-4.6524e-05,7.9939e+07,-230.82,0,2.6522e+08,-29.943,12137,10979,1,10979,1,-0.0014125,-1.0975e-08,0,5.5189e-05,-0.00035732,-5.7448e+08,-3437.3,0,2.2423e+07,-385.99,10978,11571,1,11571,1,-0.00061042,-5.2098e-09,0,0.00043182,-0.0002076,-2.4825e+08,-1529.8,0,1.48e+08,-157.97,11570,12705,1,12705,1,0.0011169,9.2956e-10,0,0.0012955,0.00011489,2.6526e+08,211.38,0,3.3317e+08,41.638,12704,656.67,0,656.67,0,0.00099686,3.8231e-09,0,0.00052843,0.00018618,2.9223e+08,1154.2,0,1.4118e+08,157.56,656.67,1
2268,5.88,12139,1,12139,1,0.00025471,-3.324e-10,0,0.00088417,-4.658e-05,48.805,-242.15,0,2.56e+08,-79.404,12138,13320,1,13320,1,0.0019239,6.272e-09,0,0.0019239,0.00026551,3.581e+08,1365,0,5.7527e+08,622.67,13319,12138,1,12138,1,0.00025472,2.0293e-10,0,0.00086547,-4.6795e-05,8.0365e+07,48.491,0,2.6543e+08,-68.882,12137,10979,1,10979,1,-0.0014144,-6.766e-09,0,5.4357e-05,-0.00035822,-5.7527e+08,-2315.2,0,2.2115e+07,-440.07,10978,11571,1,11571,1,-0.00061073,-3.1125e-09,0,0.00043271,-0.00020819,-2.4838e+08,-932.41,0,1.4845e+08,-239,11570,12705,1,12705,1,0.0011202,1.9566e-09,0,0.0012982,0.00011495,2.6545e+08,436.82,0,3.3295e+08,11.258,12704,656.67,0,656.67,0,0.00099891,3.2587e-09,0,0.00052974,0.00018656,2.9245e+08,921.58,0,1.4129e+08,206.66,656.67,1
2268,5.89,12139,1,12139,1,0.00025618,-2.1279e-09,0,0.00088614,-4.6851e-05,-10.183,-697.36,0,2.5621e+08,-90.262,12138,13320,1,13320,1,0.0019289,4.0741e-09,0,0.0019289,0.00026589,3.578e+08,691.87,0,5.7609e+08,555.88,13319,12138,1,12138,1,0.00025619,-1.9548e-09,0,0.00086727,-4.7068e-05,8.0793e+07,-470.52,0,2.6564e+08,-77.57,12137,10979,1,10979,1,-0.0014164,-8.8665e-09,0,5.353e-05,-0.00035914,-5.7609e+08,-2961.6,0,2.1783e+07,-501.96,10978,11571,1,11571,1,-0.00061106,-4.479e-09,0,0.00043361,-0.0002088,-2.4851e+08,-1337.2,0,1.489e+08,-235.37,11570,12705,1,12705,1,0.0011234,3.7707e-10,0,0.0013009,0.00011501,2.6565e+08,80.283,0,3.3274e+08,23.566,12704,656.67,0,656.67,0,0.001001,3.1631e-09,0,0.00053108,0.00018695,2.9268e+08,937.24,0,1.414e+08,203.17,656.67,1
2268,5.9,12139,1,12139,1,0.00025767,-7.691e-10,0,0.00088812,-4.7124e-05,-170.79,-378.59,0,2.5641e+08,-48.746,12138,13320,1,13320,1,0.0019338,6.3607e-09,0,0.0019338,0.00026626,3.5749e+08,1133.6,0,5.769e+08,755.06,13319,12138,1,12138,1,0.00025768,-4.9792e-10,0,0.00086907,-4.7343e-05,8.1225e+07,-134.1,0,2.6585e+08,-56.547,12137,10979,1,10979,1,-0.0014184,-6.9429e-09,0,5.2683e-05,-0.00036005,-5.769e+08,-2374.5,0,2.1444e+07,-433.61,10978,11571,1,11571,1,-0.00061137,-3.3238e-09,0,0.00043451,-0.0002094,-2.4864e+08,-1035.2,0,1.4936e+08,-195.89,11570,12705,1,12705,1,0.0011267,1.3419e-09,0,0.0013036,0.00011507,2.6585e+08,270.92,0,3.3251e+08,36.226,12704,656.67,0,656.67,0,0.0010031,3.2565e-09,0,0.00053242,0.00018733,2.9291e+08,893.26,0,1.4151e+08,225.77,656.67,1
2268,5.91,12139,1,12139,1,0.00025916,-9.0677e-10,0,0.00089009,-4.7398e-05,-168.39,-411.28,0,2.566e+08,-26.367,12138,13320,1,13320,1,0.0019388,5.6357e-09,0,0.0019388,0.00026663,3.5716e+08,990.11,0,5.777e+08,784.55,13319,12138,1,12138,1,0.00025917,-1.0921e-10,0,0.00087086,-4.762e-05,8.1658e+07,-32.975,0,2.6603e+08,-34.925,12137,10979,1,10979,1,-0.0014204,-8.3284e-09,0,5.183e-05,-0.00036096,-5.777e+08,-2845.3,0,2.1102e+07,-350.65,10978,11571,1,11571,1,-0.00061167,-4.1804e-09,0,0.0004354,-0.00021001,-2.4876e+08,-1246.2,0,1.4981e+08,-169.53,11570,12705,1,12705,1,0.00113,2.3272e-09,0,0.0013062,0.00011513,2.6603e+08,493.29,0,3.3228e+08,46.792,12704,656.67,0,656.67,0,0.0010051,3.8228e-09,0,0.00053375,0.00018771,2.9313e+08,1072.3,0,1.4161e+08,200.02,656.67,1
2268,5.92,12139,1,12139,1,0.00026066,-9.9527e-10,0,0.00089205,-4.7672e-05,162.18,-452.81,0,2.5679e+08,-63.866,12138,13320,1,13320,1,0.0019437,6.0948e-09,0,0.0019437,0.00026699,3.5684e+08,1070.8,0,5.7849e+08,806.31,13319,12138,1,12138,1,0.00026066,-1.0895e-10,0,0.00087265,-4.7896e-05,8.2091e+07,-31.53,0,2.6622e+08,-70.212,12137,10979,1,10979,1,-0.0014223,-8.7285e-09,0,5.0974e-05,-0.00036188,-5.7849e+08,-2985.2,0,2.0759e+07,-481.63,10978,11571,1,11571,1,-0.00061196,-4.087e-09,0,0.0004363,-0.00021061,-2.4888e+08,-1239.5,0,1.5026e+08,-225.19,11570,12705,1,12705,1,0.0011333,1.9715e-09,0,0.0013089,0.00011518,2.6622e+08,388.57,0,3.3206e+08,31.963,12704,656.67,0,656.67,0,0.0010072,3.8518e-09,0,0.00053508,0.00018809,2.9335e+08,1084.4,0,1.4172e+08,227.12,656.67,1
2268,5.93,12139,1,12139,1,0.00026215,2.4134e-10,0,0.00089402,-4.7946e-05,-2.017,-133.04,0,2.5698e+08,-15.821,12138,13320,1,13320,1,0.0019486,7.2856e-09,0,0.0019486,0.00026736,3.5652e+08,1444.8,0,5.7928e+08,993.87,13319,12138,1,12138,1,0.00026216,4.9326e-10,0,0.00087444,-4.8173e-05,8.2524e+07,122.53,0,2.664e+08,-27.27,12137,10979,1,10979,1,-0.0014243,-6.9893e-09,0,5.0117e-05,-0.00036278,-5.7928e+08,-2391.6,0,2.0417e+07,-380.99,10978,11571,1,11571,1,-0.00061226,-3.1785e-09,0,0.00043719,-0.00021122,-2.49e+08,-973.9,0,1.5072e+08,-164.99,11570,12705,1,12705,1,0.0011366,3.7722e-09,0,0.0013116,0.00011524,2.664e+08,800.22,0,3.3205e+08,36.205,12704,656.67,0,656.67,0,0.0010093,3.9739e-09,0,0.00053642,0.00018848,2.9357e+08,1075.5,0,1.4182e+08,233.63,656.67,1
2268,5.94,12139,1,12139,1,0.00026367,-9.5881e-10,0,0.00089603,-4.8225e-05,-59.637,-421.42,0,2.5719e+08,-68.354,12138,13320,1,13320,1,0.0019537,6.1582e-09,0,0.0019537,0.00026774,3.562e+08,1098.1,0,5.8011e+08,806.24,13319,12138,1,12138,1,0.00026367,-1.1394e-09,0,0.00087627,-4.8454e-05,8.2963e+07,-312.25,0,2.666e+08,-64.524,12137,10979,1,10979,1,-0.0014263,-6.6815e-09,0,4.9258e-05,-0.00036372,-5.8011e+08,-2285.1,0,2.0074e+07,-464.21,10978,11571,1,11571,1,-0.00061258,-3.3635e-09,0,0.00043811,-0.00021183,-2.4913e+08,-1031.6,0,1.5118e+08,-205.16,11570,12705,1,12705,1,0.0011399,9.4879e-10,0,0.0013144,0.0001153,2.666e+08,213.75,0,3.3207e+08,26.615,12704,656.67,0,656.67,0,0.0010114,3.1684e-09,0,0.00053779,0.00018887,2.938e+08,852.71,0,1.4193e+08,214.89,656.67,1
2268,5.95,12139,1,12139,1,0.00026534,2.2353e-09,0,0.00089811,-4.8531e-05,391.05,403.56,0,2.5735e+08,13.94,12138,13320,1,13320,1,0.001959,1.02e-08,0,0.001959,0.0002681,3.5584e+08,1989.2,0,5.8088e+08,1205.9,13319,12138,1,12138,1,0.00026534,1.5949e-09,0,0.00087815,-4.8761e-05,8.34e+07,387.25,0,2.6675e+08,-38.038,12137,10979,1,10979,1,-0.0014282,-3.152e-09,0,4.8253e-05,-0.00036468,-5.8088e+08,-1079,0,1.9674e+07,-360.1,10978,11571,1,11571,1,-0.00061278,-6.7639e-10,0,0.00043905,-0.00021249,-2.4921e+08,-231.61,0,1.5161e+08,-151.71,11570,12705,1,12705,1,0.0011435,4.7737e-09,0,0.0013172,0.00011534,2.6675e+08,1036.5,0,3.3204e+08,66.204,12704,656.67,0,656.67,0,0.0010135,3.4859e-09,0,0.00053922,0.00018927,2.94e+08,789.5,0,1.4204e+08,269.72,656.67,1
2268,5.96,12139,1,12139,1,0.00026712,2.6043e-09,0,0.00090025,-4.8856e-05,52.487,558.09,0,2.575e+08,127.26,12138,13320,1,13320,1,0.0019644,9.0149e-09,0,0.0019644,0.00026846,3.5542e+08,2084.1,0,5.8167e+08,1632.3,13319,12138,1,12138,1,0.00026712,2.3534e-09,0,0.00088006,-4.9087e-05,8.3852e+07,582.35,0,2.6687e+08,30.345,12137,10979,1,10979,1,-0.0014301,-1.9841e-09,0,4.717e-05,-0.00036569,-5.8167e+08,-679.3,0,1.9243e+07,-269.31,10978,11571,1,11571,1,-0.00061293,-1.243e-10,0,0.00044002,-0.00021316,-2.4927e+08,-31.557,0,1.5205e+08,-63.97,11570,12705,1,12705,1,0.0011472,4.992e-09,0,0.0013201,0.00011537,2.6687e+08,1083.6,0,3.3197e+08,216.56,12704,656.67,0,656.67,0,0.0010158,2.9661e-09,0,0.00054071,0.00018968,2.9418e+08,675.16,0,1.4215e+08,313.39,656.67,1
2268,5.97,12139,1,12139,1,0.00026896,-2.2949e-09,0,0.00090243,-4.9192e-05,263.4,-644.29,0,2.5764e+08,180.84,12138,13320,1,13320,1,0.0019701,8.9733e-09,0,0.0019701,0.00026884,3.5497e+08,2003.9,0,5.8248e+08,1714.2,13319,12138,1,12138,1,0.00026896,-1.0501e-09,0,0.00088202,-4.9424e-05,8.4319e+07,-290.35,0,2.67e+08,72.599,12137,10979,1,10979,1,-0.0014321,-1.5519e-08,0,4.6037e-05,-0.00036674,-5.8248e+08,-3325.9,0,1.8794e+07,-284.61,10978,11571,1,11571,1,-0.00061305,-4.9757e-09,0,0.000441,-0.00021386,-2.4932e+08,-1415.7,0,1.5249e+08,-57.023,11570,12705,1,12705,1,0.001151,7.4318e-10,0,0.001323,0.0001154,2.67e+08,158.92,0,3.319e+08,322.43,12704,656.67,0,656.67,0,0.001018,4.3445e-09,0,0.00054223,0.0001901,2.9435e+08,1116.7,0,1.4225e+08,344.99,656.67,1
2268,5.98,12139,1,12139,1,0.00027085,-4.0152e-09,0,0.00090467,-4.9538e-05,-995.81,-1164.1,0,2.5778e+08,255.26,12138,13320,1,13320,1,0.0019759,1.2313e-08,0,0.0019759,0.00026922,3.545e+08,2667.6,0,5.8329e+08,2683.8,13319,12138,1,12138,1,0.00027085,-3.1287e-09,0,0.00088403,-4.9771e-05,8.4797e+07,-802.7,0,2.6711e+08,94.435,12137,10979,1,10979,1,-0.0014341,-1.7095e-08,0,4.4858e-05,-0.00036781,-5.8329e+08,-4783.1,0,1.8327e+07,-323,10978,11571,1,11571,1,-0.00061317,-9.2715e-09,0,0.000442,-0.00021458,-2.4937e+08,-2547.1,0,1.5295e+08,-56.958,11570,12705,1,12705,1,0.0011549,7.6583e-10,0,0.001326,0.00011542,2.6711e+08,150.7,0,3.3181e+08,402.11,12704,656.67,0,656.67,0,0.0010203,6.0942e-09,0,0.0005438,0.00019053,2.9452e+08,1671.8,0,1.4235e+08,480,656.67,1
2268,5.99,12139,1,12139,1,0.00027279,8.9153e-10,0,0.00090696,-4.9893e-05,-86.205,23.045,0,2.5792e+08,356.02,12138,13320,1,13320,1,0.0019818,1.3306e-08,0,0.0019818,0.00026959,3.5403e+08,3010.7,0,5.8409e+08,4095.7,13319,12138,1,12138,1,0.00027279,4.5339e-10,0,0.0008861,-5.0127e-05,8.529e+07,110.8,0,2.6723e+08,85.099,12137,10979,1,10979,1,-0.0014361,-1.6701e-08,0,4.3632e-05,-0.00036889,-5.8409e+08,-3294.2,0,1.7843e+07,-570.87,10978,11571,1,11571,1,-0.00061328,-3.2466e-09,0,0.00044301,-0.00021531,-2.4941e+08,-960.51,0,1.5342e+08,-64.682,11570,12705,1,12705,1,0.0011589,5.295e-09,0,0.0013291,0.00011545,2.6723e+08,1147.3,0,3.317e+08,537.4,12704,656.67,0,656.67,0,0.0010227,5.2208e-09,0,0.0005454,0.00019097,2.947e+08,1289.8,0,1.4246e+08,764.21,656.67,1
2268,6,12139,1,12139,1,0.00027479,3.6519e-09,0,0.00090926,-5.0258e-05,-98.087,720.44,0,2.5805e+08,490.57,12138,13320,1,13320,1,0.0019877,1.9791e-08,0,0.0019877,0.00026996,3.5352e+08,4475.2,0,5.8489e+08,5110.7,13319,12138,1,12138,1,0.00027478,2.0885e-09,0,0.00088815,-5.0492e-05,8.5788e+07,532.17,0,2.6733e+08,131.03,12137,10979,1,10979,1,-0.001438,-2.2937e-08,0,4.2376e-05,-0.00036998,-5.8489e+08,-4428.2,0,1.7349e+07,-852.53,10978,11571,1,11571,1,-0.00061335,-2.0151e-09,0,0.00044405,-0.00021606,-2.4944e+08,-637.16,0,1.5389e+08,-50.124,11570,12705,1,12705,1,0.0011629,9.9299e-09,0,0.0013322,0.00011546,2.6733e+08,2149.7,0,3.3158e+08,731.49,12704,656.67,0,656.67,0,0.0010251,7.3013e-09,0,0.00054703,0.00019141,2.9486e+08,1650.6,0,1.4256e+08,939.25,656.67,1
2268,6.01,12139,1,12139,1,0.00027681,9.0426e-10,0,0.00091158,-5.0626e-05,-53.813,126.57,0,2.5817e+08,648.65,12138,13320,1,13320,1,0.0019937,2.3483e-08,0,0.0019937,0.00027033,3.5298e+08,5585.5,0,5.857e+08,5900.9,13319,12138,1,12138,1,0.0002768,5.4178e-10,0,0.00089022,-5.0862e-05,8.6293e+07,137.36,0,2.6743e+08,236.15,12137,10979,1,10979,1,-0.00144,-3.3378e-08,0,4.1108e-05,-0.00037109,-5.857e+08,-6476.9,0,1.6852e+07,-356.74,10978,11571,1,11571,1,-0.0006134,-3.6118e-09,0,0.00044509,-0.00021681,-2.4946e+08,-1083.7,0,1.5436e+08,22.52,11570,12705,1,12705,1,0.001167,6.1657e-09,0,0.0013353,0.00011548,2.6743e+08,1315.3,0,3.3145e+08,879.09,12704,656.67,0,656.67,0,0.0010275,7.4975e-09,0,0.00054868,0.00019185,2.9501e+08,1732.6,0,1.4266e+08,1047,656.67,1
2268,6.02,12139,1,12139,1,0.00027886,3.661e-09,0,0.00091393,-5.1001e-05,140.49,872.54,0,2.583e+08,774.14,12138,13320,1,13320,1,0.0019998,2.2736e-08,0,0.0019998,0.00027071,3.5245e+08,6992.4,0,5.8651e+08,7347.4,13319,12138,1,12138,1,0.00027884,3.4601e-09,0,0.00089231,-5.1234e-05,8.6804e+07,886.8,0,2.6753e+08,200.53,12137,10979,1,10979,1,-0.001442,-4.1426e-08,0,3.9812e-05,-0.00037221,-5.8651e+08,-7956.7,0,1.6345e+07,-751.52,10978,11571,1,11571,1,-0.00061346,-7.3003e-10,0,0.00044615,-0.00021757,-2.4948e+08,-190.45,0,1.5484e+08,-55.772,11570,12705,1,12705,1,0.0011712,1.0033e-08,0,0.0013385,0.00011549,2.6753e+08,2329,0,3.3132e+08,1136.5,12704,656.67,0,656.67,0,0.0010299,8.4849e-09,0,0.00055035,0.0001923,2.9517e+08,1908.1,0,1.4276e+08,1354.8,656.67,1
2268,6.03,12139,1,12139,1,0.00028093,-2.1795e-09,0,0.00091632,-5.138e-05,-94.707,-514.47,0,2.5842e+08,928.17,12138,13320,1,13320,1,0.002006,2.8377e-08,0,0.002006,0.0002711,3.519e+08,8889,0,5.8735e+08,7944.3,13319,12138,1,12138,1,0.00028092,-1.4776e-09,0,0.00089445,-5.1615e-05,8.7321e+07,-412.41,0,2.6763e+08,272.15,12137,10979,1,10979,1,-0.0014441,-5.0578e-08,0,3.8501e-05,-0.00037336,-5.8735e+08,-9695.5,0,1.5835e+07,-570.75,10978,11571,1,11571,1,-0.00061352,-4.7746e-09,0,0.00044721,-0.00021835,-2.4951e+08,-1428.2,0,1.5533e+08,16.79,11570,12705,1,12705,1,0.0011754,7.0645e-10,0,0.0013416,0.00011551,2.6763e+08,145.94,0,3.3119e+08,1346.2,12704,656.67,0,656.67,0,0.0010324,8.8251e-09,0,0.00055205,0.00019276,2.9534e+08,2026.8,0,1.4287e+08,1470.2,656.67,1
2268,6.04,12139,1,12139,1,0.00028306,-1.4057e-09,0,0.00091874,-5.1769e-05,-183.46,-374.16,0,2.5855e+08,1080.1,12138,13320,1,13320,1,0.0020123,3.4274e-08,0,0.0020123,0.00027148,3.5133e+08,11731,0,5.8818e+08,9448.3,13319,12138,1,12138,1,0.00028304,-1.5839e-09,0,0.00089661,-5.2002e-05,8.7846e+07,-408.34,0,2.6772e+08,306.64,12137,10979,1,10979,1,-0.0014461,-5.5986e-08,0,3.7147e-05,-0.00037452,-5.8818e+08,-10545,0,1.531e+07,-469.74,10978,11571,1,11571,1,-0.00061355,-5.1287e-09,0,0.00044828,-0.00021913,-2.4952e+08,-1615.4,0,1.5581e+08,9.1421,11570,12705,1,12705,1,0.0011796,2.9576e-09,0,0.0013449,0.00011552,2.6772e+08,568.83,0,3.3105e+08,1460,12704,656.67,0,656.67,0,0.0010349,9.8534e-09,0,0.00055378,0.00019322,2.9549e+08,2418.3,0,1.4297e+08,1736.9,656.67,1
2268,6.05,12139,1,12139,1,0.0002852,4.1984e-09,0,0.00092115,-5.2161e-05,-144.11,1074.4,0,2.5865e+08,1382.7,12138,13320,1,13320,1,0.0020186,4.2965e-08,0,0.0020186,0.00027186,3.5075e+08,13844,0,5.8898e+08,11149,13319,12138,1,12138,1,0.00028517,5.2737e-09,0,0.00089874,-5.2391e-05,8.8372e+07,1363.4,0,2.678e+08,472.48,12137,10979,1,10979,1,-0.0014481,-6.9496e-08,0,3.5763e-05,-0.00037567,-5.8898e+08,-12981,0,1.4777e+07,-358.06,10978,11571,1,11571,1,-0.00061355,-1.1755e-09,0,0.00044934,-0.00021991,-2.4952e+08,-357.28,0,1.5606e+08,52.949,11570,12705,1,12705,1,0.0011839,1.2233e-08,0,0.0013481,0.00011552,2.678e+08,2793.9,0,3.3088e+08,1958.5,12704,656.67,0,656.67,0,0.0010374,1.3488e-08,0,0.0005555,0.00019367,2.9564e+08,3165.2,0,1.4307e+08,2058.1,656.67,1
2268,6.06,12139,1,12139,1,0.00028736,6.6889e-10,0,0.00092359,-5.2555e-05,-104.23,312.45,0,2.5877e+08,1740.6,12138,13320,1,13320,1,0.0020249,5.4296e-08,0,0.0020249,0.00027224,3.5016e+08,15516,0,5.8981e+08,12300,13319,12138,1,12138,1,0.00028731,1.534e-09,0,0.00090092,-5.2783e-05,8.8902e+07,441.84,0,2.6789e+08,761.74,12137,10979,1,10979,1,-0.0014501,-9.0663e-08,0,3.438e-05,-0.00037684,-5.8981e+08,-17088,0,1.4246e+07,-313.86,10978,11571,1,11571,1,-0.00061357,-2.7358e-09,0,0.00045041,-0.0002207,-2.4953e+08,-665.55,0,1.5622e+08,235.73,11570,12705,1,12705,1,0.0011882,8.1636e-09,0,0.0013513,0.00011553,2.6789e+08,1970.7,0,3.3073e+08,2374.2,12704,656.67,0,656.67,0,0.0010399,1.7621e-08,0,0.00055726,0.00019414,2.9579e+08,3976.1,0,1.4318e+08,2260.5,656.67,1
2268,6.07,12139,1,12139,1,0.00028956,-3.7204e-09,0,0.00092606,-5.2957e-05,-372.03,-788.61,0,2.5888e+08,2028.2,12138,13320,1,13320,1,0.0020314,6.8605e-08,0,0.0020314,0.00027263,3.4958e+08,19078,0,5.9065e+08,13435,13319,12138,1,12138,1,0.0002895,-3.9342e-09,0,0.00090313,-5.3184e-05,8.9441e+07,-1042.5,0,2.6797e+08,951.02,12137,10979,1,10979,1,-0.0014522,-9.9016e-08,0,3.2969e-05,-0.00037803,-5.9065e+08,-18496,0,1.3707e+07,-174.81,10978,11571,1,11571,1,-0.00061358,-9.2211e-09,0,0.00045151,-0.00022151,-2.4953e+08,-2429.6,0,1.5639e+08,317.03,11570,12705,1,12705,1,0.0011926,2.5615e-09,0,0.0013546,0.00011554,2.6797e+08,658.04,0,3.3056e+08,2813,12704,656.67,0,656.67,0,0.0010424,2.01e-08,0,0.00055904,0.00019461,2.9594e+08,4667,0,1.4328e+08,2524.3,656.67,1
2268,6.08,12139,1,12139,1,0.00029179,4.3357e-10,0,0.00092857,-5.3365e-05,-383.78,219.16,0,2.59e+08,2366.2,12138,13320,1,13320,1,0.002038,7.9903e-08,0,0.002038,0.00027302,3.4897e+08,22673,0,5.9149e+08,15423,13319,12138,1,12138,1,0.00029172,8.4362e-10,0,0.00090537,-5.359e-05,8.9987e+07,204.38,0,2.6805e+08,1165.6,12137,10979,1,10979,1,-0.0014543,-1.1193e-07,0,3.1527e-05,-0.00037924,-5.9149e+08,-20655,0,1.3159e+07,-119.34,10978,11571,1,11571,1,-0.00061358,-5.8115e-09,0,0.00045261,-0.00022233,-2.4953e+08,-1565.4,0,1.5656e+08,412.53,11570,12705,1,12705,1,0.0011971,9.1119e-09,0,0.0013579,0.00011555,2.6805e+08,2153.5,0,3.3039e+08,3248.4,12704,656.67,0,656.67,0,0.001045,2.3442e-08,0,0.00056086,0.00019509,2.9609e+08,5509.2,0,1.4339e+08,2859.5,656.67,1
2268,6.09,12139,1,12139,1,0.00029407,-1.6158e-09,0,0.0009311,-5.3781e-05,64.673,-295.58,0,2.591e+08,2737.1,12138,13320,1,13320,1,0.0020446,9.7166e-08,0,0.0020446,0.00027341,3.4835e+08,26620,0,5.9234e+08,17568,13319,12138,1,12138,1,0.00029398,-1.2556e-09,0,0.00090762,-5.4002e-05,9.0539e+07,-313.04,0,2.6812e+08,1373.6,12137,10979,1,10979,1,-0.0014564,-1.2977e-07,0,3.0051e-05,-0.00038046,-5.9234e+08,-23723,0,1.2601e+07,-171.9,10978,11571,1,11571,1,-0.00061356,-1.0457e-08,0,0.00045372,-0.00022316,-2.4952e+08,-2746.7,0,1.5672e+08,448.47,11570,12705,1,12705,1,0.0012016,7.7567e-09,0,0.0013613,0.00011555,2.6812e+08,1840,0,3.3021e+08,3825.5,12704,656.67,0,656.67,0,0.0010476,2.7653e-08,0,0.00056269,0.00019557,2.9624e+08,6643.5,0,1.435e+08,3301.1,656.67,1
2268,6.1,12139,1,12139,1,0.00029637,-3.9807e-09,0,0.00093364,-5.4201e-05,-169.35,-875.72,0,2.592e+08,3254.8,12138,13320,1,13320,1,0.0020513,1.1913e-07,0,0.0020513,0.0002738,3.4773e+08,30443,0,5.9318e+08,19409,13319,12138,1,12138,1,0.00029627,-4.6484e-09,0,0.00090988,-5.4419e-05,9.1097e+07,-1210.8,0,2.6818e+08,1916.3,12137,10979,1,10979,1,-0.0014584,-1.5542e-07,0,2.8551e-05,-0.0003817,-5.9318e+08,-28495,0,1.2037e+07,-216.26,10978,11571,1,11571,1,-0.00061352,-1.5833e-08,0,0.00045485,-0.00022399,-2.495e+08,-4234.9,0,1.5688e+08,676.53,11570,12705,1,12705,1,0.0012061,8.8837e-09,0,0.0013647,0.00011555,2.6818e+08,2094.3,0,3.3002e+08,4466.2,12704,656.67,0,656.67,0,0.0010502,3.4144e-08,0,0.00056454,0.00019605,2.9638e+08,8007.3,0,1.4361e+08,3647.9,656.67,1
2268,6.11,12139,1,12139,1,0.00029869,-2.6317e-09,0,0.00093621,-5.4625e-05,-675.96,-587.62,0,2.5931e+08,3748.4,12138,13320,1,13320,1,0.0020581,1.3599e-07,0,0.0020581,0.0002742,3.4708e+08,34307,0,5.9403e+08,22083,13319,12138,1,12138,1,0.00029859,-3.1075e-09,0,0.00091217,-5.4841e-05,9.1659e+07,-820.81,0,2.6825e+08,2286.2,12137,10979,1,10979,1,-0.0014605,-1.7927e-07,0,2.7035e-05,-0.00038294,-5.9403e+08,-32764,0,1.1469e+07,-180.9,10978,11571,1,11571,1,-0.00061348,-1.648e-08,0,0.00045598,-0.00022483,-2.4949e+08,-4344.1,0,1.5704e+08,810.5,11570,12705,1,12705,1,0.0012107,1.3531e-08,0,0.001368,0.00011555,2.6825e+08,3142,0,3.2983e+08,5121.6,12704,656.67,0,656.67,0,0.0010528,3.9734e-08,0,0.00056642,0.00019654,2.9652e+08,9249.3,0,1.4372e+08,4118.7,656.67,1
2268,6.12,12139,1,12139,1,0.00030106,-3.4532e-09,0,0.00093882,-5.5057e-05,-607.06,-859.61,0,2.5941e+08,4311.5,12138,13320,1,13320,1,0.0020649,1.6205e-07,0,0.0020649,0.0002746,3.4644e+08,38904,0,5.9489e+08,24303,13319,12138,1,12138,1,0.00030094,-4.2222e-09,0,0.00091449,-5.5269e-05,9.2227e+07,-1104.6,0,2.6831e+08,2822.2,12137,10979,1,10979,1,-0.0014626,-2.0312e-07,0,2.549e-05,-0.00038421,-5.9489e+08,-36940,0,1.0894e+07,-145.51,10978,11571,1,11571,1,-0.00061344,-2.0821e-08,0,0.00045712,-0.00022569,-2.4947e+08,-5554.8,0,1.572e+08,977.89,11570,12705,1,12705,1,0.0012154,1.5545e-08,0,0.0013715,0.00011554,2.6831e+08,3645.8,0,3.2963e+08,5914.7,12704,656.67,0,656.67,0,0.0010555,4.648e-08,0,0.00056833,0.00019703,2.9666e+08,10778,0,1.4383e+08,4573,656.67,1
2268,6.13,12139,1,12139,1,0.00030346,-4.0441e-09,0,0.00094145,-5.5496e-05,-69.423,-1042.4,0,2.5951e+08,4814.5,12138,13320,1,13320,1,0.0020719,1.8629e-07,0,0.0020719,0.000275,3.4577e+08,44206,0,5.9575e+08,26998,13319,12138,1,12138,1,0.00030332,-5.446e-09,0,0.00091683,-5.5705e-05,9.2804e+07,-1410.7,0,2.6837e+08,3235.1,12137,10979,1,10979,1,-0.0014648,-2.2907e-07,0,2.3909e-05,-0.00038549,-5.9575e+08,-41408,0,1.0308e+07,-241.69,10978,11571,1,11571,1,-0.00061337,-2.4514e-08,0,0.00045825,-0.00022655,-2.4944e+08,-6658.2,0,1.5736e+08,1058.6,11570,12705,1,12705,1,0.0012201,1.7896e-08,0,0.0013749,0.00011554,2.6837e+08,4118.4,0,3.2942e+08,6601.6,12704,656.67,0,656.67,0,0.0010582,5.3072e-08,0,0.00057026,0.00019753,2.968e+08,12287,0,1.4394e+08,5105.9,656.67,1
2268,6.14,12139,1,12139,1,0.0003059,-3.1512e-09,0,0.00094409,-5.5941e-05,81.376,-924.68,0,2.5959e+08,5531.2,12138,13320,1,13320,1,0.0020789,2.1266e-07,0,0.0020789,0.00027539,3.4508e+08,48956,0,5.966e+08,30327,13319,12138,1,12138,1,0.00030573,-4.3138e-09,0,0.00091918,-5.6145e-05,9.3382e+07,-1113.7,0,2.6842e+08,3799.7,12137,10979,1,10979,1,-0.0014668,-2.6274e-07,0,2.2299e-05,-0.00038678,-5.966e+08,-47452,0,9.7137e+06,-220.55,10978,11571,1,11571,1,-0.00061328,-2.7511e-08,0,0.0004594,-0.00022742,-2.494e+08,-7475.2,0,1.5752e+08,1280.6,11570,12705,1,12705,1,0.0012248,2.3099e-08,0,0.0013784,0.00011553,2.6842e+08,5352.7,0,3.2923e+08,7604.4,12704,656.67,0,656.67,0,0.0010609,6.1039e-08,0,0.00057221,0.00019803,2.9693e+08,14063,0,1.4405e+08,5737.8,656.67,1
2268,6.15,12139,1,12139,1,0.00030837,-8.6825e-10,0,0.0009468,-5.6393e-05,-592.03,-399.22,0,2.597e+08,6121.2,12138,13320,1,13320,1,0.0020861,2.3708e-07,0,0.0020861,0.00027581,3.4441e+08,55917,0,5.9749e+08,33310,13319,12138,1,12138,1,0.00030818,-1.5664e-09,0,0.00092161,-5.6592e-05,9.3972e+07,-416.81,0,2.6848e+08,4318.4,12137,10979,1,10979,1,-0.001469,-2.8733e-07,0,2.0674e-05,-0.00038811,-5.9749e+08,-51288,0,9.1169e+06,-91.754,10978,11571,1,11571,1,-0.00061322,-2.9052e-08,0,0.00046057,-0.00022831,-2.4938e+08,-7759.4,0,1.5768e+08,1425.9,11570,12705,1,12705,1,0.0012297,2.947e-08,0,0.001382,0.00011552,2.6848e+08,6777.2,0,3.2903e+08,8429.9,12704,656.67,0,656.67,0,0.0010637,6.8205e-08,0,0.00057422,0.00019854,2.9708e+08,15853,0,1.4417e+08,6293.2,656.67,1
2268,6.16,12139,1,12139,1,0.0003109,-1.0326e-09,0,0.00094953,-5.6855e-05,899.92,-465.29,0,2.5978e+08,6948.8,12138,13320,1,13320,1,0.0020934,2.7791e-07,0,0.0020934,0.00027621,3.437e+08,62921,0,5.9836e+08,36370,13319,12138,1,12138,1,0.00031069,-2.9039e-09,0,0.00092402,-5.7048e-05,9.4569e+07,-746.16,0,2.6852e+08,5093.7,12137,10979,1,10979,1,-0.0014712,-3.269e-07,0,1.8989e-05,-0.00038944,-5.9836e+08,-58094,0,8.5001e+06,-180.94,10978,11571,1,11571,1,-0.0006131,-3.4287e-08,0,0.00046175,-0.00022921,-2.4933e+08,-9153.1,0,1.5784e+08,1671.4,11570,12705,1,12705,1,0.0012346,3.4151e-08,0,0.0013855,0.00011551,2.6852e+08,7964.8,0,3.2879e+08,9606.9,12704,656.67,0,656.67,0,0.0010665,7.912e-08,0,0.00057625,0.00019906,2.9721e+08,18173,0,1.4428e+08,6957.3,656.67,1
2268,6.17,12139,1,12139,1,0.00031346,-1.6469e-09,0,0.00095231,-5.7321e-05,-151.98,-609.77,0,2.5988e+08,7775.8,12138,13320,1,13320,1,0.0021008,3.0844e-07,0,0.0021008,0.00027663,3.4299e+08,70585,0,5.9926e+08,40189,13319,12138,1,12138,1,0.00031322,-2.6799e-09,0,0.00092651,-5.7508e-05,9.5176e+07,-663.3,0,2.6857e+08,5793.1,12137,10979,1,10979,1,-0.0014734,-3.6888e-07,0,1.7293e-05,-0.00039081,-5.9926e+08,-65276,0,7.8817e+06,-87.845,10978,11571,1,11571,1,-0.00061302,-4.0079e-08,0,0.00046295,-0.00023012,-2.493e+08,-10591,0,1.58e+08,1946.3,11570,12705,1,12705,1,0.0012396,3.7785e-08,0,0.0013892,0.0001155,2.6857e+08,8918,0,3.2857e+08,10827,12704,656.67,0,656.67,0,0.0010693,8.9478e-08,0,0.00057831,0.00019958,2.9735e+08,20529,0,1.444e+08,7677.3,656.67,1
2268,6.18,12139,1,12139,1,0.00031608,-9.2068e-11,0,0.0009551,-5.7799e-05,229.99,-314.47,0,2.5995e+08,8798.8,12138,13320,1,13320,1,0.0021082,3.534e-07,0,0.0021082,0.00027704,3.4226e+08,78408,0,6.0014e+08,44385,13319,12138,1,12138,1,0.00031581,-2.865e-09,0,0.00092899,-5.7977e-05,9.5786e+07,-733.55,0,2.6859e+08,6735.3,12137,10979,1,10979,1,-0.0014755,-4.2117e-07,0,1.5539e-05,-0.00039218,-6.0014e+08,-74357,0,7.2444e+06,-88.378,10978,11571,1,11571,1,-0.00061288,-4.4195e-08,0,0.00046415,-0.00023105,-2.4924e+08,-11756,0,1.5815e+08,2238.7,11570,12705,1,12705,1,0.0012446,4.7964e-08,0,0.0013928,0.00011548,2.6859e+08,11145,0,3.2832e+08,12139,12704,656.67,0,656.67,0,0.0010722,1.0297e-07,0,0.00058041,0.00020011,2.9747e+08,23282,0,1.4452e+08,8522.9,656.67,1
2268,6.19,12139,1,12139,1,0.00031874,2.273e-10,0,0.00095795,-5.8284e-05,83.614,-196.23,0,2.6003e+08,9713.3,12138,13320,1,13320,1,0.0021159,3.9265e-07,0,0.0021159,0.00027746,3.4151e+08,88694,0,6.0104e+08,48141,13319,12138,1,12138,1,0.00031844,-2.2836e-09,0,0.00093152,-5.8453e-05,9.6408e+07,-568.17,0,2.6863e+08,7499.5,12137,10979,1,10979,1,-0.0014778,-4.6278e-07,0,1.3764e-05,-0.00039358,-6.0104e+08,-80923,0,6.601e+06,-155.57,10978,11571,1,11571,1,-0.00061274,-4.908e-08,0,0.00046538,-0.00023199,-2.4918e+08,-12986,0,1.5831e+08,2475.7,11570,12705,1,12705,1,0.0012498,5.3478e-08,0,0.0013966,0.00011547,2.6863e+08,12356,0,3.2807e+08,13540,12704,656.67,0,656.67,0,0.0010751,1.1416e-07,0,0.00058255,0.00020065,2.976e+08,25993,0,1.4464e+08,9343.4,656.67,1
2268,6.2,12139,1,12139,1,0.00032146,5.8287e-09,0,0.00096086,-5.8779e-05,-128.53,1240.4,0,2.6011e+08,10854,12138,13320,1,13320,1,0.0021236,4.4097e-07,0,0.0021236,0.00027788,3.4077e+08,98516,0,6.0196e+08,53144,13319,12138,1,12138,1,0.00032113,6.2788e-09,0,0.0009341,-5.8935e-05,9.7044e+07,1542.8,0,2.6865e+08,8553.5,12137,10979,1,10979,1,-0.00148,-5.2479e-07,0,1.1944e-05,-0.00039501,-6.0196e+08,-91408,0,5.9439e+06,-116.27,10978,11571,1,11571,1,-0.00061261,-4.9477e-08,0,0.00046665,-0.00023295,-2.4913e+08,-12951,0,1.5847e+08,2820.5,11570,12705,1,12705,1,0.001255,6.7555e-08,0,0.0014004,0.00011545,2.6865e+08,15895,0,3.2782e+08,15031,12704,656.67,0,656.67,0,0.001078,1.3021e-07,0,0.00058473,0.0002012,2.9773e+08,29303,0,1.4476e+08,10242,656.67,1
2268,6.21,12139,1,12139,1,0.00032424,3.8737e-09,0,0.00096382,-5.9285e-05,362.2,968.68,0,2.6019e+08,12139,12138,13320,1,13320,1,0.0021315,5.0002e-07,0,0.0021315,0.00027831,3.3998e+08,1.0972e+05,0,6.0288e+08,57306,13319,12138,1,12138,1,0.00032388,4.1463e-09,0,0.00093673,-5.9429e-05,9.7687e+07,1072.8,0,2.6868e+08,9662.9,12137,10979,1,10979,1,-0.0014823,-5.9003e-07,0,1.0076e-05,-0.00039646,-6.0288e+08,-1.0236e+05,0,5.2714e+06,-195.59,10978,11571,1,11571,1,-0.00061244,-5.7731e-08,0,0.00046791,-0.00023393,-2.4906e+08,-14834,0,1.5862e+08,3167.6,11570,12705,1,12705,1,0.0012604,7.2444e-08,0,0.0014042,0.00011543,2.6868e+08,17145,0,3.2755e+08,16986,12704,656.67,0,656.67,0,0.0010811,1.4709e-07,0,0.00058697,0.00020175,2.9786e+08,32925,0,1.4489e+08,11316,656.67,1
2268,6.22,12139,1,12139,1,0.00032708,-4.6714e-09,0,0.00096682,-5.98e-05,-303.89,-932.7,0,2.6026e+08,13648,12138,13320,1,13320,1,0.0021396,5.5631e-07,0,0.0021396,0.00027875,3.3918e+08,1.2195e+05,0,6.0382e+08,62018,13319,12138,1,12138,1,0.00032667,-5.5214e-09,0,0.00093939,-5.9932e-05,9.834e+07,-1405.7,0,2.687e+08,11088,12137,10979,1,10979,1,-0.0014846,-6.6469e-07,0,8.1604e-06,-0.00039795,-6.0382e+08,-1.15e+05,0,4.5829e+06,-102.66,10978,11571,1,11571,1,-0.00061227,-7.4978e-08,0,0.00046919,-0.00023492,-2.4899e+08,-19119,0,1.5878e+08,3722,11570,12705,1,12705,1,0.0012658,7.1748e-08,0,0.0014081,0.00011541,2.687e+08,16839,0,3.2727e+08,19196,12704,656.67,0,656.67,0,0.0010841,1.6519e-07,0,0.00058925,0.00020232,2.9799e+08,36898,0,1.4502e+08,12414,656.67,1
2268,6.23,12139,1,12139,1,0.00032999,-3.6857e-09,0,0.0009699,-6.0327e-05,-311.3,-704.32,0,2.6034e+08,15089,12138,13320,1,13320,1,0.0021479,6.1861e-07,0,0.0021479,0.0002792,3.3837e+08,1.3607e+05,0,6.0479e+08,67744,13319,12138,1,12138,1,0.00032953,-4.8197e-09,0,0.00094213,-6.0447e-05,9.9005e+07,-1250.1,0,2.6872e+08,12294,12137,10979,1,10979,1,-0.001487,-7.3493e-07,0,6.1975e-06,-0.00039948,-6.0479e+08,-1.2622e+05,0,3.8784e+06,-15.399,10978,11571,1,11571,1,-0.00061208,-8.3261e-08,0,0.00047049,-0.00023594,-2.4891e+08,-21116,0,1.5894e+08,4067.7,11570,12705,1,12705,1,0.0012714,8.2079e-08,0,0.0014121,0.00011538,2.6872e+08,19344,0,3.2699e+08,21345,12704,656.67,0,656.67,0,0.0010873,1.838e-07,0,0.00059159,0.0002029,2.9812e+08,41178,0,1.4515e+08,13664,656.67,1
2268,6.24,12139,1,12139,1,0.00033298,-3.217e-09,0,0.00097303,-6.0868e-05,-8.9088,-540.46,0,2.6041e+08,16838,12138,13320,1,13320,1,0.0021564,7.0036e-07,0,0.0021564,0.00027965,3.3754e+08,1.5074e+05,0,6.0576e+08,73912,13319,12138,1,12138,1,0.00033246,-4.0728e-09,0,0.00094493,-6.0974e-05,9.9685e+07,-1055.8,0,2.6872e+08,13967,12137,10979,1,10979,1,-0.0014894,-8.2677e-07,0,4.1677e-06,-0.00040104,-6.0576e+08,-1.4147e+05,0,3.1507e+06,-92.654,10978,11571,1,11571,1,-0.00061188,-9.281e-08,0,0.00047181,-0.00023697,-2.4883e+08,-23554,0,1.591e+08,4622.7,11570,12705,1,12705,1,0.0012771,9.4438e-08,0,0.0014161,0.00011535,2.6872e+08,22216,0,3.267e+08,23803,12704,656.67,0,656.67,0,0.0010905,2.0849e-07,0,0.00059398,0.00020349,2.9824e+08,46284,0,1.4529e+08,15023,656.67,1
2268,6.25,12139,1,12139,1,0.00033603,3.3321e-10,0,0.00097623,-6.1422e-05,-413.47,397.68,0,2.6047e+08,18718,12138,13320,1,13320,1,0.002165,7.8288e-07,0,0.002165,0.00028011,3.3667e+08,1.6876e+05,0,6.0674e+08,80503,13319,12138,1,12138,1,0.00033544,1.0183e-09,0,0.00094776,-6.151e-05,1.0037e+08,265.53,0,2.6872e+08,15794,12137,10979,1,10979,1,-0.0014918,-9.1787e-07,0,2.0822e-06,-0.00040264,-6.0674e+08,-1.5595e+05,0,2.404e+06,72.392,10978,11571,1,11571,1,-0.00061165,-1.01e-07,0,0.00047312,-0.00023802,-2.4873e+08,-25631,0,1.5925e+08,5168.9,11570,12705,1,12705,1,0.0012829,1.099e-07,0,0.0014202,0.00011532,2.6872e+08,26301,0,3.2638e+08,26616,12704,656.67,0,656.67,0,0.0010937,2.3352e-07,0,0.00059643,0.00020409,2.9837e+08,51858,0,1.4543e+08,16491,656.67,1
2268,6.26,12139,1,12139,1,0.00033918,-2.0555e-09,0,0.00097953,-6.1991e-05,-38.26,-11.912,0,2.6054e+08,20871,12138,13320,1,13320,1,0.002174,8.7626e-07,0,0.002174,0.00028058,3.3582e+08,1.8751e+05,0,6.0777e+08,87425,13319,12138,1,12138,1,0.00033851,-1.0112e-09,0,0.00095071,-6.2059e-05,1.0108e+08,-258.48,0,2.6873e+08,17871,12137,10979,1,10979,1,-0.0014943,-1.0313e-06,0,3.0368e-08,-0.00040429,-6.0777e+08,-1.744e+05,0,1.6364e+06,-38.858,10978,11571,1,11571,1,-0.00061143,-1.1754e-07,0,0.00047449,-0.00023911,-2.4864e+08,-29524,0,1.5941e+08,5869.3,11570,12705,1,12705,1,0.0012888,1.2261e-07,0,0.0014246,0.0001153,2.6873e+08,29094,0,3.2608e+08,29837,12704,656.67,0,656.67,0,0.0010971,2.6349e-07,0,0.00059897,0.00020471,2.985e+08,58304,0,1.4557e+08,18127,656.67,1
2268,6.27,12139,1,12139,1,0.00034242,-1.7415e-09,0,0.00098303,-6.2577e-05,-148.45,230.14,0,2.606e+08,23293,12138,13320,1,13320,1,0.0021832,9.8666e-07,0,0.0021832,0.00028106,3.3493e+08,2.0913e+05,0,6.088e+08,94856,13319,12138,1,12138,1,0.00034166,6.181e-10,0,0.00095211,-6.2623e-05,1.018e+08,178.11,0,2.6872e+08,20201,12137,10979,1,10979,1,-0.0014968,-1.1547e-06,0,5.877e-07,-0.00040598,-6.088e+08,-1.9423e+05,0,8.4043e+05,120.23,10978,11571,1,11571,1,-0.00061118,-1.3361e-07,0,0.00047701,-0.00024022,-2.4854e+08,-33201,0,1.5957e+08,6546.3,11570,12705,1,12705,1,0.0012949,1.4095e-07,0,0.0014301,0.00011526,2.6872e+08,33465,0,3.2575e+08,33527,12704,656.67,0,656.67,0,0.0011005,2.9783e-07,0,0.00060137,0.00020534,2.9862e+08,65604,0,1.4572e+08,19873,656.67,1
2268,6.28,12139,1,12139,1,0.00034576,-4.0758e-09,0,0.00098666,-6.318e-05,-564.2,-129.73,0,2.6066e+08,25964,12138,13320,1,13320,1,0.0021928,1.1072e-06,0,0.0021928,0.00028156,3.3402e+08,2.3282e+05,0,6.0986e+08,1.0287e+05,13319,12138,1,12138,1,0.00034489,-1.1259e-09,0,0.00095498,-6.3202e-05,1.0254e+08,-271.16,0,2.6871e+08,22836,12137,10979,1,10979,1,-0.0014995,-1.2965e-06,0,2.5989e-06,-0.00040774,-6.0986e+08,-2.1704e+05,0,19129,182.89,10978,11571,1,11571,1,-0.00061092,-1.5395e-07,0,0.00047858,-0.00024135,-2.4843e+08,-38004,0,1.5973e+08,7388.9,11570,12705,1,12705,1,0.0013011,1.578e-07,0,0.0014347,0.00011523,2.6871e+08,37897,0,3.2542e+08,37340,12704,656.67,0,656.67,0,0.001104,3.3656e-07,0,0.0006038,0.000206,2.9875e+08,73805,0,1.4588e+08,21756,656.67,1
2268,6.29,12139,1,12139,1,0.0003492,-6.045e-09,0,0.00099036,-6.38e-05,-64.402,-401.42,0,2.6075e+08,29058,12138,13320,1,13320,1,0.0022025,1.2476e-06,0,0.0022025,0.00028206,3.3308e+08,2.5923e+05,0,6.1094e+08,1.1166e+05,13319,12138,1,12138,1,0.00034823,-2.7437e-09,0,0.00095788,-6.3796e-05,1.033e+08,-714.93,0,2.6869e+08,25803,12137,10979,1,10979,1,-0.0015021,-1.4542e-06,0,4.718e-06,-0.00040954,-6.1094e+08,-2.4226e+05,0,1.087e+05,53.2,10978,11571,1,11571,1,-0.00061061,-1.7696e-07,0,0.00048018,-0.00024252,-2.4831e+08,-43596,0,1.5989e+08,8285.1,11570,12705,1,12705,1,0.0013075,1.7738e-07,0,0.0014393,0.00011518,2.6869e+08,42449,0,3.2506e+08,41962,12704,656.67,0,656.67,0,0.0011076,3.8059e-07,0,0.0006063,0.00020666,2.9887e+08,83073,0,1.4596e+08,24062,656.67,1
2268,6.3,12139,1,12139,1,0.00035276,-2.9047e-09,0,0.00099421,-6.4438e-05,-130.64,550.48,0,2.6087e+08,32498,12138,13320,1,13320,1,0.0022127,1.4103e-06,0,0.0022127,0.00028258,3.3212e+08,2.8931e+05,0,6.1206e+08,1.2109e+05,13319,12138,1,12138,1,0.00035165,2.9828e-09,0,0.00096087,-6.4405e-05,1.0408e+08,770.64,0,2.6867e+08,29070,12137,10979,1,10979,1,-0.0015049,-1.6276e-06,0,6.887e-06,-0.00041141,-6.1206e+08,-2.6949e+05,0,8.149e+05,151.25,10978,11571,1,11571,1,-0.00061031,-1.9842e-07,0,0.00048185,-0.00024372,-2.4818e+08,-48761,0,1.6006e+08,9412.5,11570,12705,1,12705,1,0.0013141,2.071e-07,0,0.0014442,0.00011514,2.6867e+08,49534,0,3.2434e+08,47203,12704,656.67,0,656.67,0,0.0011114,4.3072e-07,0,0.00060889,0.00020735,2.99e+08,93495,0,1.4602e+08,26477,656.67,1
2268,6.31,12139,1,12139,1,0.00035645,-1.112e-08,0,0.00099819,-6.5101e-05,-283.73,-1129.1,0,2.6098e+08,36269,12138,13320,1,13320,1,0.0022233,1.5811e-06,0,0.0022233,0.00028312,3.3115e+08,3.2278e+05,0,6.1322e+08,1.3131e+05,13319,12138,1,12138,1,0.0003552,-7.7453e-09,0,0.00096395,-6.5035e-05,1.0488e+08,-1972.1,0,2.6864e+08,32889,12137,10979,1,10979,1,-0.0015077,-1.8289e-06,0,9.1144e-06,-0.00041335,-6.1322e+08,-3.0119e+05,0,1.6036e+06,-100.99,10978,11571,1,11571,1,-0.00060999,-2.3196e-07,0,0.00048358,-0.00024496,-2.4805e+08,-57104,0,1.6022e+08,10507,11570,12705,1,12705,1,0.001321,2.2806e-07,0,0.0014492,0.0001151,2.6864e+08,54442,0,3.2335e+08,52860,12704,656.67,0,656.67,0,0.0011152,4.8654e-07,0,0.00061158,0.00020806,2.9913e+08,1.0532e+05,0,1.4608e+08,29141,656.67,1
2268,6.32,12139,1,12139,1,0.00036029,-7.2733e-09,0,0.0010023,-6.5789e-05,-420.05,-46.393,0,2.6109e+08,40584,12138,13320,1,13320,1,0.0022343,1.789e-06,0,0.0022343,0.00028368,3.3012e+08,3.6147e+05,0,6.1442e+08,1.4298e+05,13319,12138,1,12138,1,0.00035888,-1.2258e-09,0,0.0009671,-6.5686e-05,1.0571e+08,-355.09,0,2.686e+08,37288,12137,10979,1,10979,1,-0.0015107,-2.0501e-06,0,1.1425e-05,-0.00041538,-6.1442e+08,-3.3546e+05,0,2.4221e+06,349.66,10978,11571,1,11571,1,-0.00060964,-2.6122e-07,0,0.00048539,-0.00024625,-2.4791e+08,-64050,0,1.6039e+08,11882,11570,12705,1,12705,1,0.0013281,2.6335e-07,0,0.0014544,0.00011506,2.686e+08,63592,0,3.2231e+08,59524,12704,656.67,0,656.67,0,0.0011192,5.5133e-07,0,0.00061439,0.0002088,2.9926e+08,1.1889e+05,0,1.4615e+08,32168,656.67,1
2268,6.33,12139,1,12139,1,0.00036429,-7.7464e-09,0,0.0010066,-6.6504e-05,356.5,160.2,0,2.612e+08,45422,12138,13320,1,13320,1,0.0022458,2.0215e-06,0,0.0022458,0.00028425,3.2907e+08,4.049e+05,0,6.1565e+08,1.5518e+05,13319,12138,1,12138,1,0.00036269,-2.1122e-10,0,0.0009703,-6.6358e-05,1.0656e+08,-76.845,0,2.6855e+08,42394,12137,10979,1,10979,1,-0.0015137,-2.3082e-06,0,1.3797e-05,-0.00041749,-6.1565e+08,-3.754e+05,0,3.2601e+06,306.86,10978,11571,1,11571,1,-0.00060924,-2.9853e-07,0,0.00048725,-0.00024757,-2.4774e+08,-72833,0,1.6056e+08,13468,11570,12705,1,12705,1,0.0013353,3.0484e-07,0,0.0014597,0.000115,2.6855e+08,72970,0,3.2123e+08,67114,12704,656.67,0,656.67,0,0.0011233,6.2625e-07,0,0.0006173,0.00020956,2.9938e+08,1.345e+05,0,1.4621e+08,35520,656.67,1
2268,6.34,12139,1,12139,1,0.00036845,-2.4448e-09,0,0.001011,-6.7246e-05,-247.04,1788.7,0,2.6131e+08,51033,12138,13320,1,13320,1,0.0022578,2.2879e-06,0,0.0022578,0.00028485,3.2798e+08,4.5488e+05,0,6.1694e+08,1.6822e+05,13319,12138,1,12138,1,0.00036662,1.2178e-08,0,0.00097358,-6.7048e-05,1.0743e+08,3066.9,0,2.685e+08,48351,12137,10979,1,10979,1,-0.0015169,-2.5969e-06,0,1.6219e-05,-0.00041971,-6.1694e+08,-4.195e+05,0,4.1129e+06,199.71,10978,11571,1,11571,1,-0.00060884,-3.3777e-07,0,0.00048922,-0.00024893,-2.4758e+08,-81919,0,1.6073e+08,15446,11570,12705,1,12705,1,0.0013429,3.5789e-07,0,0.0014653,0.00011495,2.685e+08,85229,0,3.2011e+08,75940,12704,656.67,0,656.67,0,0.0011276,7.1261e-07,0,0.00062035,0.00021036,2.9952e+08,1.5251e+05,0,1.4629e+08,39231,656.67,1
2268,6.35,12139,1,12139,1,0.0003728,-7.5108e-09,0,0.0010156,-6.8023e-05,-121.52,1258.3,0,2.6142e+08,57360,12138,13320,1,13320,1,0.0022705,2.5946e-06,0,0.0022705,0.00028548,3.2689e+08,5.1002e+05,0,6.1828e+08,1.8168e+05,13319,12138,1,12138,1,0.00037071,8.3e-09,0,0.00097693,-6.7766e-05,1.0834e+08,2042.4,0,2.6843e+08,54596,12137,10979,1,10979,1,-0.0015202,-2.9428e-06,0,1.8703e-05,-0.00042204,-6.1828e+08,-4.7263e+05,0,4.9843e+06,371.01,10978,11571,1,11571,1,-0.00060841,-3.9611e-07,0,0.00049127,-0.00025035,-2.474e+08,-95576,0,1.6091e+08,17373,11570,12705,1,12705,1,0.0013507,4.0944e-07,0,0.0014711,0.0001149,2.6843e+08,97001,0,3.1895e+08,86173,12704,656.67,0,656.67,0,0.0011321,8.1446e-07,0,0.00062354,0.00021119,2.9965e+08,1.7338e+05,0,1.4637e+08,43379,656.67,1
2268,6.36,12139,1,12139,1,0.00037737,-1.154e-08,0,0.0010205,-6.8835e-05,758.65,964.34,0,2.6152e+08,64496,12138,13320,1,13320,1,0.0022838,2.9424e-06,0,0.0022838,0.00028613,3.2575e+08,5.7366e+05,0,6.1968e+08,1.9592e+05,13319,12138,1,12138,1,0.00037498,6.652e-09,0,0.00098038,-6.8512e-05,1.0928e+08,1641,0,2.6836e+08,61854,12137,10979,1,10979,1,-0.0015236,-3.3296e-06,0,2.1271e-05,-0.0004245,-6.1968e+08,-5.3141e+05,0,5.8809e+06,483.16,10978,11571,1,11571,1,-0.00060794,-4.5683e-07,0,0.00049343,-0.00025183,-2.4721e+08,-1.1041e+05,0,1.6105e+08,19606,11570,12705,1,12705,1,0.0013589,4.671e-07,0,0.0014772,0.00011484,2.6836e+08,1.1126e+05,0,3.1774e+08,97684,12704,656.67,0,656.67,0,0.0011368,9.313e-07,0,0.00062689,0.00021205,2.9979e+08,1.9731e+05,0,1.4645e+08,48032,656.67,1
2268,6.37,12139,1,12139,1,0.00038217,-1.9078e-08,0,0.0010255,-6.9686e-05,503.13,-69.955,0,2.6163e+08,72804,12138,13320,1,13320,1,0.002298,3.3522e-06,0,0.002298,0.00028682,3.2459e+08,6.4668e+05,0,6.2116e+08,2.1105e+05,13319,12138,1,12138,1,0.00037944,-7.6219e-10,0,0.00098396,-6.929e-05,1.1026e+08,-257.85,0,2.6827e+08,70330,12137,10979,1,10979,1,-0.0015273,-3.7743e-06,0,2.3916e-05,-0.0004271,-6.2116e+08,-5.9852e+05,0,6.799e+06,640.37,10978,11571,1,11571,1,-0.00060746,-5.3258e-07,0,0.00049571,-0.00025337,-2.4701e+08,-1.2888e+05,0,1.6101e+08,22236,11570,12705,1,12705,1,0.0013674,5.3542e-07,0,0.0014836,0.00011478,2.6827e+08,1.2757e+05,0,3.1648e+08,1.1146e+05,12704,656.67,0,656.67,0,0.0011417,1.0685e-06,0,0.00063043,0.00021296,2.9993e+08,2.2499e+05,0,1.4654e+08,53389,656.67,1
2268,6.38,12139,1,12139,1,0.00038725,-3.0554e-08,0,0.0010309,-7.0584e-05,544.49,-2082.4,0,2.6174e+08,82225,12138,13320,1,13320,1,0.0023131,3.8137e-06,0,0.0023131,0.00028754,3.2339e+08,7.2932e+05,0,6.2272e+08,2.2714e+05,13319,12138,1,12138,1,0.00038414,-1.3057e-08,0,0.00098766,-7.0105e-05,1.1129e+08,-3223.5,0,2.6817e+08,80337,12137,10979,1,10979,1,-0.0015311,-4.2886e-06,0,2.6667e-05,-0.00042987,-6.2272e+08,-6.7568e+05,0,7.7474e+06,437.16,10978,11571,1,11571,1,-0.00060694,-6.3027e-07,0,0.00049813,-0.000255,-2.4679e+08,-1.5166e+05,0,1.6099e+08,25424,11570,12705,1,12705,1,0.0013764,6.144e-07,0,0.0014904,0.00011471,2.6817e+08,1.4554e+05,0,3.1515e+08,1.2764e+05,12704,656.67,0,656.67,0,0.0011469,1.2275e-06,0,0.00063418,0.00021391,3.0007e+08,2.5726e+05,0,1.4665e+08,59406,656.67,1
2268,6.39,12139,1,12139,1,0.0003926,-1.7285e-08,0,0.0010365,-7.1529e-05,-997.51,1578.1,0,2.6183e+08,93213,12138,13320,1,13320,1,0.0023291,4.3817e-06,0,0.0023291,0.0002883,3.2208e+08,8.2537e+05,0,6.2436e+08,2.4567e+05,13319,12138,1,12138,1,0.00038905,1.1346e-08,0,0.0009914,-7.095e-05,1.1236e+08,2686.7,0,2.6805e+08,92931,12137,10979,1,10979,1,-0.0015351,-4.8672e-06,0,2.9515e-05,-0.00043282,-6.2436e+08,-7.6107e+05,0,8.722e+06,730.02,10978,11571,1,11571,1,-0.00060632,-7.1897e-07,0,0.00050069,-0.00025667,-2.4654e+08,-1.72e+05,0,1.611e+08,29264,11570,12705,1,12705,1,0.0013858,7.2808e-07,0,0.0014974,0.00011463,2.6805e+08,1.7345e+05,0,3.1372e+08,1.4677e+05,12704,656.67,0,656.67,0,0.0011523,1.4155e-06,0,0.00063813,0.00021491,3.002e+08,2.9464e+05,0,1.4675e+08,66395,656.67,1
2268,6.4,12139,1,12139,1,0.00039827,-2.5496e-08,0,0.0010424,-7.2528e-05,838.54,789.88,0,2.6192e+08,1.0579e+05,12138,13320,1,13320,1,0.0023462,5.0251e-06,0,0.0023462,0.0002891,3.208e+08,9.3247e+05,0,6.2608e+08,2.631e+05,13319,12138,1,12138,1,0.00039419,5.0107e-09,0,0.00099523,-7.1833e-05,1.1347e+08,1171.2,0,2.6791e+08,1.0671e+05,12137,10979,1,10979,1,-0.0015393,-5.5631e-06,0,3.2407e-05,-0.00043597,-6.2608e+08,-8.6433e+05,0,9.7024e+06,1090.4,10978,11571,1,11571,1,-0.00060568,-8.4327e-07,0,0.00050342,-0.00025844,-2.4628e+08,-2.0141e+05,0,1.6121e+08,33809,11570,12705,1,12705,1,0.0013956,8.5132e-07,0,0.0015049,0.00011455,2.6791e+08,2.0177e+05,0,3.1224e+08,1.7045e+05,12704,656.67,0,656.67,0,0.001158,1.6394e-06,0,0.00064232,0.00021596,3.0034e+08,3.3847e+05,0,1.4687e+08,74357,656.67,1
2268,6.41,12139,1,12139,1,0.0004043,-3.3231e-08,0,0.0010486,-7.3586e-05,-736.75,211.67,0,2.6202e+08,1.2025e+05,12138,13320,1,13320,1,0.0023647,5.7646e-06,0,0.0023647,0.00028997,3.1948e+08,1.0568e+06,0,6.2794e+08,2.806e+05,13319,12138,1,12138,1,0.00039961,3.245e-09,0,0.00099919,-7.276e-05,1.1464e+08,744.16,0,2.6776e+08,1.2166e+05,12137,10979,1,10979,1,-0.0015439,-6.3539e-06,0,3.5385e-05,-0.00043937,-6.2794e+08,-9.8023e+05,0,1.0701e+07,1373.5,10978,11571,1,11571,1,-0.00060501,-9.8945e-07,0,0.00050636,-0.00026029,-2.46e+08,-2.3614e+05,0,1.6133e+08,38810,11570,12705,1,12705,1,0.0014059,9.8969e-07,0,0.0015129,0.00011447,2.6776e+08,2.3396e+05,0,3.1069e+08,1.9682e+05,12704,656.67,0,656.67,0,0.001164,1.8984e-06,0,0.00064681,0.00021708,3.0049e+08,3.8956e+05,0,1.47e+08,83564,656.67,1
2268,6.42,12139,1,12139,1,0.00041074,-3.6726e-08,0,0.0010553,-7.4715e-05,-80.296,730.73,0,2.621e+08,1.3675e+05,12138,13320,1,13320,1,0.0023847,6.6376e-06,0,0.0023847,0.00029089,3.1808e+08,1.2016e+06,0,6.2992e+08,2.9847e+05,13319,12138,1,12138,1,0.00040534,3.0868e-09,0,0.0010032,-7.3735e-05,1.1586e+08,909.81,0,2.6757e+08,1.3749e+05,12137,10979,1,10979,1,-0.0015488,-7.2589e-06,0,3.8453e-05,-0.00044305,-6.2992e+08,-1.1113e+06,0,1.1719e+07,1659.2,10978,11571,1,11571,1,-0.00060425,-1.1529e-06,0,0.00050953,-0.00026224,-2.4569e+08,-2.7677e+05,0,1.6142e+08,44737,11570,12705,1,12705,1,0.0014168,1.1668e-06,0,0.0015214,0.00011438,2.6757e+08,2.7421e+05,0,3.0903e+08,2.2769e+05,12704,656.67,0,656.67,0,0.0011704,2.2058e-06,0,0.00065161,0.00021826,3.0063e+08,4.4978e+05,0,1.4715e+08,94183,656.67,1
2268,6.43,12139,1,12139,1,0.00041765,-4.8722e-08,0,0.0010624,-7.5921e-05,-273.69,-345.45,0,2.6219e+08,1.5595e+05,12138,13320,1,13320,1,0.0024066,7.6477e-06,0,0.0024066,0.00029189,3.1669e+08,1.3675e+06,0,6.3207e+08,3.2241e+05,13319,12138,1,12138,1,0.00041141,-3.2058e-09,0,0.0010073,-7.4764e-05,1.1716e+08,-756.26,0,2.6737e+08,1.5598e+05,12137,10979,1,10979,1,-0.0015541,-8.3283e-06,0,4.1584e-05,-0.00044707,-6.3207e+08,-1.2657e+06,0,1.2745e+07,2101.2,10978,11571,1,11571,1,-0.00060346,-1.3782e-06,0,0.00051297,-0.00026431,-2.4536e+08,-3.2684e+05,0,1.6152e+08,51258,11570,12705,1,12705,1,0.0014284,1.3712e-06,0,0.0015305,0.00011428,2.6737e+08,3.2244e+05,0,3.0728e+08,2.6062e+05,12704,656.67,0,656.67,0,0.0011773,2.5748e-06,0,0.00065679,0.00021953,3.0079e+08,5.2126e+05,0,1.4731e+08,1.0672e+05,656.67,1
2268,6.44,12139,1,12139,1,0.00042508,-5.4653e-08,0,0.00107,-7.7215e-05,706.36,-2.9045,0,2.6226e+08,1.7816e+05,12138,13320,1,13320,1,0.0024305,8.8615e-06,0,0.0024305,0.00029297,3.1522e+08,1.559e+06,0,6.3438e+08,3.5936e+05,13319,12138,1,12138,1,0.00041788,-2.2783e-09,0,0.0010115,-7.5855e-05,1.1853e+08,-695.62,0,2.6714e+08,1.8122e+05,12137,10979,1,10979,1,-0.0015598,-9.5612e-06,0,4.4806e-05,-0.00045148,-6.3438e+08,-1.4431e+06,0,1.3786e+07,2456,10978,11571,1,11571,1,-0.00060256,-1.6261e-06,0,0.00051672,-0.0002665,-2.4499e+08,-3.8813e+05,0,1.6159e+08,56128,11570,12705,1,12705,1,0.0014406,1.6197e-06,0,0.0015422,0.00011417,2.6714e+08,3.8364e+05,0,3.054e+08,2.983e+05,12704,656.67,0,656.67,0,0.0011847,3.0184e-06,0,0.00066237,0.00022088,3.0094e+08,6.0623e+05,0,1.4749e+08,1.2168e+05,656.67,1
2268,6.45,12139,1,12139,1,0.0004331,-6.3071e-08,0,0.0010782,-7.8605e-05,294.38,124.92,0,2.6231e+08,2.0385e+05,12138,13320,1,13320,1,0.0024569,1.0276e-05,0,0.0024569,0.00029414,3.1371e+08,1.779e+06,0,6.3689e+08,4.1595e+05,13319,12138,1,12138,1,0.00042475,-7.3351e-09,0,0.0010157,-7.7011e-05,1.1997e+08,-1531,0,2.6685e+08,2.0992e+05,12137,10979,1,10979,1,-0.0015659,-1.0994e-05,0,4.8076e-05,-0.00045634,-6.3689e+08,-1.6572e+06,0,1.4828e+07,2503.8,10978,11571,1,11571,1,-0.00060155,-1.9303e-06,0,0.00052082,-0.00026882,-2.4458e+08,-4.5859e+05,0,1.6163e+08,62372,11570,12705,1,12705,1,0.0014537,1.9317e-06,0,0.0015547,0.000114,2.6685e+08,4.5768e+05,0,3.0338e+08,3.3888e+05,12704,656.67,0,656.67,0,0.0011925,3.5512e-06,0,0.00066842,0.00022233,3.0108e+08,7.0724e+05,0,1.4769e+08,1.397e+05,656.67,1
2268,6.46,12139,1,12139,1,0.00044179,-8.2762e-08,0,0.001087,-8.0105e-05,-137.05,-1861.1,0,2.6236e+08,2.3349e+05,12138,13320,1,13320,1,0.0024864,1.1914e-05,0,0.0024864,0.00029544,3.1221e+08,2.0318e+06,0,6.3966e+08,4.9865e+05,13319,12138,1,12138,1,0.00043212,-1.6186e-08,0,0.0010235,-7.8247e-05,1.215e+08,-4301.4,0,2.6653e+08,2.3866e+05,12137,10979,1,10979,1,-0.0015727,-1.2655e-05,0,5.1374e-05,-0.00046176,-6.3966e+08,-1.9115e+06,0,1.5864e+07,2562.9,10978,11571,1,11571,1,-0.00060048,-2.3203e-06,0,0.00052331,-0.0002713,-2.4414e+08,-5.5239e+05,0,1.6167e+08,73305,11570,12705,1,12705,1,0.0014676,2.3012e-06,0,0.0015647,0.00011381,2.6653e+08,5.422e+05,0,3.0123e+08,3.7988e+05,12704,656.67,0,656.67,0,0.001201,4.1939e-06,0,0.00067502,0.0002239,3.0123e+08,8.2816e+05,0,1.4791e+08,1.6192e+05,656.67,1
2268,6.47,12139,1,12139,1,0.00045125,-8.7741e-08,0,0.0010965,-8.1734e-05,-280.71,-602.57,0,2.6239e+08,2.6747e+05,12138,13320,1,13320,1,0.0025195,1.3869e-05,0,0.0025195,0.00029686,3.1064e+08,2.32e+06,0,6.4271e+08,6.0715e+05,13319,12138,1,12138,1,0.00044004,-1.3532e-08,0,0.0010353,-7.9575e-05,1.2314e+08,-2651.9,0,2.6615e+08,2.5866e+05,12137,10979,1,10979,1,-0.0015803,-1.455e-05,0,5.4716e-05,-0.00046785,-6.4271e+08,-2.2029e+06,0,1.6899e+07,2308.8,10978,11571,1,11571,1,-0.00059926,-2.7842e-06,0,0.0005227,-0.00027394,-2.4363e+08,-6.5966e+05,0,1.6166e+08,86245,11570,12705,1,12705,1,0.0014826,2.7784e-06,0,0.0015738,0.00011357,2.6615e+08,6.5343e+05,0,2.9889e+08,4.3512e+05,12704,656.67,0,656.67,0,0.0012102,4.9774e-06,0,0.00068225,0.00022559,3.0138e+08,9.7344e+05,0,1.4817e+08,1.8991e+05,656.67,1
2268,6.48,12139,1,12139,1,0.00046162,-9.5709e-08,0,0.0011069,-8.3514e-05,1387.2,474.55,0,2.6239e+08,3.0612e+05,12138,13320,1,13320,1,0.002557,1.6133e-05,0,0.002557,0.00029844,3.0904e+08,2.645e+06,0,6.461e+08,7.4551e+05,13319,12138,1,12138,1,0.0004486,-1.261e-08,0,0.0010481,-8.1013e-05,1.2489e+08,-2624.1,0,2.6569e+08,2.8719e+05,12137,10979,1,10979,1,-0.0015886,-1.6721e-05,0,5.8052e-05,-0.00047475,-6.461e+08,-2.5374e+06,0,1.7917e+07,1771,10978,11571,1,11571,1,-0.00059786,-3.3606e-06,0,0.00052202,-0.00027679,-2.4306e+08,-7.937e+05,0,1.6161e+08,95578,11570,12705,1,12705,1,0.0014986,3.3486e-06,0,0.001583,0.00011326,2.6569e+08,7.8973e+05,0,2.9592e+08,4.9367e+05,12704,656.67,0,656.67,0,0.0012202,5.9323e-06,0,0.00069022,0.00022743,3.0152e+08,1.1479e+06,0,1.4845e+08,2.2613e+05,656.67,1
2268,6.49,12139,1,12139,1,0.00047303,-1.1327e-07,0,0.0011183,-8.5468e-05,-353.4,19.412,0,2.6237e+08,3.4962e+05,12138,13320,1,13320,1,0.0026001,1.8722e-05,0,0.0026001,0.00030024,3.0745e+08,3.0114e+06,0,6.4996e+08,9.2194e+05,13319,12138,1,12138,1,0.00045794,-1.151e-08,0,0.0010621,-8.2588e-05,1.2678e+08,-2551.4,0,2.6517e+08,2.9622e+05,12137,10979,1,10979,1,-0.0015981,-1.9135e-05,0,4.9602e-05,-0.00048269,-6.4996e+08,-2.9249e+06,0,1.8906e+07,1160,10978,11571,1,11571,1,-0.00059633,-4.1509e-06,0,0.00052114,-0.00027988,-2.4243e+08,-9.6718e+05,0,1.6151e+08,96165,11570,12705,1,12705,1,0.0015161,4.0609e-06,0,0.0015927,0.00011288,2.6517e+08,9.5127e+05,0,2.9209e+08,5.7106e+05,12704,656.67,0,656.67,0,0.0012312,7.0933e-06,0,0.0006991,0.00022945,3.0166e+08,1.3582e+06,0,1.4878e+08,2.7422e+05,656.67,1
2268,6.5,12139,1,12139,1,0.00048571,-1.2983e-07,0,0.0011308,-8.7639e-05,-727.25,-26.257,0,2.6231e+08,3.9836e+05,12138,13320,1,13320,1,0.0026504,2.1706e-05,0,0.0026504,0.00030228,3.0585e+08,3.4144e+06,0,6.5432e+08,1.1518e+06,13319,12138,1,12138,1,0.00046825,-2.0231e-08,0,0.0010774,-8.4333e-05,1.2884e+08,-4011.2,0,2.6452e+08,3.1286e+05,12137,10979,1,10979,1,-0.0016088,-2.1883e-05,0,3.9545e-05,-0.00049194,-6.5432e+08,-3.3646e+06,0,1.6354e+07,-34.964,10978,11571,1,11571,1,-0.00059455,-5.0879e-06,0,0.00052006,-0.00028327,-2.417e+08,-1.1559e+06,0,1.6217e+08,90640,11570,12705,1,12705,1,0.0015402,5.0023e-06,0,0.0016036,0.00011239,2.6452e+08,1.1551e+06,0,2.881e+08,6.6258e+05,12704,656.67,0,656.67,0,0.0012434,8.5309e-06,0,0.00070907,0.00023168,3.018e+08,1.6132e+06,0,1.4916e+08,3.4009e+05,656.67,1
2268,6.51,12139,1,12139,1,0.00049992,-1.4408e-07,0,0.0011447,-9.0072e-05,-814.69,678.57,0,2.6219e+08,4.5179e+05,12138,13320,1,13320,1,0.0027097,2.523e-05,0,0.0027097,0.00030463,3.042e+08,3.8802e+06,0,6.5934e+08,1.4527e+06,13319,12138,1,12138,1,0.00047979,-3.7218e-08,0,0.0010945,-8.6286e-05,1.3111e+08,-8282.4,0,2.6373e+08,3.1771e+05,12137,10979,1,10979,1,-0.0016212,-2.5375e-05,0,2.7753e-05,-0.00050286,-6.5934e+08,-3.8553e+06,0,1.1985e+07,-1.5706e+05,10978,11571,1,11571,1,-0.00059244,-6.3024e-06,0,0.00051872,-0.0002894,-2.4084e+08,-1.4165e+06,0,1.6424e+08,64851,11570,12705,1,12705,1,0.0015758,6.2405e-06,0,0.0016152,0.00011188,2.6373e+08,1.4175e+06,0,2.84e+08,7.616e+05,12704,656.67,0,656.67,0,0.0012569,1.0313e-05,0,0.00072039,0.00023415,3.0191e+08,1.9227e+06,0,1.496e+08,4.3172e+05,656.67,1
2268,6.52,12139,1,12139,1,0.00051602,-1.6131e-07,0,0.0011604,-9.2832e-05,-147.56,1248.9,0,2.6201e+08,5.086e+05,12138,13320,1,13320,1,0.0027813,2.9773e-05,0,0.0027813,0.00030738,3.0252e+08,4.4763e+06,0,6.6523e+08,1.8502e+06,13319,12138,1,12138,1,0.00049294,-6.1998e-08,0,0.0011177,-8.849e-05,1.3365e+08,-10811,0,2.6198e+08,3.2127e+05,12137,10979,1,10979,1,-0.0016356,-2.9945e-05,0,1.3735e-05,-0.00051604,-6.6523e+08,-4.4498e+06,0,6.9953e+06,-4.2038e+05,10978,11571,1,11571,1,-0.00058996,-7.7687e-06,0,0.00051699,-0.00029611,-2.3982e+08,-1.7065e+06,0,1.6653e+08,42126,11570,12705,1,12705,1,0.0016125,7.6854e-06,0,0.0016287,0.00011137,2.6198e+08,1.7081e+06,0,2.8025e+08,9.0753e+05,12704,656.67,0,656.67,0,0.0012722,1.2528e-05,0,0.00073346,0.00023695,3.0202e+08,2.2994e+06,0,1.5013e+08,5.6031e+05,656.67,1
2268,6.53,12139,1,12139,1,0.00053455,-1.8964e-07,0,0.0011783,-9.6012e-05,1326.1,-422.12,0,2.6175e+08,5.6857e+05,12138,13320,1,13320,1,0.0028697,3.5861e-05,0,0.0028697,0.00031067,3.0078e+08,5.2456e+06,0,6.7226e+08,2.3927e+06,13319,12138,1,12138,1,0.0005083,-9.3033e-08,0,0.0011276,-9.0995e-05,1.3655e+08,-20570,0,2.5979e+08,3.0774e+05,12137,10979,1,10979,1,-0.0016529,-3.6057e-05,0,2.8478e-06,-0.0005323,-6.7226e+08,-5.222e+06,0,1.0179e+06,-7.65e+05,10978,11571,1,11571,1,-0.00058699,-9.5085e-06,0,0.00051491,-0.00030308,-2.386e+08,-2.1194e+06,0,1.6915e+08,14074,11570,12705,1,12705,1,0.0016524,9.3211e-06,0,0.0016532,0.0001108,2.5976e+08,2.1136e+06,0,2.7667e+08,1.0503e+06,12704,656.67,0,656.67,0,0.0012898,1.5339e-05,0,0.0007488,0.00024015,3.021e+08,2.7647e+06,0,1.5076e+08,7.4211e+05,656.67,1
2268,6.54,12139,1,12139,1,0.00055624,-2.0619e-07,0,0.0011994,-9.9695e-05,-1861.3,934.39,0,2.6147e+08,6.3217e+05,12138,13320,1,13320,1,0.0029818,4.4238e-05,0,0.0029818,0.00031467,2.9887e+08,6.2612e+06,0,6.808e+08,3.1212e+06,13319,12138,1,12138,1,0.00053585,-1.1869e-07,0,0.0011353,-9.3672e-05,1.399e+08,-25301,0,2.5634e+08,2.8308e+05,12137,10979,1,10979,1,-0.0016739,-4.4456e-05,0,9.0906e-06,-0.00055294,-6.808e+08,-6.2263e+06,0,2.3025e+06,-1.1874e+06,10978,11571,1,11571,1,-0.00058332,-1.1705e-05,0,0.00053587,-0.00031061,-2.3709e+08,-2.6339e+06,0,1.733e+08,-9931.7,11570,12705,1,12705,1,0.0016909,1.1645e-05,0,0.0016913,0.00011014,2.5632e+08,2.6235e+06,0,2.7311e+08,1.2616e+06,12704,656.67,0,656.67,0,0.0013104,1.8986e-05,0,0.00076674,0.00024388,3.0215e+08,3.3473e+06,0,1.5136e+08,9.9856e+05,656.67,1
2268,6.55,12139,1,12139,1,0.00058228,-2.2224e-07,0,0.0012247,-0.00010404,-266.07,1603.3,0,2.6114e+08,6.9685e+05,12138,13320,1,13320,1,0.0031287,5.6096e-05,0,0.0031287,0.00031966,2.9663e+08,7.6196e+06,0,6.9143e+08,4.1589e+06,13319,12138,1,12138,1,0.00056897,-1.5753e-07,0,0.001142,-9.6517e-05,1.4669e+08,-32787,0,2.5233e+08,2.3632e+05,12137,10979,1,10979,1,-0.0017001,-5.6282e-05,0,1.3348e-05,-0.00058001,-6.9143e+08,-7.5881e+06,0,3.7311e+06,-1.6881e+06,10978,11571,1,11571,1,-0.00057864,-1.4965e-05,0,0.00056899,-0.00031711,-2.3516e+08,-3.2842e+06,0,1.7895e+08,-1.228e+05,11570,12705,1,12705,1,0.0017176,1.4522e-05,0,0.0017183,0.00010941,2.523e+08,3.3121e+06,0,2.6971e+08,1.5148e+06,12704,656.67,0,656.67,0,0.0013354,2.3816e-05,0,0.00078891,0.00024832,3.0216e+08,4.0859e+06,0,1.5197e+08,1.361e+06,656.67,1
2268,6.56,12139,1,12139,1,0.00061445,-2.4779e-07,0,0.0012558,-0.00010931,355.3,1714.8,0,2.6066e+08,7.6561e+05,12138,13320,1,13320,1,0.0033298,7.3583e-05,0,0.0033298,0.00032612,2.9433e+08,9.5113e+06,0,7.0518e+08,5.6598e+06,13319,12138,1,12138,1,0.00060584,-2.4427e-07,0,0.0011658,-9.9708e-05,1.5327e+08,-49526,0,2.4802e+08,1.7263e+05,12137,10979,1,10979,1,-0.0017339,-7.385e-05,0,1.6751e-05,-0.00061707,-7.0518e+08,-9.4713e+06,0,4.9709e+06,-2.3586e+06,10978,11571,1,11571,1,-0.00057248,-1.9176e-05,0,0.00060585,-0.00032161,-2.326e+08,-4.1855e+06,0,1.8444e+08,-3.6004e+05,11570,12705,1,12705,1,0.0017679,1.8597e-05,0,0.001769,0.00010871,2.4796e+08,4.1873e+06,0,2.6606e+08,1.7828e+06,12704,656.67,0,656.67,0,0.0013668,3.0536e-05,0,0.00081797,0.00025378,3.0213e+08,5.0572e+06,0,1.5276e+08,1.8796e+06,656.67,1
2268,6.57,12139,1,12139,1,0.00065618,-2.5048e-07,0,0.0012957,-0.00011597,-505.07,4602.1,0,2.5985e+08,8.3596e+05,12138,13320,1,13320,1,0.0036204,0.00010058,0,0.0036204,0.00033473,2.9068e+08,1.214e+07,0,7.235e+08,7.8862e+06,13319,12138,1,12138,1,0.00064724,-3.2712e-07,0,0.0011879,-0.00010354,1.6024e+08,-64351,0,2.441e+08,68281,12137,10979,1,10979,1,-0.001779,-0.00010069,0,1.9338e-05,-0.00067065,-7.235e+08,-1.2098e+07,0,5.9998e+06,-3.2366e+06,10978,11571,1,11571,1,-0.00056382,-2.4594e-05,0,0.00063021,-0.00032816,-2.2896e+08,-5.3004e+06,0,1.8105e+08,-8.0611e+05,11570,12705,1,12705,1,0.0018261,2.3456e-05,0,0.0018275,0.00010798,2.44e+08,5.3152e+06,0,2.6216e+08,2.22e+06,12704,656.67,0,656.67,0,0.0014088,4.0176e-05,0,0.00085871,0.00026085,3.0201e+08,6.3417e+06,0,1.5393e+08,2.6256e+06,656.67,1
2268,6.58,12139,1,12139,1,0.0007125,-2.7282e-07,0,0.0013491,-0.00012452,-4925,3706.5,0,2.5853e+08,9.088e+05,12138,13320,1,13320,1,0.0040732,0.00014551,0,0.0040732,0.00034686,2.8657e+08,1.6047e+07,0,7.4923e+08,1.1328e+07,13319,12138,1,12138,1,0.00068093,-5.2401e-07,0,0.0012204,-0.00011325,1.6757e+08,-92128,0,2.4002e+08,5125.8,12137,10979,1,10979,1,-0.0018423,-0.00014558,0,2.1214e-06,-0.00075422,-7.4923e+08,-1.6023e+07,0,1.1139e+06,-4.7378e+06,10978,11571,1,11571,1,-0.00055099,-3.1799e-05,0,0.00061975,-0.00034033,-2.2354e+08,-6.7787e+06,0,1.8231e+08,-1.4958e+06,11570,12705,1,12705,1,0.0018953,3.0778e-05,0,0.0018973,0.00010711,2.3987e+08,6.8537e+06,0,2.6001e+08,2.6707e+06,12704,656.67,0,656.67,0,0.0014688,5.5391e-05,0,0.00092054,0.00027047,3.0178e+08,8.1649e+06,0,1.5579e+08,3.7601e+06,656.67,1
2268,6.59,12139,1,12139,1,0.00079533,-2.8199e-07,0,0.0014282,-0.00013608,-1677.2,6497.4,0,2.5674e+08,9.9275e+05,12138,13320,1,13320,1,0.004857,0.0002292,0,0.004857,0.00036511,2.8009e+08,2.2214e+07,0,7.8786e+08,1.6955e+07,13319,12138,1,12138,1,0.00074842,-8.5671e-07,0,0.0012483,-0.00012814,1.6983e+08,-1.16e+05,0,2.3471e+08,-64443,12137,10979,1,10979,1,-0.0019374,-0.00022915,0,2.1979e-05,-0.00089911,-7.8786e+08,-2.2185e+07,0,7.3061e+06,-7.0597e+06,10978,11571,1,11571,1,-0.0005302,-4.3329e-05,0,0.00061502,-0.00034766,-2.1469e+08,-8.7668e+06,0,1.7499e+08,-2.7578e+06,11570,12705,1,12705,1,0.0019684,4.2408e-05,0,0.0019708,0.00010621,2.3505e+08,8.8545e+06,0,2.6069e+08,3.3334e+06,12704,656.67,0,656.67,0,0.0015652,8.1342e-05,0,0.001024,0.00028477,3.0149e+08,1.082e+07,0,1.5835e+08,5.5206e+06,656.67,1
2268,6.6,12139,1,12139,1,0.0009273,-2.4325e-07,0,0.0015539,-0.00015172,-3793.4,15715,0,2.5349e+08,1.0772e+06,12138,13320,1,13320,1,0.0064368,0.00041396,0,0.0064368,0.00039456,2.8344e+08,3.2568e+07,0,8.4997e+08,2.6442e+07,13319,12138,1,12138,1,0.00081889,-2.6974e-07,0,0.0012983,-0.00014436,1.563e+08,-36093,0,2.2643e+08,-3.2757e+05,12137,10979,1,10979,1,-0.0020902,-0.0004138,0,2.8109e-06,-0.0011912,-8.4997e+08,-3.2519e+07,0,1.1059e+06,-1.1221e+07,10978,11571,1,11571,1,-0.00049134,-6.0091e-05,0,0.00065266,-0.00035596,-1.9808e+08,-1.1288e+07,0,1.6408e+08,-4.7145e+06,11570,12705,1,12705,1,0.0020469,6.0519e-05,0,0.0020728,9.6948e-05,2.2776e+08,1.1378e+07,0,2.6493e+08,4.2285e+06,12704,656.67,0,656.67,0,0.0017442,0.00013269,0,0.0012266,0.00030808,3.0105e+08,1.4937e+07,0,1.63e+08,8.4247e+06,656.67,1
2268,6.61,12139,1,12139,1,0.0011626,-2.909e-07,0,0.0017807,-0.00017005,-60.971,10226,0,2.476e+08,1.1623e+06,12138,13320,1,13320,1,0.010437,0.00091931,0,0.010437,0.00044586,3.1454e+08,5.0667e+07,0,9.5746e+08,4.23e+07,13319,12138,1,12138,1,0.00093277,-1.2762e-06,0,0.0013406,-0.00016195,1.4111e+08,-1.6485e+05,0,2.1435e+08,-9.4306e+05,12137,10979,1,10979,1,-0.0023548,-0.0009203,0,2.1502e-05,-0.0019263,-9.5746e+08,-5.0607e+07,0,7.5708e+06,-1.8731e+07,10978,11571,1,11571,1,-0.00040889,-8.6606e-05,0,0.00070704,-0.00034493,-1.6601e+08,-1.4945e+07,0,1.4764e+08,-7.681e+06,11570,12705,1,12705,1,0.0021023,8.8959e-05,0,0.0021592,8.5312e-05,2.1603e+08,1.5105e+07,0,2.8096e+08,5.7289e+06,12704,656.67,0,656.67,0,0.0021573,0.00025466,0,0.0017026,0.0003505,3.004e+08,2.1479e+07,0,1.7136e+08,1.3242e+07,656.67,1
2268,6.62,12139,1,12139,1,0.0016261,-5.8863e-07,0,0.002235,-0.0001656,-10005,-21226,0,2.3413e+08,1.2142e+06,12138,13320,1,13320,1,0.024392,0.0028235,0,0.024392,0.00053517,3.6883e+08,8.0176e+07,0,1.142e+09,6.4541e+07,13319,12138,1,12138,1,0.0010338,-1.7794e-06,0,0.0013518,-0.00017988,1.2132e+08,-2.3626e+05,0,1.9045e+08,-1.6788e+06,12137,10979,1,10979,1,-0.0028092,-0.0027911,0,1.2333e-05,-0.0043781,-1.142e+09,-8.0171e+07,0,3.185e+06,-3.0962e+07,10978,11571,1,11571,1,-0.0002841,-0.00013156,0,0.00070514,-0.00028447,-1.1844e+08,-1.9378e+07,0,1.2351e+08,-1.1269e+07,11570,12705,1,12705,1,0.002068,0.00013114,0,0.0022252,6.6289e-05,1.9148e+08,1.9155e+07,0,2.7089e+08,7.3404e+06,12704,656.67,0,656.67,0,0.0033887,0.00060525,0,0.0030818,0.00043621,2.9741e+08,3.0823e+07,0,1.8591e+08,2.0034e+07,656.67,1
2268,6.62,12139,1,12139,1,0.0017138,-1.4685e-07,0,0.0023273,-0.00015113,-2.9972,17637,0,2.3221e+08,1.2291e+06,12138,13320,1,13320,1,0.030734,0.0035896,0,0.030735,0.00055162,3.8262e+08,8.5585e+07,0,1.1759e+09,6.8411e+07,13319,12138,1,12138,1,0.0010446,-9.0794e-07,0,0.0013499,-0.00017416,1.1833e+08,-1.021e+05,0,1.8654e+08,-1.7767e+06,12137,10979,1,10979,1,-0.0028927,-0.0036154,0,1.9733e-05,-0.0054002,-1.1759e+09,-8.5559e+07,0,6.9904e+06,-3.3224e+07,10978,11571,1,11571,1,-0.00026018,-0.00013951,0,0.00071659,-0.00026321,-1.0963e+08,-1.9814e+07,0,1.2155e+08,-1.1911e+07,11570,12705,1,12705,1,0.0020508,0.00013964,0,0.0022285,6.2445e-05,1.8739e+08,1.9821e+07,0,2.7493e+08,7.5841e+06,12704,656.67,0,656.67,0,0.003752,0.00072221,0,0.0034812,0.00044789,2.9769e+08,3.2457e+07,0,1.8902e+08,2.1206e+07,656.67,1
